91

 P                  1.87810700   -0.21375000   -0.22781400
 C                  2.32192800   -1.13182800    1.30853500
 C                  1.95105000    1.52871600    0.36792500
 C                  3.42009400   -0.38184300   -1.21115900
 C                  1.29432200   -1.66855400    2.08939300
 C                  1.58329600   -2.32251800    3.28599400
 C                  2.90304300   -2.45657400    3.70600100
 C                  3.93421500   -1.92921600    2.92994300
 C                  3.64645800   -1.26759600    1.74037100
 C                  1.69247600    1.85098100    1.70391000
 C                  1.54925700    3.18168200    2.09715000
 C                  1.68162800    4.20949600    1.16852100
 C                  1.95565700    3.89993400   -0.16411000
 C                  2.07674600    2.57240600   -0.56041500
 C                  3.54080900   -1.54134800   -1.99027700
 C                  4.66689500   -1.78203400   -2.76275300
 C                  5.71726700   -0.85373900   -2.79409100
 C                  5.60928700    0.30326500   -2.01130600
 C                  4.48293700    0.52836100   -1.22939800
 H                  0.26298600   -1.56854400    1.76273300
 H                  0.77069700   -2.72877300    3.88037200
 H                  3.13068500   -2.97356300    4.63331400
 H                  4.96603600   -2.03395800    3.25152800
 H                  4.45572400   -0.86097000    1.14040700
 H                  1.58236600    1.05965300    2.44020200
 H                  1.33701300    3.41204700    3.13718400
 H                  1.57234800    5.24438400    1.47786700
 H                  2.06252500    4.69292200   -0.89851200
 H                  2.26435000    2.34210400   -1.60654400
 H                  2.73237800   -2.26960800   -1.98104700
 H                  4.73959000   -2.69279900   -3.35147500
 N                  6.86567700   -1.10505000   -3.53803900
 H                  6.42261800    1.02448800   -2.01046500
 H                  4.43691300    1.42865700   -0.62324300
 P                 -2.09804500   -0.04073400   -0.17979500
 C                 -3.66772300   -0.89377600   -0.58422400
 C                 -2.52619500    1.74620200   -0.34690500
 C                 -2.02066100   -0.27239400    1.65007500
 C                 -3.77460000   -1.58231200   -1.79607300
 C                 -4.95396200   -2.21549100   -2.16573000
 C                 -6.07034900   -2.18488200   -1.32072500
 C                 -5.97018000   -1.49937400   -0.09931800
 C                 -4.78936800   -0.86720000    0.25713600
 C                 -3.82849700    2.20440100   -0.56655300
 C                 -4.08452800    3.56865800   -0.69225000
 C                 -3.04817700    4.49157100   -0.59073300
 C                 -1.74648600    4.04441400   -0.37529300
 C                 -1.48607800    2.68190100   -0.26809600
 C                 -2.28579700   -1.54084500    2.18503300
 C                 -2.06381400   -1.80227900    3.53410500
 C                 -1.56198600   -0.80429100    4.36833100
 C                 -1.29590600    0.45765700    3.84457100
 C                 -1.52757600    0.72494100    2.49647300
 H                 -2.90595800   -1.62895100   -2.44931200
 H                 -5.01470700   -2.74432400   -3.11325600
 N                 -7.26838500   -2.77641700   -1.70180200
 H                 -6.82848200   -1.46734300    0.56682600
 H                 -4.73453500   -0.34752100    1.21093500
 H                 -4.64772300    1.49886100   -0.65644900
 H                 -5.09989100    3.90766800   -0.87383300
 H                 -3.25185100    5.55341600   -0.68912400
 H                 -0.92454600    4.75013900   -0.30212100
 H                 -0.46394900    2.34045600   -0.12665300
 H                 -2.66233000   -2.33097800    1.53968200
 H                 -2.27765900   -2.79018200    3.93159200
 H                 -1.37964000   -1.01006700    5.41859500
 H                 -0.90812300    1.24324600    4.48678300
 H                 -1.31323300    1.71527400    2.10517000
 Rh                -0.21204700   -0.80460300   -1.31515300
 C                 -0.46143500   -2.59240800   -0.78924000
 O                 -0.63288300   -3.68017700   -0.45349500
 H                 -0.16005300    0.70188700   -1.98686400
 H                  6.73886400   -1.73655800   -4.31787200
 H                  7.39231500   -0.28284300   -3.80184400
 H                 -7.18414400   -3.51542000   -2.38703200
 H                 -7.88444700   -3.03151400   -0.94152800
 C                  0.23424000   -1.31303800   -3.41437700
 C                 -0.08718300    0.06011000   -3.45670000
 C                  1.01156400    1.03715400   -3.82495100
 O                  1.28876300    0.98392300   -5.23252800
 C                  0.39755300    1.60634700   -6.02559800
 C                  0.78334000    1.47082500   -7.47583100
 O                 -0.57447000    2.18792600   -5.61232900
 H                  1.27225700   -1.60095800   -3.56441900
 H                 -0.50765200   -2.04462700   -3.71745800
 H                 -1.08135200    0.36237600   -3.77653700
 H                  1.94852700    0.74474000   -3.34281400
 H                  0.74651200    2.06317900   -3.55446900
 H                  0.77321200    0.41457700   -7.75730000
 H                  1.79888500    1.84391000   -7.62789400
 H                  0.07811100    2.02804600   -8.09030900