91

 P                  2.09778400   -0.26975700    0.00065400
 C                  2.33650700   -1.56885000    1.27868700
 C                  2.06712800    1.26089600    1.03027500
 C                  3.74179300   -0.17165000   -0.79919700
 C                  1.20255500   -2.02796500    1.95917800
 C                  1.32409800   -2.97041700    2.97491300
 C                  2.57787300   -3.47786500    3.31020400
 C                  3.70883300   -3.03460800    2.62960200
 C                  3.59184500   -2.07995800    1.62068200
 C                  2.37530100    1.27064900    2.39408000
 C                  2.22436300    2.43848400    3.14118200
 C                  1.76329600    3.60615500    2.53722400
 C                  1.47637800    3.61214600    1.17254200
 C                  1.63417200    2.44766000    0.42758200
 C                  3.99748400   -1.00430900   -1.89621800
 C                  5.23604500   -1.01149400   -2.52023100
 C                  6.26294500   -0.16855500   -2.07063500
 C                  6.01174900    0.66812000   -0.97482100
 C                  4.77188600    0.66049300   -0.34897600
 H                  0.22011900   -1.64459900    1.69435400
 H                  0.43384100   -3.30954800    3.49604400
 H                  2.67287500   -4.22076700    4.09630600
 H                  4.68741300   -3.43088400    2.88297200
 H                  4.47967000   -1.73420800    1.09909700
 H                  2.70816600    0.35956200    2.88278600
 H                  2.45649900    2.42989600    4.20218700
 H                  1.62644400    4.50714800    3.12733200
 H                  1.10349000    4.51119800    0.68985900
 H                  1.37906800    2.44684500   -0.62771500
 H                  3.20331100   -1.65271200   -2.26152300
 H                  5.41667800   -1.67039500   -3.36565500
 N                  7.51968500   -0.20190700   -2.66557000
 H                  6.79947100    1.32336400   -0.61198800
 H                  4.60544800    1.31520700    0.50225000
 P                 -1.56791600    0.57503700   -0.45826600
 C                 -3.23671800    0.08400200   -1.05961400
 C                 -1.69637600    2.41557200   -0.42542400
 C                 -1.68286800    0.13778500    1.33388500
 C                 -3.40896000   -1.22241600   -1.53624100
 C                 -4.64328200   -1.67867600   -1.97624800
 C                 -5.75554000   -0.82568500   -1.97465800
 C                 -5.58873300    0.48702100   -1.51283000
 C                 -4.35310400    0.92776400   -1.05908200
 C                 -2.32701200    3.13576300    0.59610900
 C                 -2.37474600    4.52723600    0.55844100
 C                 -1.80534700    5.21993300   -0.50805800
 C                 -1.18961700    4.51435500   -1.53937800
 C                 -1.13325300    3.12358500   -1.49249000
 C                 -2.35966800   -1.02205400    1.73110200
 C                 -2.29106300   -1.47054900    3.04857600
 C                 -1.54771200   -0.76621700    3.99306600
 C                 -0.88102700    0.39529300    3.61087200
 C                 -0.94650800    0.84429900    2.29443800
 H                 -2.55409300   -1.89431800   -1.57477200
 H                 -4.74466400   -2.69468300   -2.34840300
 N                 -6.97840900   -1.25125100   -2.48029900
 H                 -6.43776600    1.16585800   -1.51775100
 H                 -4.26129900    1.95103500   -0.70754700
 H                 -2.77483600    2.60513200    1.43170400
 H                 -2.85993500    5.07070700    1.36348600
 H                 -1.84257400    6.30465700   -0.53547700
 H                 -0.74612400    5.04544900   -2.37613000
 H                 -0.62816100    2.57463600   -2.28413500
 H                 -2.94178400   -1.58481900    1.00710400
 H                 -2.82209100   -2.37369900    3.33448600
 H                 -1.48949900   -1.11896300    5.01819200
 H                 -0.29542800    0.95639600    4.33324800
 H                 -0.41518500    1.75081200    2.01747100
 Rh                 0.35993400   -0.51778900   -1.51019100
 C                  0.06779100   -2.36228800   -1.14929700
 O                 -0.11163700   -3.47427200   -0.91778000
 H                  0.94111100    0.89677800   -2.08775700
 H                  7.53254300   -0.53615400   -3.62005700
 H                  8.06976400    0.63924800   -2.55267100
 H                 -7.12057500   -2.25246900   -2.47446200
 H                 -7.78548300   -0.75021700   -2.13358700
 C                  0.92810300    0.21906400   -3.58287600
 C                 -0.15503000   -0.69348300   -3.63137700
 C                 -1.49929100   -0.19468800   -4.07934600
 O                 -1.53675400    0.00953700   -5.51357800
 C                 -1.67265100   -1.10252000   -6.25096400
 C                 -1.70003400   -0.77384000   -7.72287600
 O                 -1.76166900   -2.21362800   -5.78750800
 H                  0.74381800    1.24010800   -3.91864400
 H                  1.94672300   -0.11663800   -3.75328700
 H                  0.06250700   -1.72546300   -3.89275400
 H                 -1.71663400    0.79191200   -3.66057500
 H                 -2.30234300   -0.88245600   -3.81288200
 H                 -0.76593400   -0.28211100   -8.00638400
 H                 -2.51638700   -0.07810000   -7.93172600
 H                 -1.82988100   -1.69086000   -8.29551000

