101

 H                 -1.03486200   -4.11208000    3.50988600
 H                 -1.26197100   -3.34371700    1.17820700
 H                 -3.32334100   -2.12430500   -2.32408700
 H                 -5.66679300   -2.79994200   -2.83380600
 H                 -6.86542900   -1.55253800    1.09859300
 H                 -4.53846300   -0.87703700    1.59647200
 H                  2.52438900   -1.66782100   -3.07392500
 H                  4.68313500   -2.26806500   -4.12589800
 H                  6.56230500   -2.24492000   -0.26153500
 H                  4.40818400   -1.62368200    0.78374800
 H                  2.12780800   -4.82658700    2.67763500
 H                  1.97245200   -3.71252500    0.47966800
 C                 -1.32868600   -3.08658900    3.30957100
 C                 -1.45593000   -2.65262800    1.99456200
 C                 -3.78515900   -1.43988500   -0.34583900
 C                 -4.11209300   -1.98849500   -1.58743500
 C                 -5.42447900   -2.36978700   -1.86702800
 C                 -6.41610600   -2.20707600   -0.90535000
 C                 -6.09550000   -1.66937600    0.34202800
 C                 -4.78702200   -1.29092400    0.62212200
 C                  3.32120900   -1.59338300   -1.07879400
 C                  3.41304800   -1.78252300   -2.45970500
 C                  4.62895600   -2.12376300   -3.05142600
 C                  5.76334400   -2.28682800   -2.26270000
 C                  5.68031600   -2.11196900   -0.88075000
 C                  4.46783500   -1.76730200   -0.29205200
 C                  1.81165200   -1.72507800    1.30594400
 C                  1.95987100   -2.99272500    3.79903000
 C                  2.01810900   -3.74736000    2.62823200
 C                  1.93083900   -3.11924200    1.39130300
 H                 -2.32989400    0.58017900    2.58167300
 H                 -2.07261000   -0.18663300    4.91083400
 H                  1.63986600    0.10304200    2.43892900
 H                  1.74435500   -1.01966600    4.62994400
 C                 -1.82770100   -1.33290700    1.71688000
 C                 -2.04414800   -0.44956900    2.77821700
 C                 -1.90306900   -0.88301400    4.09508700
 C                 -1.55177700   -2.20236300    4.36279100
 C                  1.73934200   -0.97732900    2.48260200
 C                  1.80745800   -1.61201100    3.72207600
 H                 -4.34158000    1.03155200   -0.57990600
 H                 -2.43209800    4.83202600    0.03874500
 S                 -4.96266600    3.94132800   -0.75309100
 H                  2.55475600    4.64958900   -0.12823500
 H                  4.10804500    0.73425800   -0.95326000
 S                  4.94315400    3.57589700   -1.12696300
 C                 -3.47519700    1.61581600   -0.29525300
 C                 -2.30204800    0.94834500    0.06320000
 C                 -1.19570100    1.71343100    0.41669000
 C                 -1.20695500    3.10799700    0.43055000
 C                 -2.38342000    3.74735100    0.05412400
 C                 -3.51949700    3.01129800   -0.30716200
 C                  1.12456300    1.62307800    0.32839500
 C                  1.24225700    3.01455100    0.35169100
 C                  2.42803600    3.57137000   -0.11224100
 C                  3.47110500    2.75607700   -0.57168100
 C                  3.31634000    1.37075500   -0.58013000
 C                  2.12892000    0.77761300   -0.13606500
 C                  0.06254200    3.80338900    0.91662600
 O                 -0.04690900    1.03505300    0.75295600
 P                 -2.05935200   -0.87080300   -0.04933400
 P                  1.71872500   -1.00600000   -0.38253700
 C                  0.10378800    3.69287700    2.45811100
 H                  1.02767600    4.13804800    2.84120100
 H                 -0.75123700    4.21970800    2.89429600
 H                  0.06454500    2.64633600    2.77671300
 C                  0.10573300    5.27684900    0.51730300
 H                 -0.74128300    5.81482000    0.95224800
 H                  1.01317100    5.75026400    0.90246800
 H                  0.07953700    5.40071200   -0.56988400
 H                  2.02168600   -3.48130600    4.76683000
 H                 -1.44162800   -2.53981300    5.38903400
 H                  6.71035800   -2.55642600   -2.72001400
 H                 -7.43737700   -2.50600400   -1.12052600
 Rh                -0.44585000   -1.53294300   -1.63932800
 H                  0.29704000   -1.84338900   -3.04765000
 C                 -0.75446000   -3.36328500   -1.45405100
 O                 -0.96204400   -4.49314600   -1.35856700
 C                 -6.15369500    2.63885600   -1.14881900
 H                 -6.34774000    1.99685300   -0.28622700
 H                 -7.07667400    3.15215600   -1.42380000
 H                 -5.81824700    2.03472900   -1.99498900
 C                  5.94428000    2.19642100   -1.73474900
 H                  5.43695300    1.66080100   -2.54074900
 H                  6.86079300    2.64202000   -2.12517300
 H                  6.20145000    1.50154000   -0.93192300
 C                 -0.50125300    0.44975300   -2.59351400
 C                 -0.18083500   -0.44012200   -3.64444300
 C                 -1.23897900   -0.85400200   -4.64024500
 O                 -1.30008700    0.08425900   -5.73052900
 C                 -0.31815300   -0.02009800   -6.64299300
 C                 -0.48799400    1.00181000   -7.73670400
 O                  0.57420600   -0.83013500   -6.57600100
 H                 -1.52427300    0.81358300   -2.52458400
 H                  0.25878700    1.13021500   -2.21535300
 H                  0.81631300   -0.37620600   -4.07820300
 H                 -2.22699800   -0.81882600   -4.17881800
 H                 -1.04959600   -1.85114500   -5.04358800
 H                 -0.44964700    2.00610600   -7.30704000
 H                 -1.46641000    0.88140800   -8.20796100
 H                  0.30435300    0.87797800   -8.47310500

