117

 C                 -2.37038600   -1.89854800    1.02049300
 C                 -1.49938300   -0.83941900    0.72460800
 C                 -0.39176800   -0.57611100    1.53778300
 C                 -0.20513200   -1.37214200    2.69208100
 C                 -1.05804700   -2.42518500    2.98808600
 C                 -2.13452800   -2.69208000    2.13692300
 H                 -3.22380600   -2.08506900    0.38301500
 H                 -0.91534900   -3.06944300    3.84637100
 O                 -2.90731000   -3.75148200    2.49283100
 C                  0.59193500    0.51600600    1.27132500
 C                  0.57003200    1.64417100    2.12670400
 C                  1.53565300    0.49112100    0.23879700
 C                  1.41156100    2.72661900    1.91992700
 C                  2.40163200    1.57523600    0.03529900
 C                  2.32045400    2.69050900    0.85934900
 H                  1.38403400    3.61522200    2.53773900
 H                  3.13744200    1.53701500   -0.75401400
 O                  3.09554300    3.79633700    0.71610400
 P                 -1.71600800    0.10468700   -0.85437000
 P                  1.56114700   -0.91724500   -0.97208300
 C                  3.23639800   -0.81282800   -1.73490000
 C                  4.26351500   -1.72395200   -1.48141300
 C                  3.46545000    0.18882000   -2.69365600
 C                  5.48301900   -1.61668100   -2.14706000
 H                  4.11891600   -2.53202200   -0.77257900
 C                  4.68339700    0.30165800   -3.34418400
 H                  2.67521800    0.88843500   -2.95488400
 C                  5.72362200   -0.60047200   -3.07544600
 H                  6.26747900   -2.33966200   -1.93766300
 H                  4.79960700    1.08324500   -4.08897500
 C                  7.03644600   -0.52649600   -3.73870300
 C                  1.69325500   -2.34287200    0.17521900
 C                  2.60002200   -2.31138400    1.24470900
 C                  0.84037200   -3.43846300    0.04843700
 C                  2.65095500   -3.35143600    2.15846300
 H                  3.25360400   -1.45154400    1.37148700
 C                  0.88238400   -4.47309600    0.97822200
 H                  0.11381000   -3.46807400   -0.75609500
 C                  1.77452800   -4.44220500    2.05385900
 H                  3.36652200   -3.30446900    2.97438500
 H                  0.18878400   -5.30497800    0.88598600
 C                  1.73421000   -5.52826700    3.04822200
 C                 -1.71742600    1.83144100   -0.22237000
 C                 -2.39292800    2.19197900    0.95218900
 C                 -0.96335100    2.79898000   -0.88703000
 C                 -2.31239200    3.48448100    1.44548600
 H                 -2.96134100    1.44212900    1.49737700
 C                 -0.86592800    4.09040100   -0.37734500
 H                 -0.41597700    2.52346400   -1.78521500
 C                 -1.52400200    4.45082800    0.80270100
 H                 -2.85130700    3.73914500    2.35372200
 H                 -0.24450900    4.82426000   -0.88449100
 C                 -1.33453200    5.80830200    1.34230400
 C                 -3.48434500   -0.18483900   -1.29062600
 C                 -4.51853900    0.72147700   -1.04623500
 C                 -3.79798300   -1.37557200   -1.96817500
 C                 -5.82325500    0.42990300   -1.43649000
 H                 -4.31402100    1.66791800   -0.55788100
 C                 -5.10124300   -1.67214700   -2.33605300
 H                 -2.99853100   -2.06888200   -2.21706800
 C                 -6.14468700   -0.77350200   -2.06982600
 H                 -6.61201000    1.15164000   -1.23915900
 H                 -5.30354700   -2.59982600   -2.86278800
 C                 -7.54482100   -1.03989300   -2.44120700
 H                  0.51221300    0.73952400   -2.82898400
 O                  0.86275800   -1.04609500    3.46062500
 O                 -0.33974800    1.59901700    3.13071700
 Rh                -0.17525300   -0.71800100   -2.51238300
 C                 -0.46073600   -2.54023600   -2.96713400
 O                 -0.65879800   -3.62121900   -3.31792100
 C                  1.06138200   -1.78279100    4.64499000
 H                  1.95162900   -1.36264700    5.11460000
 H                  0.20536900   -1.67767000    5.32278600
 H                  1.22566200   -2.84721300    4.43384700
 C                 -0.36270300    2.67850200    4.03556600
 H                  0.59901700    2.77956700    4.55324200
 H                 -0.59963200    3.62274400    3.52838900
 H                 -1.14454500    2.44722300    4.75988900
 C                 -8.03969500   -2.19084100   -2.89886500
 H                 -8.22223400   -0.19770700   -2.30699600
 H                 -7.42588900   -3.07533000   -3.04037100
 H                 -9.09148600   -2.28645000   -3.14480400
 C                 -1.76078900    6.26290600    2.52274800
 H                 -0.76747500    6.48067600    0.70019700
 H                 -2.32249500    5.64643300    3.21892100
 H                 -1.55994100    7.28236200    2.83291600
 C                  7.46975800    0.45717000   -4.52851200
 H                  7.70049100   -1.36605600   -3.53749100
 H                  6.86521900    1.32976500   -4.75695700
 H                  8.45848300    0.42089200   -4.97248300
 C                  2.39507600   -5.57119700    4.20727300
 H                  1.07429200   -6.35649000    2.79439700
 H                  3.06115700   -4.77606300    4.53037500
 H                  2.29021200   -6.41695500    4.87776200
 C                  3.99036200    3.82013300   -0.37549300
 H                  3.45821400    3.71173900   -1.32889000
 H                  4.48391200    4.79123200   -0.34057000
 H                  4.74201400    3.02568700   -0.29530700
 C                 -3.98724200   -4.07643100    1.64528200
 H                 -4.45993000   -4.95654700    2.08112100
 H                 -4.71574800   -3.25848400    1.59294400
 H                 -3.64056300   -4.31001800    0.63087300
 C                 -1.26016000   -0.05703000   -4.23166700
 C                  0.03155900    0.54980100   -4.35279900
 C                  1.08300700   -0.08217500   -5.23693000
 O                  1.29527400    0.71111500   -6.42657400
 C                  2.08167200    1.78169500   -6.26390800
 C                  2.26673400    2.52556000   -7.56073600
 O                  2.57516700    2.10151500   -5.20506100
 H                 -1.48717100   -0.89504100   -4.88609800
 H                 -2.11699700    0.56840400   -3.99284800
 H                  0.08791200    1.63860300   -4.33923100
 H                  0.73907000   -1.05555600   -5.59259700
 H                  2.04270700   -0.20143600   -4.73482900
 H                  1.29301500    2.83222700   -7.95054200
 H                  2.72471900    1.86456900   -8.30081900
 H                  2.89730300    3.39714200   -7.39271700

