117

 C                 -2.24495300   -1.84863000    0.97647700
 C                 -1.42746800   -0.73641600    0.72924100
 C                 -0.30268700   -0.49114500    1.52713500
 C                 -0.03100300   -1.37794000    2.59401500
 C                 -0.82825900   -2.48711700    2.83409000
 C                 -1.93218200   -2.72190200    2.01165300
 H                 -3.12456200   -2.01717100    0.37338200
 H                 -0.61780800   -3.20089500    3.62043400
 O                 -2.64907100   -3.83827900    2.30309400
 C                  0.60246200    0.68040200    1.33280800
 C                  0.51658900    1.74426400    2.26565700
 C                  1.48040700    0.81603700    0.25662900
 C                  1.20838300    2.92872300    2.07387300
 C                  2.15262800    2.03171800    0.03242400
 C                  2.00324200    3.07799200    0.93113900
 H                  1.13135700    3.76843100    2.75282300
 H                  2.77681400    2.13806500   -0.84634900
 O                  2.59915300    4.29189400    0.79624800
 P                 -1.77371900    0.32643800   -0.76036700
 P                  1.56969900   -0.46915900   -1.06229000
 C                  3.30582000   -0.39648200   -1.67412100
 C                  4.40446600    0.09338900   -0.95742800
 C                  3.53533100   -0.95034300   -2.94141600
 C                  5.67969300    0.05560400   -1.51005700
 H                  4.26665700    0.51415800    0.03453700
 C                  4.80896400   -0.98387400   -3.49263100
 H                  2.70715500   -1.35963900   -3.51445800
 C                  5.90354600   -0.46526900   -2.79071600
 H                  6.52119300    0.44396300   -0.94111100
 H                  4.93340500   -1.41144100   -4.48197700
 C                  7.26750900   -0.44667700   -3.34717200
 C                  1.65510300   -2.04549400   -0.10699900
 C                  2.62276400   -2.24134900    0.88663300
 C                  0.74370100   -3.06792400   -0.36836000
 C                  2.65104800   -3.41364400    1.62419800
 H                  3.34959200   -1.46160800    1.09584100
 C                  0.76870700   -4.24156700    0.37965800
 H                 -0.00780200   -2.93088200   -1.14075200
 C                  1.70395200   -4.42473800    1.40226800
 H                  3.41523200   -3.54356500    2.38542400
 H                  0.03047700   -5.01690500    0.18900300
 C                  1.63958300   -5.64587400    2.22278600
 C                 -1.85880700    1.97932800    0.04712700
 C                 -2.51316600    2.11061100    1.28224200
 C                 -1.27516400    3.11019600   -0.52047900
 C                 -2.56301400    3.33195500    1.93259000
 H                 -2.97094600    1.23908700    1.74367700
 C                 -1.30945500    4.33307000    0.14510600
 H                 -0.76902800    3.03382700   -1.47713200
 C                 -1.93432800    4.46222500    1.38773200
 H                 -3.08299300    3.40351300    2.88360900
 H                 -0.81793300    5.19708700   -0.29502500
 C                 -1.88418200    5.75801700    2.08606600
 C                 -3.55412800   -0.00622400   -1.12849700
 C                 -4.57005500    0.92493500   -0.90269400
 C                 -3.90370100   -1.22125700   -1.74180300
 C                 -5.88727100    0.63750600   -1.25364200
 H                 -4.34427700    1.88747800   -0.45781900
 C                 -5.21741200   -1.51231900   -2.07095100
 H                 -3.13496000   -1.95411000   -1.96544200
 C                 -6.24132300   -0.58451700   -1.82897000
 H                 -6.65928300    1.38081100   -1.07116000
 H                 -5.44319900   -2.46290700   -2.54425600
 C                 -7.65235300   -0.84130700   -2.16323400
 H                  0.05843000    1.56313400   -2.42754600
 O                  1.06468500   -1.07977800    3.33220100
 O                 -0.30308200    1.52892000    3.32348700
 Rh                -0.26724300   -0.01940300   -2.55246700
 C                 -0.99707200   -1.65494900   -3.23471000
 O                 -1.37483900   -2.66375400   -3.64540800
 C                  1.37251300   -1.93393900    4.40988000
 H                  2.28311600   -1.53620700    4.85876500
 H                  0.56700100   -1.93614100    5.15439800
 H                  1.54926400   -2.96116800    4.06641700
 C                 -0.35753800    2.52841800    4.31519100
 H                  0.63015100    2.69130100    4.76348500
 H                 -0.72877700    3.47801300    3.90938700
 H                 -1.04782900    2.16115400    5.07541100
 C                 -8.16740200   -1.98499400   -2.61671800
 H                 -8.31980500    0.00491100   -2.00668700
 H                 -7.56435200   -2.87186900   -2.78635200
 H                 -9.22632400   -2.07113000   -2.83368000
 C                 -2.27339500    5.99995700    3.33975600
 H                 -1.46279500    6.57642100    1.50423600
 H                 -2.69017400    5.22867100    3.98142000
 H                 -2.18707500    6.99201900    3.76891000
 C                  7.60001300   -0.66461600   -4.62036900
 H                  8.05556900   -0.21495100   -2.63163500
 H                  6.85826700   -0.87492300   -5.38518500
 H                  8.63572600   -0.63053500   -4.94033600
 C                  2.32181600   -5.88690800    3.34460100
 H                  0.93843200   -6.40002600    1.86820300
 H                  3.02769700   -5.17500700    3.76329600
 H                  2.19564300   -6.81842600    3.88519500
 C                  3.40110300    4.49186800   -0.34599500
 H                  2.81374200    4.38936100   -1.26728500
 H                  3.78769100    5.50820200   -0.27199300
 H                  4.23779200    3.78302100   -0.37715300
 C                 -3.73950900   -4.14378400    1.46197800
 H                 -4.15442700   -5.08106500    1.83233600
 H                 -4.50868700   -3.36301500    1.50137700
 H                 -3.41476800   -4.27149000    0.42143600
 C                  0.08669400    1.64394200   -4.03069100
 C                  0.80640200    0.44469300   -4.33761300
 C                  0.41868700   -0.39855600   -5.51990200
 O                  1.05502000    0.08522600   -6.72655000
 C                  2.33744700   -0.26849300   -6.88643000
 C                  2.90677600    0.31438500   -8.15437500
 O                  2.95059000   -0.96278900   -6.10860100
 H                 -0.86574100    1.83419000   -4.51957700
 H                  0.65223400    2.55209800   -3.82778300
 H                  1.88136400    0.47665300   -4.17274500
 H                 -0.65297900   -0.33427700   -5.72171600
 H                  0.70894700   -1.44359600   -5.38860500
 H                  2.90032200    1.40552900   -8.08724500
 H                  2.28456200    0.03195200   -9.00669200
 H                  3.92565900   -0.04413300   -8.29238900

