109

 C                 -2.14946400   -1.99890600    1.31015400
 C                 -1.43603300   -0.86596500    0.89416300
 C                 -0.33716300   -0.40780100    1.63284900
 C                  0.01598000   -1.10448700    2.81134900
 C                 -0.67668400   -2.23345800    3.21971100
 C                 -1.75842300   -2.68187600    2.45756700
 H                 -3.01279500   -2.33201900    0.75400500
 H                 -0.40802900   -2.80038200    4.10188700
 O                 -2.37237300   -3.79608100    2.92162100
 C                  0.46611300    0.79491000    1.26425400
 C                  0.30326200    1.97071300    2.04083000
 C                  1.33763200    0.83815200    0.17597600
 C                  0.91046100    3.16116200    1.67555600
 C                  1.92505400    2.05211900   -0.22462100
 C                  1.69887500    3.20282000    0.51864500
 H                  0.77955000    4.07836600    2.23581200
 H                  2.54569000    2.07762600   -1.11208500
 O                  2.20908000    4.42226800    0.21202800
 P                 -1.87173600   -0.06155800   -0.72744000
 P                  1.51184000   -0.61422300   -0.94315500
 C                  3.24855500   -0.53035500   -1.56390300
 C                  4.30654400    0.13476200   -0.92014800
 C                  3.50926300   -1.24686100   -2.73731800
 C                  5.58563100    0.09904500   -1.45438000
 H                  4.12365300    0.68702900   -0.00306200
 C                  4.79244500   -1.27984000   -3.27685900
 H                  2.70713800   -1.77316800   -3.24767500
 C                  5.82942900   -0.60329300   -2.63929000
 H                  6.41456100    0.60787900   -0.97154900
 H                  4.96514000   -1.81431600   -4.20739800
 C                  7.19422800   -0.62342900   -3.21809600
 C                  1.71092600   -2.03959700    0.22207700
 C                  0.88733600   -3.16155000    0.07459500
 C                  2.68524800   -2.02498600    1.22616200
 C                  1.01523200   -4.24603700    0.93291000
 H                  0.13228300   -3.16737000   -0.70618500
 C                  2.82118100   -3.11332200    2.07822800
 H                  3.32559500   -1.15702900    1.35177800
 C                  1.98191000   -4.22100000    1.93958000
 H                  0.37310900   -5.11759800    0.84717600
 H                  3.58023100   -3.10645700    2.85816500
 C                  2.11281600   -5.36534100    2.87162500
 C                 -2.10451800    1.67943100   -0.15997500
 C                 -2.73241600    1.92088100    1.07331100
 C                 -1.64524800    2.75679700   -0.91807800
 C                 -2.85390600    3.21263400    1.55580500
 H                 -3.09279900    1.08532200    1.66763500
 C                 -1.76050700    4.05648500   -0.43023700
 H                 -1.17334200    2.57839100   -1.87810200
 C                 -2.34077800    4.28270500    0.81489900
 H                 -3.31765900    3.41461000    2.51679400
 H                 -1.36861600    4.89272800   -1.00467000
 C                 -2.36342600    5.64960800    1.38610500
 C                 -3.61954200   -0.59310400   -1.02574300
 C                 -4.70670500    0.28682500   -0.93205800
 C                 -3.85491100   -1.91104900   -1.44573300
 C                 -5.99385200   -0.14498900   -1.22971300
 H                 -4.55277800    1.31680400   -0.63145900
 C                 -5.14294700   -2.34764600   -1.72572200
 H                 -3.02631000   -2.60332000   -1.55349300
 C                 -6.21801900   -1.46458800   -1.62010300
 H                 -6.84171400    0.52985500   -1.16300600
 H                 -5.31289400   -3.37404300   -2.04267800
 C                 -7.59350300   -1.92461400   -1.93141900
 H                 -0.13209700    1.09041900   -2.55588800
 O                  1.08610900   -0.60881600    3.47614500
 O                 -0.49588200    1.84841000    3.12567700
 Rh                -0.34256600   -0.51314100   -2.47225000
 C                 -0.95677900   -2.26880900   -2.94526600
 O                 -1.27305500   -3.33882800   -3.23067900
 C                  1.45195400   -1.23766700    4.68335800
 H                  2.30924700   -0.68305100    5.06479300
 H                  0.63435000   -1.19930900    5.41272500
 H                  1.73731500   -2.28365700    4.51457200
 C                 -0.61134400    2.96403900    3.98516300
 H                 -1.07948200    3.81850000    3.48125300
 H                 -1.24664100    2.64136900    4.81003100
 H                  0.37035500    3.26194900    4.37145700
 O                 -8.57307100   -1.22142900   -1.86043200
 H                 -7.67469100   -2.98705400   -2.24267400
 O                 -2.68623100    5.89511000    2.52601600
 H                 -2.03777900    6.45800900    0.69975500
 O                  8.14427100   -0.05469100   -2.73294600
 H                  7.29730100   -1.20992600   -4.15452900
 O                  1.42302100   -6.35666000    2.83441600
 H                  2.90862100   -5.25451800    3.63936900
 C                  3.02716500    4.51303300   -0.93400100
 H                  3.90700200    3.86377500   -0.84874600
 H                  2.47134100    4.24489300   -1.84130100
 H                  3.34684000    5.55276600   -0.99707800
 C                 -3.41344500   -4.34130700    2.14006200
 H                 -4.26175800   -3.65033200    2.06483500
 H                 -3.06087600   -4.58988600    1.13112600
 H                 -3.72891700   -5.25078000    2.65007200
 C                 -0.09160100    0.96373000   -4.15959900
 C                  0.70883000   -0.21267900   -4.30760300
 C                  0.39039300   -1.23073200   -5.36793000
 O                  1.01606200   -0.87700200   -6.62204800
 C                  2.32200300   -1.16398500   -6.71767500
 C                  2.87404500   -0.74591300   -8.05527700
 O                  2.96265500   -1.69018500   -5.83630200
 H                 -1.05132700    1.02354700   -4.66708600
 H                  0.40953000    1.92656500   -4.07381800
 H                  1.77757700   -0.08661000   -4.14789700
 H                 -0.67999600   -1.26021600   -5.58419900
 H                  0.74000300   -2.22864100   -5.09304600
 H                  2.76819900    0.33578300   -8.17178300
 H                  2.30368400   -1.22151200   -8.85659500
 H                  3.92369200   -1.02816300   -8.11894300

