101

 C                 -2.00949600   -2.28702600    0.82710200
 C                 -1.39570000   -1.02615500    0.75369600
 C                 -0.35578600   -0.68454500    1.62319200
 C                 -0.01679900   -1.59544900    2.65087300
 C                 -0.64324400   -2.82777600    2.75358300
 C                 -1.61779200   -3.18337400    1.81431000
 H                 -2.76993900   -2.55747100    0.10549500
 H                 -0.37429500   -3.55975100    3.50482700
 O                 -2.12256000   -4.43388200    1.94781700
 C                  0.43903300    0.56879900    1.47082000
 C                  0.25210100    1.61066700    2.41029100
 C                  1.30364900    0.79073300    0.39481400
 C                  0.84331100    2.85125200    2.23594800
 C                  1.86559900    2.06255600    0.18535900
 C                  1.62545500    3.08163000    1.09788000
 H                  0.68950900    3.67578800    2.92060100
 H                  2.47257500    2.23826200   -0.69424000
 O                  2.10723100    4.34395700    0.97583600
 P                 -1.83026500    0.05967700   -0.67458200
 P                  1.52156700   -0.47554200   -0.93265700
 C                  3.25897400   -0.26137100   -1.51950100
 C                  4.29468300    0.36701900   -0.81664800
 C                  3.56162600   -0.88000900   -2.73856400
 C                  5.58526400    0.40902900   -1.33478000
 H                  4.10260200    0.83183900    0.14570500
 C                  4.84652600   -0.84463600   -3.27162800
 H                  2.79093800   -1.40543400   -3.29570500
 C                  5.84660400   -0.19026300   -2.56347400
 H                  6.38606400    0.89794600   -0.79057000
 H                  5.04784500   -1.30894500   -4.23050900
 Cl                 7.46104800   -0.12020600   -3.21898700
 C                  1.78125400   -2.03620300    0.02322200
 C                  1.07709900   -3.18986600   -0.32037400
 C                  2.71413700   -2.09530800    1.06483200
 C                  1.26989500   -4.38096000    0.37811100
 H                  0.35551300   -3.15629600   -1.13090000
 C                  2.92141800   -3.27457600    1.76688600
 H                  3.27255600   -1.20682700    1.34662800
 C                  2.18212800   -4.40484300    1.42355000
 H                  0.70496700   -5.27251300    0.12814800
 H                  3.64294200   -3.32380300    2.57569400
 Cl                 2.39791500   -5.87078800    2.34498900
 C                 -2.00059600    1.72212000    0.10911600
 C                 -2.70831300    1.87132400    1.30793300
 C                 -1.44231800    2.85347200   -0.48533100
 C                 -2.85213800    3.11773800    1.90117400
 H                 -3.12081600    1.00330000    1.81224400
 C                 -1.56599100    4.11010100    0.10402300
 H                 -0.88159300    2.75196900   -1.40903400
 C                 -2.26575100    4.22713700    1.29667800
 H                 -3.39984200    3.23206100    2.83066100
 H                 -1.10765100    4.98423600   -0.34551600
 Cl                -2.39175500    5.78237000    2.07426600
 C                 -3.60321100   -0.33341200   -1.00854600
 C                 -4.54195400   -0.63558500   -0.01312600
 C                 -4.03777600   -0.25220700   -2.33395900
 C                 -5.87638100   -0.85508500   -0.33174600
 H                 -4.23062800   -0.73083100    1.02260400
 C                 -5.37380900   -0.45980900   -2.66805800
 H                 -3.31306200   -0.02976100   -3.11353600
 C                 -6.28104400   -0.76157100   -1.66104300
 H                 -6.60042900   -1.09738400    0.43841000
 H                 -5.70678300   -0.39690600   -3.69807200
 Cl                -7.95222800   -1.03796700   -2.06415600
 H                 -0.19698200    1.32941200   -2.58704300
 O                  0.97664100   -1.19358600    3.47721400
 O                 -0.57108500    1.31782600    3.44541300
 Rh                -0.36269300   -0.28209600   -2.45999100
 C                 -1.16071700   -1.98484000   -2.84982600
 O                 -1.70811600   -2.98639400   -3.00369900
 C                  1.31820200   -2.04732800    4.54705400
 H                  2.11346500   -1.54100900    5.09416200
 H                  0.46031300   -2.20900200    5.21046600
 H                  1.68169000   -3.01626300    4.18352800
 C                 -0.72418100    2.29587600    4.45010400
 H                 -1.17357700    3.21326300    4.05018500
 H                 -1.38820200    1.85989000    5.19662200
 H                  0.23997800    2.53878600    4.91203400
 C                  2.87417400    4.63682900   -0.17123100
 H                  3.77586300    4.01401200   -0.21957100
 H                  2.28896800    4.48995200   -1.08779000
 H                  3.16002700    5.68476900   -0.08550000
 C                 -3.04793700   -4.86570500    0.97229500
 H                 -2.60746800   -4.83565200   -0.03205700
 H                 -3.30197400   -5.89319500    1.23064700
 H                 -3.95606300   -4.25057100    0.98351600
 C                 -0.14158400    1.14445800   -4.18759200
 C                  0.68029700   -0.02104300   -4.30389600
 C                  0.37577500   -1.08779500   -5.31763000
 O                  0.98164800   -0.77988500   -6.59471500
 C                  2.29552200   -1.02844000   -6.68587300
 C                  2.82813000   -0.65426500   -8.04419900
 O                  2.95776100   -1.49245200   -5.78569700
 H                 -1.10279900    1.17323100   -4.69567400
 H                  0.34022400    2.11872200   -4.13780300
 H                  1.74570200    0.13689400   -4.15480500
 H                 -0.69556700   -1.14829100   -5.52337400
 H                  0.74688200   -2.06530600   -4.99996800
 H                  2.70069800    0.41997100   -8.20162900
 H                  2.26065200   -1.17176000   -8.82117800
 H                  3.88276500   -0.91791700   -8.10510500

