101

 C                 -2.26848700   -2.21323500    1.11749200
 C                 -1.47810100   -1.10138500    0.79053300
 C                 -0.40657800   -0.71917700    1.60463000
 C                 -0.17716500   -1.45089000    2.79373700
 C                 -0.95103400   -2.55389700    3.12271500
 C                 -1.99068500   -2.93929400    2.27034500
 H                 -3.09422700   -2.49255100    0.47721800
 H                 -0.77590500   -3.14728700    4.01120900
 O                 -2.68410300   -4.03748100    2.66239000
 C                  0.49305500    0.43556600    1.30604400
 C                  0.37316200    1.58930200    2.11835900
 C                  1.45168200    0.44600600    0.28693200
 C                  1.13556800    2.72338900    1.88370500
 C                  2.23714200    1.58388800    0.05383400
 C                  2.06226000    2.71844100    0.83728100
 H                  1.03727800    3.62699200    2.47184100
 H                  2.98645100    1.57385100   -0.72354800
 O                  2.75759500    3.87006900    0.66847700
 P                 -1.74302800   -0.23869400   -0.82537000
 P                  1.59860300   -1.00133800   -0.86597900
 C                  3.27478500   -0.80702200   -1.61271000
 C                  4.36164200   -1.63055300   -1.30672300
 C                  3.44117400    0.16907700   -2.60619500
 C                  5.58503000   -1.47237800   -1.95580800
 H                  4.26547800   -2.41677000   -0.56604500
 C                  4.65773400    0.34912900   -3.25185800
 H                  2.60878900    0.80140800   -2.90434700
 C                  5.72517200   -0.47844900   -2.91591600
 H                  6.42302400   -2.11884600   -1.71926700
 H                  4.75764200    1.10841300   -4.02004300
 Cl                 7.25409800   -0.27826000   -3.72745900
 C                  1.82408400   -2.36551000    0.34233700
 C                  1.05774200   -3.52838500    0.25165200
 C                  2.71030700   -2.21599200    1.41575800
 C                  1.16331900   -4.52859600    1.21456600
 H                  0.34262800   -3.64264300   -0.55565800
 C                  2.84009100   -3.21324200    2.37386700
 H                  3.28700300   -1.30002900    1.51924600
 C                  2.05178600   -4.35613600    2.26840900
 H                  0.54743800   -5.41953200    1.16237000
 H                  3.52376700   -3.09981100    3.20861000
 Cl                 2.16117400   -5.57780700    3.50821700
 C                 -1.89157900    1.50690300   -0.26191500
 C                 -2.58975100    1.85614300    0.89984300
 C                 -1.22871900    2.50568100   -0.97886200
 C                 -2.63543800    3.17604200    1.33201500
 H                 -3.07568100    1.08467000    1.49214500
 C                 -1.24692200    3.82943300   -0.54740700
 H                 -0.65983300    2.23618600   -1.86531300
 C                 -1.94850500    4.14775500    0.60920200
 H                 -3.17584000    3.45043100    2.23197300
 H                 -0.70827100    4.60132800   -1.08597700
 Cl                -1.94486700    5.79145800    1.19208200
 C                 -3.48077600   -0.68149400   -1.26599700
 C                 -4.59345100    0.12610300   -1.01248600
 C                 -3.68233000   -1.89684100   -1.93658500
 C                 -5.87299900   -0.27364500   -1.39156500
 H                 -4.47465900    1.08660500   -0.52350000
 C                 -4.95518300   -2.31900800   -2.30222900
 H                 -2.82431600   -2.51745900   -2.18136200
 C                 -6.04418200   -1.49848500   -2.02407600
 H                 -6.73147400    0.35987100   -1.19711800
 H                 -5.10287500   -3.26385200   -2.81368600
 Cl                -7.64273200   -2.00799500   -2.49256500
 H                  0.45994900    0.49402700   -2.80022300
 O                  0.85116100   -1.01271500    3.55978600
 O                 -0.54795600    1.51173000    3.10949400
 Rh                -0.12051500   -0.99798700   -2.43346300
 C                 -0.24267600   -2.85415200   -2.82609900
 O                 -0.33407500   -3.96036300   -3.13773400
 C                  1.07659400   -1.66992100    4.78651000
 H                  1.91750400   -1.15629800    5.25320000
 H                  0.19685300   -1.60170800    5.43744100
 H                  1.33225800   -2.72616200    4.63448100
 C                 -0.64598500    2.60511200    3.99393000
 H                 -0.94678400    3.51997200    3.46800900
 H                 -1.41127900    2.33576100    4.72228000
 H                  0.30602200    2.78182600    4.50840200
 C                  3.66900100    3.92644600   -0.40881800
 H                  4.47509600    3.19271200   -0.28967400
 H                  3.16373900    3.75058100   -1.36664500
 H                  4.08879600    4.93185700   -0.39642400
 C                 -3.72678700   -4.48185400    1.82148900
 H                 -3.35102700   -4.73409400    0.82213900
 H                 -4.13581000   -5.37486400    2.29327300
 H                 -4.51438200   -3.72480900    1.72694700
 C                 -1.22775100   -0.49241600   -4.19306000
 C                  0.01315900    0.20888000   -4.32360700
 C                  1.12425200   -0.36952300   -5.17227100
 O                  1.30960000    0.41208700   -6.37167500
 C                  2.01935800    1.53649500   -6.21209700
 C                  2.19121500    2.26611700   -7.51768700
 O                  2.46094300    1.90591100   -5.14616400
 H                 -1.37889400   -1.37069800   -4.81569200
 H                 -2.13411200    0.07265800   -3.98927800
 H                 -0.01644900    1.29838100   -4.34963000
 H                  0.85383100   -1.37105700   -5.51317500
 H                  2.07812200   -0.41466900   -4.64756800
 H                  1.21112600    2.49138800   -7.94511000
 H                  2.72131900    1.62625600   -8.22762800
 H                  2.75056200    3.18487300   -7.34940000

