105

 C                 -2.34541000   -2.02751800    1.24081000
 C                 -1.51468600   -0.97050300    0.84155200
 C                 -0.42312800   -0.57886400    1.62473500
 C                 -0.21543100   -1.24135500    2.85836300
 C                 -1.03022600   -2.28920000    3.26012500
 C                 -2.08901600   -2.68864100    2.43799300
 H                 -3.18772700   -2.31466800    0.62643500
 H                 -0.87625000   -2.82798100    4.18660700
 O                 -2.82048700   -3.72966700    2.90238800
 C                  0.51351900    0.52458500    1.25502300
 C                  0.44197300    1.72471300    2.00463000
 C                  1.46612500    0.44478400    0.23289000
 C                  1.24655700    2.81372600    1.70673200
 C                  2.29167100    1.53763800   -0.06632000
 C                  2.16568200    2.71850500    0.65755300
 H                  1.19014600    3.74911000    2.24900300
 H                  3.03511200    1.45980000   -0.84544500
 O                  2.90154000    3.83071100    0.42586800
 P                 -1.75167100   -0.19101600   -0.81979700
 P                  1.54878200   -1.07081900   -0.83452500
 C                  3.23004300   -0.98917300   -1.59624200
 C                  4.27985300   -1.84609600   -1.25070800
 C                  3.42660900   -0.07325400   -2.64116400
 C                  5.50123700   -1.77495200   -1.91404300
 H                  4.15325200   -2.58566700   -0.46821000
 C                  4.64350500    0.01681000   -3.30028900
 H                  2.61829800    0.57550800   -2.96750300
 C                  5.68908900   -0.83818100   -2.93299000
 H                  6.31026300   -2.44552400   -1.64499600
 H                  4.76737100    0.73180500   -4.10688500
 C                  6.95376800   -0.76215700   -3.61581800
 C                  1.73456300   -2.36886700    0.45700700
 C                  0.93109300   -3.51050000    0.43077700
 C                  2.62977700   -2.17920200    1.51763900
 C                  1.00348200   -4.44849400    1.45451800
 H                  0.21697000   -3.65036600   -0.37284400
 C                  2.72313600   -3.11683400    2.53494000
 H                  3.23473700   -1.27719700    1.56191500
 C                  1.89687400   -4.24716600    2.50973600
 H                  0.35832700   -5.32040100    1.45276800
 H                  3.41020200   -2.97033100    3.36206500
 C                  1.94512300   -5.18076000    3.60430900
 C                 -1.83562900    1.58998100   -0.34900800
 C                 -2.52400200    2.02085100    0.79201100
 C                 -1.13983400    2.52169600   -1.12377000
 C                 -2.52268200    3.36119400    1.14974000
 H                 -3.03702500    1.29718300    1.42019900
 C                 -1.11366500    3.86447000   -0.76400600
 H                 -0.58378800    2.18093700   -1.99327900
 C                 -1.80437000    4.28231300    0.37711500
 H                 -3.05418000    3.69959100    2.03343200
 H                 -0.55013200    4.58539900   -1.34646500
 C                 -1.75447400    5.66115300    0.78719700
 C                 -3.50981900   -0.58118200   -1.23468100
 C                 -4.57222000    0.31732300   -1.09181500
 C                 -3.76943500   -1.84519800   -1.78813000
 C                 -5.86413700   -0.04256500   -1.46187000
 H                 -4.40114800    1.31201600   -0.69637600
 C                 -5.05705800   -2.22281200   -2.14057000
 H                 -2.94511000   -2.53420000   -1.95089000
 C                 -6.11159100   -1.31713100   -1.97623400
 H                 -6.68298200    0.66018600   -1.35114700
 H                 -5.25024000   -3.20533000   -2.55777800
 C                 -7.44908500   -1.69630300   -2.34801400
 H                  0.45923400    0.34580300   -2.85187300
 O                  0.83390000   -0.79738700    3.59027700
 O                 -0.47674100    1.73647500    2.99957800
 Rh                -0.17616200   -1.09664200   -2.39186600
 C                 -0.39325600   -2.96789000   -2.66687400
 O                 -0.54556700   -4.08507600   -2.90240200
 C                  1.02126100   -1.35757100    4.87198300
 H                  0.13931700   -1.19860600    5.50308800
 H                  1.23321300   -2.43250900    4.81369000
 H                  1.87898300   -0.84159900    5.30354300
 C                 -0.51508000    2.86915300    3.84030300
 H                 -0.78164000    3.77468200    3.28113500
 H                 -1.28221800    2.66399300    4.58698000
 H                  0.45031900    3.02362200    4.33581000
 N                 -8.52464700   -2.00386000   -2.64311300
 N                 -1.70920600    6.76389200    1.13496900
 N                  7.97067100   -0.69763800   -4.16381100
 N                  1.97895000   -5.91176900    4.50074000
 C                  3.81924700    3.79576400   -0.64800300
 H                  3.31073500    3.59132900   -1.59834600
 H                  4.27778900    4.78319400   -0.68422400
 H                  4.59504200    3.03834000   -0.48512600
 C                 -3.89066200   -4.18592300    2.10214100
 H                 -4.64876200   -3.40540600    1.96741700
 H                 -3.53675600   -4.51763600    1.11816900
 H                 -4.32780400   -5.02928300    2.63537300
 C                 -1.27222500   -0.65684500   -4.17876900
 C                 -0.01003500   -0.00814400   -4.35507000
 C                  1.07819800   -0.67233100   -5.17113400
 O                  1.29995600    0.04414200   -6.40208700
 C                  2.05777300    1.14379200   -6.29027800
 C                  2.27054000    1.80285100   -7.62593000
 O                  2.50733600    1.54097600   -5.23736800
 H                 -1.45685500   -1.56571800   -4.74567700
 H                 -2.15747800   -0.04991800   -4.00495800
 H                 -0.00284200    1.07850500   -4.44153600
 H                  0.76622700   -1.67631200   -5.46637200
 H                  2.02681000   -0.73401600   -4.63854700
 H                  1.30441600    2.04271100   -8.07646100
 H                  2.78449600    1.11045700   -8.29747400
 H                  2.86212700    2.70727000   -7.49469200

