113

 C                 -2.09881200   -2.14901500    0.48104400
 C                 -1.46548900   -0.89756900    0.56882500
 C                 -0.45815300   -0.66690900    1.50725500
 C                 -0.17438800   -1.69299600    2.44501500
 C                 -0.81403800   -2.92074400    2.38242300
 C                 -1.75579800   -3.15623000    1.37399100
 H                 -2.83816500   -2.32350300   -0.29068400
 H                 -0.58762300   -3.72992500    3.06528900
 O                 -2.28460600   -4.40362500    1.35257700
 C                  0.38961400    0.56133600    1.54638200
 C                  0.22404600    1.46049100    2.62484900
 C                  1.37885700    0.83591000    0.59405300
 C                  0.99633200    2.60805300    2.73091300
 C                  2.17076700    1.98858400    0.70351700
 C                  1.96653500    2.86951000    1.76021600
 H                  0.87148400    3.32401500    3.53350600
 H                  2.94984900    2.18007100   -0.01984800
 O                  2.66741800    4.01835500    1.93592200
 P                 -1.81306500    0.31208800   -0.77950600
 P                  1.52864800   -0.26136100   -0.89617400
 C                  3.13370100    0.23223200   -1.64089500
 C                  4.25055100   -0.60654600   -1.68729300
 C                  3.17900100    1.45820000   -2.32831200
 C                  5.39508300   -0.22346900   -2.38264000
 H                  4.22989200   -1.56905800   -1.18736600
 C                  4.32234000    1.85148500   -3.00544200
 H                  2.30019700    2.10018800   -2.32835300
 C                  5.43585100    1.00739400   -3.03435200
 H                  6.25665500   -0.88069900   -2.42050200
 H                  4.37089900    2.79910800   -3.53218700
 C                  6.63295600    1.46585800   -3.78668700
 C                  1.91467400   -1.86796400   -0.08415400
 C                  1.30635000   -3.03215200   -0.55837100
 C                  2.74345500   -1.92895600    1.04416500
 C                  1.48630400   -4.24245900    0.10586200
 H                  0.66136100   -2.97801800   -1.43044800
 C                  2.92439700   -3.13166100    1.70921400
 H                  3.21083200   -1.02334100    1.42188800
 C                  2.27750600   -4.28386800    1.25301800
 H                  0.98826400   -5.14167900   -0.24009700
 H                  3.54142500   -3.19508700    2.60010100
 C                  2.41632300   -5.51887000    2.06752600
 C                 -1.84920600    1.93317700    0.10121700
 C                 -2.63416200    2.09448300    1.24919500
 C                 -1.05674000    2.99305000   -0.34310600
 C                 -2.58874800    3.28035700    1.96495000
 H                 -3.24698300    1.27750100    1.61477000
 C                 -1.00697200    4.18519600    0.37235500
 H                 -0.44435500    2.86329000   -1.23025000
 C                 -1.75781500    4.31860200    1.53966600
 H                 -3.17070200    3.41100600    2.87172800
 H                 -0.36215300    4.99577100    0.05012800
 C                 -1.64958700    5.51626600    2.41158700
 C                 -3.60564400    0.07087100   -1.14737400
 C                 -4.56149700   -0.29711300   -0.18966100
 C                 -4.01654900    0.31968200   -2.46031900
 C                 -5.89948400   -0.40719800   -0.54146500
 H                 -4.25642100   -0.52763300    0.82655600
 C                 -5.35903700    0.22101100   -2.81438500
 H                 -3.26802400    0.57797400   -3.20572000
 C                 -6.30010200   -0.14428700   -1.85303700
 H                 -6.65093500   -0.69780400    0.18540100
 H                 -5.67561400    0.41529600   -3.83308400
 C                 -7.74693800   -0.27939000   -2.17512200
 H                 -0.07823600    1.46143400   -2.70469200
 O                  0.77328500   -1.39798300    3.36404000
 O                 -0.74657400    1.13625200    3.50971000
 Rh                -0.32497000   -0.13140900   -2.49694100
 C                 -1.22373100   -1.78292200   -2.82766900
 O                 -1.84365300   -2.74118100   -2.98898400
 C                  1.03595600   -2.35698500    4.36762800
 H                  1.43083400   -3.28895800    3.94531000
 H                  1.78774300   -1.90998900    5.01810200
 H                  0.13066200   -2.57352600    4.94694900
 C                 -0.92963000    1.99053600    4.61998400
 H                 -1.74102400    1.55447500    5.20272200
 H                 -0.02153900    2.03585300    5.23270000
 H                 -1.20848900    3.00451100    4.30693000
 O                 -8.59825000   -0.60519400   -1.38332200
 O                 -8.02729100    0.00222100   -3.46182100
 H                 -8.98785500   -0.11575000   -3.56220100
 O                 -2.08704600    5.58307600    3.53763200
 O                 -0.98791100    6.53554100    1.83503200
 H                 -0.94930100    7.24569000    2.49910400
 O                  6.71349700    2.51936400   -4.37257800
 O                  7.64737600    0.58070300   -3.75295500
 H                  8.36811500    0.97463300   -4.27429700
 O                  2.90138600   -5.55588700    3.17540100
 O                  1.92593500   -6.61415900    1.46033600
 H                  2.04472300   -7.34925000    2.08667300
 C                  3.63027500    4.34771200    0.95854100
 H                  4.04990900    5.30761600    1.25823200
 H                  4.42880600    3.59770400    0.91405200
 H                  3.17259300    4.44144300   -0.03437900
 C                 -3.18662700   -4.70477800    0.30723300
 H                 -3.46146000   -5.75096300    0.43793200
 H                 -4.08672600   -4.08078300    0.36666600
 H                 -2.71670000   -4.56510100   -0.67368700
 C                  0.28305100    1.05229600   -4.32993700
 C                  0.88904800   -0.23033300   -4.27706400
 C                  0.44754100   -1.30545500   -5.23318800
 O                  1.10559600   -1.15648600   -6.50962100
 C                  2.37726900   -1.58972200   -6.56038800
 C                  2.97008000   -1.36041900   -7.92708100
 O                  2.95554000   -2.08916500   -5.62638400
 H                 -0.60421600    1.19960900   -4.94061600
 H                  0.90929700    1.93678100   -4.24992300
 H                  1.94697900   -0.27924700   -4.02737300
 H                 -0.61775500   -1.22158700   -5.45983800
 H                  0.67076900   -2.30385100   -4.85007900
 H                  3.01628400   -0.28655800   -8.12696100
 H                  2.33371800   -1.81209300   -8.69151900
 H                  3.97061200   -1.78848400   -7.96285700

