101

 C                 -2.44147800   -1.84919600    1.18710900
 C                 -1.54018600   -0.84350900    0.80640500
 C                 -0.44234900   -0.52313500    1.61164200
 C                 -0.29860700   -1.19997800    2.84536100
 C                 -1.18476800   -2.19573200    3.22912600
 C                 -2.24959300   -2.52698700    2.38526700
 H                 -3.28401300   -2.08306900    0.55031000
 H                 -1.08282400   -2.74388500    4.15694500
 O                 -3.05540100   -3.52335100    2.83333500
 C                  0.56521800    0.52140600    1.25772800
 C                  0.54182700    1.72864500    1.99675600
 C                  1.52733300    0.38463500    0.25136500
 C                  1.40274300    2.77499900    1.70394800
 C                  2.41099600    1.43359800   -0.04055100
 C                  2.33150900    2.62487900    0.67019900
 H                  1.38375200    3.71624300    2.23807200
 H                  3.16058600    1.30997300   -0.80792500
 O                  3.12749900    3.69908800    0.44099900
 P                 -1.70817600   -0.06027700   -0.86152100
 P                  1.55641400   -1.13880300   -0.81010100
 C                  3.24796600   -1.13631000   -1.54659100
 C                  4.25778100   -2.02762800   -1.17029400
 C                  3.50717100   -0.24461400   -2.59921300
 C                  5.49661800   -2.01771400   -1.80853400
 H                  4.08522800   -2.75138700   -0.38162100
 C                  4.74074400   -0.21078200   -3.23675000
 H                  2.73444200    0.43555600   -2.94816400
 C                  5.72006900   -1.10408300   -2.82522500
 H                  6.28372900   -2.70948300   -1.53008800
 H                  4.92738800    0.47827000   -4.05309800
 F                  6.91157800   -1.09234900   -3.43847500
 C                  1.65146900   -2.43855700    0.48069100
 C                  0.78884700   -3.53683800    0.45251300
 C                  2.54000500   -2.29637100    1.55458300
 C                  0.80316800   -4.48119800    1.47539200
 H                  0.07366100   -3.64014600   -0.35609300
 C                  2.57996000   -3.23932100    2.57297200
 H                  3.19049200   -1.42679500    1.60660400
 C                  1.69669300   -4.30927900    2.51993400
 H                  0.12083200   -5.32361800    1.48574100
 H                  3.25755000   -3.14585200    3.41484600
 F                  1.69814300   -5.19085900    3.53111000
 C                 -1.69616800    1.72500000   -0.42066900
 C                 -2.34844700    2.21914800    0.71626200
 C                 -0.97368500    2.61093000   -1.22511700
 C                 -2.30077700    3.57195900    1.03160800
 H                 -2.87542800    1.53493200    1.37655000
 C                 -0.90155700    3.96634500   -0.91509300
 H                 -0.43892200    2.22609700   -2.08971500
 C                 -1.56863900    4.42032100    0.21151500
 H                 -2.80370900    3.97544200    1.90403400
 H                 -0.32981300    4.66403000   -1.51658500
 F                 -1.49819900    5.72074000    0.53134100
 C                 -3.47650000   -0.36775500   -1.29554200
 C                 -4.52036100    0.53081100   -1.04905800
 C                 -3.77949200   -1.57979000   -1.93434300
 C                 -5.83130200    0.22528100   -1.40593900
 H                 -4.31892200    1.48943300   -0.58426200
 C                 -5.08549000   -1.90947600   -2.27911300
 H                 -2.97378400   -2.27033100   -2.16830300
 C                 -6.09283300   -0.99523700   -2.00723600
 H                 -6.64658400    0.91707200   -1.22578500
 H                 -5.32855500   -2.84602400   -2.76860500
 F                 -7.35337500   -1.29669600   -2.34708600
 H                  0.57089300    0.33318500   -2.84370300
 O                  0.76095600   -0.82050100    3.60110300
 O                 -0.39092100    1.79314900    2.97870700
 Rh                -0.14675000   -1.07439200   -2.39516600
 C                 -0.42763700   -2.93242000   -2.67569300
 O                 -0.60933500   -4.04403600   -2.92372600
 C                  0.91132000   -1.42877200    4.86316200
 H                  0.04054000   -1.23494700    5.50095100
 H                  1.05725900   -2.51237700    4.77093700
 H                  1.79887100   -0.98020300    5.31034100
 C                 -0.39669400    2.94038400    3.79640800
 H                 -0.61107500    3.84501200    3.21399600
 H                 -1.18813900    2.78414200    4.52987100
 H                  0.56365700    3.06247900    4.31147900
 C                  4.04337100    3.61027200   -0.62999200
 H                  4.55073800    4.57363300   -0.67393200
 H                  4.78097300    2.81661800   -0.46108500
 H                  3.52746000    3.42236000   -1.57980200
 C                 -4.12942300   -3.91040700    2.00399300
 H                 -3.77174300   -4.26096900    1.02798700
 H                 -4.63309600   -4.72603000    2.52230900
 H                 -4.83399400   -3.08426000    1.85056300
 C                 -1.19145300   -0.57771700   -4.19411200
 C                  0.11070800   -0.00338400   -4.35171800
 C                  1.16705900   -0.73366700   -5.15111100
 O                  1.42189300   -0.05456100   -6.40004800
 C                  2.22784500    1.01109200   -6.31279700
 C                  2.45787800    1.63556200   -7.66360500
 O                  2.70388000    1.41076300   -5.27308600
 H                 -1.41931000   -1.47407000   -4.76571400
 H                 -2.04266800    0.08025600   -4.03602600
 H                  0.18311100    1.08040800   -4.44598600
 H                  0.80955300   -1.72818800   -5.42581300
 H                  2.11272800   -0.82675400   -4.61794100
 H                  1.49995500    1.92533200   -8.10238400
 H                  2.91882500    0.90428000   -8.33226900
 H                  3.10264900    2.50624300   -7.55613700

