113

 C                 -2.19154300   -1.85233900    1.08248400
 C                 -1.37101400   -0.75659100    0.77640300
 C                 -0.26018700   -0.46020600    1.57529100
 C                 -0.00460900   -1.27506500    2.70087700
 C                 -0.80437300   -2.36763400    2.99959000
 C                 -1.89334900   -2.65783800    2.17481100
 H                 -3.05928600   -2.06213500    0.47497600
 H                 -0.61041100   -3.02334400    3.83886400
 O                 -2.61012400   -3.75874100    2.52389200
 C                  0.65272200    0.69275700    1.32038400
 C                  0.55060000    1.81862000    2.17399200
 C                  1.56318100    0.74351700    0.26490000
 C                  1.25946500    2.98131500    1.92187100
 C                  2.25946000    1.93326600   -0.01892600
 C                  2.09513900    3.04095400    0.79950900
 H                  1.17874100    3.86384200    2.54345500
 H                  2.91528300    1.97059300   -0.88006500
 O                  2.71897300    4.23311300    0.60659900
 P                 -1.69127200    0.20416000   -0.78644700
 P                  1.66976900   -0.62663300   -0.96523200
 C                  3.42294000   -0.60687100   -1.52877900
 C                  4.50557700   -0.11184200   -0.78960100
 C                  3.68624500   -1.20892300   -2.76439900
 C                  5.80096700   -0.19972500   -1.28752100
 H                  4.33813600    0.35014500    0.17950100
 C                  4.98451800   -1.29120700   -3.25948200
 H                  2.87140600   -1.61747900   -3.35691800
 C                  6.06062800   -0.78178200   -2.53213300
 H                  6.62805400    0.18844500   -0.69732300
 H                  5.14579300   -1.74327800   -4.23413300
 C                  7.46243900   -0.83192100   -3.08332700
 C                  1.69473400   -2.15178000    0.07198700
 C                  0.76466000   -3.16467200   -0.17530400
 C                  2.62516100   -2.33041700    1.09827100
 C                  0.74537700   -4.31416600    0.60679000
 H                  0.03740400   -3.03653700   -0.97246500
 C                  2.60524400   -3.48518200    1.87375100
 H                  3.36040800   -1.55817600    1.30672100
 C                  1.65600200   -4.48582700    1.65165400
 H                 -0.00109400   -5.08222300    0.41638000
 H                  3.33582400   -3.60978600    2.67012600
 C                  1.58587800   -5.70765700    2.53083400
 C                 -1.81823600    1.90887000   -0.10404400
 C                 -2.44978000    2.12453900    1.12677600
 C                 -1.30712000    3.01057900   -0.79189200
 C                 -2.55035900    3.40606200    1.65441500
 H                 -2.85077500    1.28122700    1.68343100
 C                 -1.39616300    4.29002600   -0.25072200
 H                 -0.82776500    2.86781100   -1.75470000
 C                 -2.00694800    4.50644000    0.98494600
 H                 -3.04704100    3.55336100    2.61091600
 H                 -0.97381500    5.13222300   -0.79326600
 C                 -2.04458300    5.88288100    1.59671800
 C                 -3.45802900   -0.18351700   -1.16726600
 C                 -4.49876100    0.72898100   -0.98269000
 C                 -3.77246600   -1.43291300   -1.72386400
 C                 -5.80843500    0.39578600   -1.32810900
 H                 -4.29847200    1.71241800   -0.57207300
 C                 -5.08056500   -1.76624600   -2.04593100
 H                 -2.98620600   -2.16047700   -1.89987200
 C                 -6.12382500   -0.85283700   -1.85806400
 H                 -6.59895100    1.12681400   -1.17803100
 H                 -5.29441700   -2.74615400   -2.46609400
 C                 -7.53531400   -1.20860700   -2.24691000
 H                  0.22412700    1.35701100   -2.41191600
 O                  1.07949400   -0.92548800    3.43457500
 O                 -0.29811900    1.67950400    3.22285000
 Rh                -0.13065200   -0.21978900   -2.52001800
 C                 -0.85749400   -1.86280500   -3.18254100
 O                 -1.23253700   -2.87643200   -3.58444400
 C                  1.36826800   -1.69857000    4.57532600
 H                  1.56686500   -2.74337900    4.30544900
 H                  2.26304100   -1.26070500    5.01846400
 H                  0.54433700   -1.66086400    5.29853500
 C                 -0.37412600    2.74330000    4.14143900
 H                 -0.74528800    3.65814700    3.66224700
 H                 -1.07730500    2.42726200    4.91266600
 H                  0.60411700    2.94397200    4.59506500
 H                 -7.80501000   -2.20676200   -1.88856400
 H                 -7.65121800   -1.21089400   -3.33623000
 H                 -8.25237000   -0.49319700   -1.83633800
 H                 -2.20760500    6.65265100    0.83711500
 H                 -1.09305000    6.11052800    2.09197500
 H                 -2.83755300    5.96540500    2.34503800
 H                  7.59175000   -1.68328600   -3.75676200
 H                  8.20219000   -0.91229100   -2.28170600
 H                  7.69126500    0.07605000   -3.65291500
 H                  0.65532300   -5.71118400    3.11036400
 H                  2.42277800   -5.74235900    3.23363700
 H                  1.60226000   -6.62715200    1.93731600
 C                  3.56481000    4.34188400   -0.51603900
 H                  3.00868300    4.18843400   -1.44942700
 H                  3.96892900    5.35395200   -0.49532000
 H                  4.38745800    3.61762900   -0.46895400
 C                 -3.68051600   -4.12444800    1.68108900
 H                 -4.09700200   -5.04041000    2.10009000
 H                 -4.45538600   -3.34871800    1.65605700
 H                 -3.33306100   -4.31303200    0.65736100
 C                  0.30407500    1.40634300   -4.01797300
 C                  1.00281100    0.18505500   -4.28258700
 C                  0.62501000   -0.67208600   -5.45778300
 O                  1.30237600   -0.22847900   -6.65811900
 C                  2.58054000   -0.61281800   -6.77539700
 C                  3.19371400   -0.07522800   -8.04327900
 O                  3.15886300   -1.29963400   -5.96524200
 H                 -0.62839100    1.61054200   -4.53898100
 H                  0.88540700    2.30415400   -3.81286200
 H                  2.07334200    0.19446900   -4.08934000
 H                 -0.43946800   -0.58700400   -5.68790000
 H                  0.88714500   -1.72060200   -5.29886700
 H                  3.19810400    1.01745900   -8.01040700
 H                  2.59290300   -0.37726200   -8.90428700
 H                  4.21149400   -0.44980100   -8.14063300

