93

 C                  1.90329800    1.07893900   -2.27300300
 C                  1.35418800    0.82364400   -1.00883000
 C                  0.45308600    1.74113500   -0.44646300
 C                  0.14780000    2.92204800   -1.15249100
 C                  0.68762100    3.16322400   -2.41364800
 C                  1.56176100    2.23125300   -2.96527600
 H                  2.60766200    0.38194300   -2.71184600
 O                 -0.70271700    3.77490000   -0.52570500
 H                  0.43534600    4.05973700   -2.96640500
 H                  1.99050300    2.41784700   -3.94528100
 C                 -0.17961300    1.56764200    0.89938000
 C                  0.28803000    2.40160500    1.93709300
 C                 -1.21870200    0.66414100    1.17135400
 C                 -0.22931700    2.30218800    3.22600400
 O                  1.26442800    3.27689000    1.58827100
 C                 -1.74887800    0.58441500    2.46590300
 C                 -1.24810200    1.38819500    3.47888800
 H                  0.14762100    2.92532200    4.02757000
 H                 -2.55987000   -0.10156800    2.68167600
 H                 -1.66213600    1.31492500    4.47994500
 P                  1.69055600   -0.77038700   -0.13064000
 P                 -1.76668300   -0.53638000   -0.13128900
 C                 -3.43970800   -1.08544700    0.43145200
 C                 -4.63686000   -0.63463500   -0.13241900
 C                 -3.50203700   -2.06560900    1.43278700
 C                 -5.86169500   -1.13322000    0.31015400
 H                 -4.62478300    0.09712300   -0.93194200
 C                 -4.72425800   -2.54605600    1.88902500
 H                 -2.57868500   -2.45849000    1.84890200
 C                 -5.91128700   -2.08076100    1.32618300
 H                 -6.77927100   -0.77618500   -0.14726400
 H                 -4.74853500   -3.29723800    2.67251500
 H                 -6.86654100   -2.46495400    1.67003700
 C                 -2.15329400    0.60591700   -1.51879100
 C                 -1.71144000    0.31992700   -2.81158100
 C                 -2.87160800    1.78621900   -1.28758100
 C                 -1.99092900    1.19251700   -3.86162700
 H                 -1.12980200   -0.57670600   -2.99632100
 C                 -3.16625500    2.64726100   -2.33902200
 H                 -3.18810500    2.03606600   -0.27766600
 C                 -2.72170500    2.35348000   -3.62818400
 H                 -1.63093500    0.96426100   -4.85980700
 H                 -3.73474900    3.55352200   -2.15014500
 H                 -2.94440300    3.03079500   -4.44744200
 C                  2.33900700   -0.14100500    1.47520400
 C                  3.21545900    0.94902200    1.54251900
 C                  1.92148900   -0.75093100    2.66048000
 C                  3.67677300    1.40515800    2.77309000
 H                  3.52341300    1.44829800    0.62686800
 C                  2.37121100   -0.28522700    3.89449900
 H                  1.21974700   -1.57952200    2.61159800
 C                  3.25028100    0.79231600    3.95172800
 H                  4.36238800    2.24701600    2.81375700
 H                  2.02917500   -0.76017500    4.80877500
 H                  3.60469600    1.15565000    4.91195000
 C                  3.20887800   -1.40445700   -0.96363700
 C                  4.48090000   -1.38683200   -0.38515700
 C                  3.04152100   -2.05551300   -2.19555200
 C                  5.55899400   -1.99652000   -1.02687700
 H                  4.63674300   -0.91358200    0.57836300
 C                  4.12031400   -2.64516000   -2.84412500
 H                  2.04868800   -2.12169000   -2.63386300
 C                  5.38486800   -2.62145700   -2.25677500
 H                  6.53739600   -1.98366500   -0.55624800
 H                  3.96734600   -3.14633100   -3.79459000
 H                  6.22469100   -3.09966800   -2.75090400
 H                 -0.40423600   -2.31847600    1.33075600
 C                 -0.51848500   -2.80586900   -2.09168800
 O                 -0.68568700   -3.18392500   -3.16659500
 Rh                -0.21612600   -2.26757900   -0.29162800
 C                  1.72713600    4.16681400    2.57580500
 H                  2.48347900    4.78615000    2.09254700
 H                  0.91511700    4.80402700    2.94737500
 H                  2.18110600    3.62763200    3.41638200
 C                 -0.98679200    4.99698600   -1.16336300
 H                 -1.48194900    4.83675500   -2.12911300
 H                 -1.65982500    5.53644500   -0.49619200
 H                 -0.07404700    5.58575500   -1.31718500
 C                 -0.27139700   -3.97518300    1.18731600
 C                  0.66512600   -4.19356300    0.13868400
 C                  2.13274400   -4.22087200    0.46343000
 O                  2.51115700   -5.47126800    1.08728200
 C                  2.65045800   -6.51473400    0.25482600
 C                  3.03866500   -7.75987700    1.01251200
 O                  2.48328600   -6.45335100   -0.93868700
 H                  0.11255700   -3.89624000    2.20443500
 H                 -1.26364700   -4.41151100    1.12600700
 H                  0.37131600   -4.86664900   -0.66255400
 H                  2.38649200   -3.46090400    1.20865900
 H                  2.74850800   -4.07842100   -0.42681700
 H                  2.24996400   -8.01458800    1.72526600
 H                  3.95314300   -7.57874000    1.58238200
 H                  3.18598100   -8.57880600    0.31015000

