91

 P                  1.72154900   -1.10712000    0.19010500
 C                  1.74967400    0.60334600   -0.50041400
 C                  2.88934400   -1.99394200   -0.91944400
 C                  2.74276300   -0.93445900    1.71584600
 C                  0.76468100    0.92424300   -1.43735200
 C                  0.64715400    2.21601100   -1.95547000
 C                  1.56438100    3.19116600   -1.53834000
 C                  2.55497600    2.87022900   -0.62219800
 C                  2.65622800    1.58423400   -0.09343600
 C                  3.30989900   -1.48640700   -2.15143500
 C                  4.06143600   -2.27919000   -3.01919100
 C                  4.41073900   -3.57805500   -2.66148300
 C                  4.01375900   -4.08493100   -1.42313100
 C                  3.25397000   -3.30070000   -0.56246300
 C                  2.09487000   -0.82643600    2.95088600
 C                  2.82351200   -0.64524000    4.12508000
 C                  4.21355400   -0.58465900    4.07899800
 C                  4.87121300   -0.70896800    2.85653200
 C                  4.14185600   -0.88242200    1.68347300
 H                  0.02983500    0.17518400   -1.72407000
 N                 -0.34848200    2.51529000   -2.88790600
 H                  1.47977400    4.20352700   -1.92554000
 H                  3.24516400    3.64016000   -0.29101900
 H                  3.41532700    1.36666900    0.64954400
 H                  3.04015300   -0.47441100   -2.43976800
 H                  4.37508100   -1.87600300   -3.97733000
 H                  4.99219500   -4.19360900   -3.34058500
 H                  4.28912100   -5.09448800   -1.13342600
 H                  2.92925500   -3.70169500    0.39624400
 H                  1.01218900   -0.90841600    2.99488100
 H                  2.30375500   -0.57177900    5.07554400
 H                  4.78428800   -0.45323600    4.99308700
 H                  5.95552300   -0.67150200    2.81571000
 H                  4.66112900   -0.97625300    0.73326700
 P                 -2.16054500   -0.59289600    0.59484400
 C                 -1.68914700    1.19083600    0.67051400
 C                 -3.20485200   -0.75839000    2.10517500
 C                 -3.44692400   -0.56967100   -0.73110800
 C                 -0.60927500    1.52168900    1.49052200
 C                 -0.16370200    2.84054800    1.61201700
 C                 -0.83383900    3.84190300    0.89005700
 C                 -1.91729200    3.51700900    0.08746200
 C                 -2.35478400    2.19615400   -0.03413600
 C                 -3.56363700    0.32368500    2.91387500
 C                 -4.37315500    0.12786600    4.03243200
 C                 -4.84097000   -1.14437000    4.34639600
 C                 -4.49459600   -2.22710200    3.53968300
 C                 -3.67690600   -2.03566400    2.43160500
 C                 -3.07457100   -0.79782400   -2.06120500
 C                 -4.01529500   -0.74735000   -3.08743200
 C                 -5.34729800   -0.46617200   -2.79533900
 C                 -5.73141200   -0.23774100   -1.47599700
 C                 -4.79011600   -0.28893800   -0.45068700
 H                 -0.08097300    0.73335100    2.02312900
 N                  0.95742000    3.14955900    2.37484000
 H                 -0.48525600    4.86930300    0.95699000
 H                 -2.43151200    4.30475100   -0.45679600
 H                 -3.20777100    1.96069600   -0.66248500
 H                 -3.21422900    1.32249200    2.67015500
 H                 -4.63998200    0.97556100    4.65629100
 H                 -5.47077400   -1.29392100    5.21791700
 H                 -4.85254800   -3.22341800    3.77969100
 H                 -3.39260900   -2.88179000    1.80971000
 H                 -2.04690400   -1.03891600   -2.31577700
 H                 -3.69490700   -0.95498800   -4.10291800
 H                 -6.08557600   -0.43320900   -3.59077800
 H                 -6.76893900   -0.02106300   -1.23994300
 H                 -5.10360300   -0.10575500    0.57282000
 Rh                -0.45647700   -2.16479200    0.38160100
 C                 -0.55058800   -2.82944000    2.13735400
 O                 -0.60589000   -3.24160300    3.21078200
 H                 -0.55443900   -1.83979000   -1.22458200
 H                 -1.15950800    1.91071100   -2.80636900
 H                 -0.63695500    3.48629300   -2.86530000
 H                  0.94356700    4.05585200    2.82278800
 H                  1.26789600    2.41398800    2.99700400
 C                 -0.23357700   -4.17611200   -0.51531900
 C                 -0.64723800   -3.37182900   -1.59673600
 C                  0.28353000   -3.17807200   -2.78671900
 O                 -0.13272900   -4.03745400   -3.85964200
 C                 -1.15963200   -3.58409500   -4.59539700
 C                 -1.51921500   -4.55958900   -5.68425000
 O                 -1.71255900   -2.52783000   -4.39494500
 H                  0.79135700   -4.53969000   -0.50295200
 H                 -0.96431700   -4.78318100    0.00766600
 H                 -1.70377200   -3.35949700   -1.86186200
 H                  1.29914300   -3.49134800   -2.53928200
 H                  0.29826500   -2.14893700   -3.15562000
 H                 -1.83625100   -5.50460000   -5.23565400
 H                 -0.64207700   -4.76488300   -6.30234500
 H                 -2.32271900   -4.14529800   -6.29094800

