91

 P                  2.01200700   -0.87427900   -0.07551600
 C                  2.03419700    0.95395700   -0.30448400
 C                  3.25867600   -1.43479500   -1.31117200
 C                  2.93443600   -1.06458400    1.50686400
 C                  1.18490100    1.48972300   -1.27355600
 C                  1.09137800    2.86864200   -1.47108300
 C                  1.89859600    3.71446600   -0.69723900
 C                  2.75752100    3.18298200    0.25276600
 C                  2.83013000    1.80648500    0.46405400
 C                  4.08393400   -0.55728900   -2.01952900
 C                  5.00982000   -1.05129000   -2.93819500
 C                  5.12632900   -2.42189400   -3.14926600
 C                  4.30967600   -3.30392800   -2.44251900
 C                  3.37610100   -2.81264200   -1.53584700
 C                  2.21172800   -1.07319300    2.70518000
 C                  2.86721500   -1.15607700    3.93021800
 C                  4.25691700   -1.24231200    3.97185600
 C                  4.98494800   -1.24501300    2.78502000
 C                  4.32916700   -1.15437600    1.55906500
 H                  0.54570600    0.82635700   -1.85155100
 N                  0.22901100    3.38651800   -2.44273800
 H                  1.83023300    4.79065100   -0.83597400
 H                  3.36113000    3.85034700    0.86001600
 H                  3.48939300    1.41106200    1.22926100
 H                  4.00396500    0.51337900   -1.85484700
 H                  5.64158600   -0.36012300   -3.48769000
 H                  5.84807400   -2.80321000   -3.86498900
 H                  4.39392700   -4.37425300   -2.60404400
 H                  2.72038600   -3.49409000   -0.99649600
 H                  1.12550600   -1.03645600    2.67552400
 H                  2.29091700   -1.17114500    4.85022500
 H                  4.76986800   -1.31687000    4.92567400
 H                  6.06778800   -1.31869700    2.81069200
 H                  4.90610500   -1.15013000    0.63866900
 P                 -1.90426400   -0.57854000    0.05905000
 C                 -1.58524900    1.19973400    0.44584600
 C                 -3.04370900   -1.00933400    1.44445400
 C                 -3.07661500   -0.43637800   -1.35866800
 C                 -0.65802300    1.45840900    1.45650600
 C                 -0.34880600    2.76511600    1.84314100
 C                 -0.99389300    3.82858900    1.19002100
 C                 -1.92529500    3.57312400    0.19510900
 C                 -2.22932000    2.26471300   -0.18905700
 C                 -3.88069200   -0.06158800    2.04741600
 C                 -4.75470600   -0.43796900    3.06236100
 C                 -4.80532900   -1.76502900    3.48786200
 C                 -3.97652600   -2.71342200    2.89683200
 C                 -3.09774200   -2.33507600    1.88302600
 C                 -2.54611700   -0.08761800   -2.60987600
 C                 -3.35510800   -0.02494900   -3.73910900
 C                 -4.71202700   -0.33156500   -3.64116800
 C                 -5.24836700   -0.68691000   -2.40796900
 C                 -4.43969400   -0.73356500   -1.27207800
 H                 -0.14399100    0.62706500    1.93574800
 N                  0.62013600    3.01728300    2.80834400
 H                 -0.74907700    4.85046600    1.46829900
 H                 -2.42828200    4.40552100   -0.29018100
 H                 -2.97396600    2.08245300   -0.95744700
 H                 -3.84645100    0.97370900    1.71838100
 H                 -5.39731700    0.30600800    3.52336900
 H                 -5.48649300   -2.05581200    4.28167300
 H                 -4.00377600   -3.74712500    3.22684700
 H                 -2.43981500   -3.07273300    1.43288800
 H                 -1.48309500    0.12916900   -2.69714300
 H                 -2.92488400    0.25104200   -4.69711000
 H                 -5.34388400   -0.29776500   -4.52299100
 H                 -6.30330000   -0.92922700   -2.32339000
 H                 -4.87497400   -1.01108000   -0.31697300
 Rh                 0.00478300   -2.00380200   -0.31289900
 C                  0.18716600   -3.08515700    1.22648800
 O                  0.29904900   -3.75439200    2.15490400
 H                  0.05413600   -1.33650000   -1.81467200
 H                 -0.59767100    2.81173100   -2.56953700
 H                 -0.05138100    4.34111600   -2.24883300
 H                  0.46624200    3.84315500    3.37115200
 H                  0.88599700    2.21589300    3.36597700
 C                 -0.13943400   -2.82671400   -2.45803300
 C                 -0.72218800   -3.70299100   -1.51890700
 C                 -2.20808200   -3.92658800   -1.52662400
 O                 -2.58374900   -4.93149100   -2.49821500
 C                 -2.35442400   -6.20221700   -2.13302300
 C                 -2.76892300   -7.15982300   -3.22156900
 O                 -1.87766300   -6.52273000   -1.07119700
 H                 -0.80182400   -2.34483100   -3.17799600
 H                  0.87483800   -2.99225000   -2.81123900
 H                 -0.13095200   -4.54464500   -1.16790400
 H                 -2.73937800   -3.02739200   -1.84520900
 H                 -2.57486500   -4.24939400   -0.54972700
 H                 -2.17313100   -6.97178000   -4.11859900
 H                 -3.81749200   -6.99647500   -3.48146000
 H                 -2.61763400   -8.18264200   -2.88011600

