93

 C                 -0.54374900   -2.66002400    1.13805400
 C                 -0.67414100   -1.35741800    0.64185500
 C                  0.08780700   -0.33694700    1.22531100
 C                  0.96017300   -0.60122400    2.31182000
 C                  1.10393100   -1.92211500    2.74951600
 C                  0.34122800   -2.93186000    2.16395400
 H                 -1.13092100   -3.47065500    0.72305000
 Br                 2.32189800   -2.52728500    4.08200700
 H                  0.45631000   -3.94573700    2.53065400
 C                  0.00868200    1.08818400    0.76652600
 C                 -0.67965300    1.97905600    1.60987300
 C                  0.58865400    1.55939700   -0.42485600
 C                 -0.84348500    3.30928800    1.22580600
 C                  0.44720900    2.91064300   -0.75838600
 C                 -0.27506200    3.77815500    0.04883000
 Br                -1.86929000    4.48746300    2.28970900
 H                  0.90134900    3.29992900   -1.66246000
 H                 -0.39909400    4.81897600   -0.22870900
 P                 -1.70144400   -1.02851500   -0.86747100
 P                  1.38614200    0.37600800   -1.61383300
 C                  2.45710000    1.45045500   -2.66877800
 C                  3.85047900    1.49469600   -2.56351800
 C                  1.84132700    2.19518400   -3.68579900
 C                  4.60308600    2.28179500   -3.43457900
 H                  4.36255700    0.90392000   -1.81279700
 C                  2.59040900    2.99696200   -4.53936800
 H                  0.76391000    2.13532300   -3.81227900
 C                  3.97802300    3.04175400   -4.41648400
 H                  5.68456700    2.29519800   -3.34105700
 H                  2.09111800    3.57299200   -5.31235300
 H                  4.56675100    3.65533100   -5.09106900
 C                  2.58907000   -0.46042900   -0.50547400
 C                  2.67875600   -1.85376500   -0.49056300
 C                  3.39158700    0.28435700    0.36857700
 C                  3.55930200   -2.49489700    0.37851000
 H                  2.04082200   -2.44204200   -1.14121900
 C                  4.28544800   -0.35524500    1.22093400
 H                  3.30432500    1.36825100    0.38983400
 C                  4.36644900   -1.74747300    1.23102600
 H                  3.60537300   -3.57924200    0.39459900
 H                  4.91241500    0.23298500    1.88485900
 H                  5.04870200   -2.24749200    1.91132600
 C                 -2.80521000    0.31463000   -0.26778200
 C                 -3.33315300    0.32161300    1.02870100
 C                 -3.07504200    1.39147400   -1.11676600
 C                 -4.11030900    1.38854200    1.46637700
 H                 -3.09934700   -0.49238800    1.71060300
 C                 -3.85739300    2.45859100   -0.68015400
 H                 -2.64602700    1.40250400   -2.11517600
 C                 -4.37299600    2.45857100    0.61259700
 H                 -4.48856900    1.39734000    2.48371800
 H                 -4.04968400    3.29535900   -1.34460000
 H                 -4.96312100    3.29961400    0.96288700
 C                 -2.81762200   -2.49495600   -0.92915400
 C                 -4.15977100   -2.46613700   -0.54091200
 C                 -2.30824100   -3.67049400   -1.50154700
 C                 -4.96900500   -3.58916800   -0.71167500
 H                 -4.58658000   -1.56296400   -0.11804200
 C                 -3.11064400   -4.79555800   -1.65364500
 H                 -1.27961400   -3.69170800   -1.85352800
 C                 -4.44813800   -4.75553100   -1.26178300
 H                 -6.01240900   -3.54576100   -0.41477600
 H                 -2.69772500   -5.69343000   -2.10221400
 H                 -5.08201500   -5.62607100   -1.39766400
 H                 -0.81273000    0.75002500   -3.08965700
 O                  1.58160500    0.51535400    2.76416800
 O                 -1.22331300    1.48438000    2.75370100
 Rh                -0.26079000   -0.75991100   -2.80263100
 C                  0.67052300   -2.37415700   -3.19990500
 O                  1.19993700   -3.35472800   -3.48840200
 C                  2.34090700    0.58522300    3.95532900
 H                  1.80040300    0.16530600    4.80786300
 H                  3.30201500    0.07841500    3.84707400
 H                  2.50558300    1.65249000    4.11744400
 C                 -0.70281300    1.96107600    3.98981000
 H                 -0.41211500    1.08942000    4.58339800
 H                  0.17085900    2.60003000    3.83133600
 H                 -1.47449600    2.52686600    4.51711700
 C                 -1.19088900    0.21830500   -4.61476500
 C                 -1.60884100   -1.13196600   -4.44998200
 C                 -3.04606400   -1.41405900   -4.11004600
 O                 -3.89688300   -1.28239600   -5.27270700
 C                 -3.87170900   -2.31761400   -6.12741900
 C                 -4.79125100   -2.07289800   -7.29729800
 O                 -3.19796600   -3.30610500   -5.96892100
 H                 -1.95133400    0.99709600   -4.55250300
 H                 -0.37582600    0.45418200   -5.29206600
 H                 -1.14242300   -1.88165000   -5.08387700
 H                 -3.43661100   -0.67510000   -3.40385000
 H                 -3.17632300   -2.41632400   -3.69784600
 H                 -4.46419600   -1.18216900   -7.83992900
 H                 -5.80663700   -1.88717900   -6.93891500
 H                 -4.77530000   -2.93937700   -7.95654100

