93

 C                 -1.80052800   -1.65421400    1.99843400
 C                 -1.22119100   -0.75309700    1.09715400
 C                 -0.22105800    0.11447500    1.55616200
 C                  0.18188700    0.11199100    2.91442100
 C                 -0.38698700   -0.83042700    3.77904800
 C                 -1.37505400   -1.69584500    3.31290600
 H                 -2.58044700   -2.33335600    1.67245800
 Cl                 0.08773800   -1.06417400    5.44972700
 H                 -1.80606000   -2.40759900    4.00880400
 C                  0.45154500    1.10879100    0.65809000
 C                  0.08988000    2.45494800    0.83767200
 C                  1.40150100    0.76531300   -0.32117200
 C                  0.61999400    3.43432400   -0.00255900
 C                  1.95110300    1.77730500   -1.11544300
 C                  1.55420900    3.09960200   -0.97298200
 Cl                 0.09006200    5.08587200    0.14497800
 H                  2.69984100    1.54055200   -1.86176100
 H                  1.96573200    3.87564100   -1.60915200
 P                 -1.62578900   -0.86018700   -0.70725200
 P                  1.82701300   -1.01614500   -0.63391700
 C                  3.42939500   -0.93620900   -1.54553700
 C                  4.64984800   -1.32939900   -0.98809800
 C                  3.40243800   -0.55558900   -2.89555500
 C                  5.81359300   -1.32101400   -1.75676400
 H                  4.70033000   -1.65919000    0.04361700
 C                  4.56484600   -0.53529000   -3.65813100
 H                  2.46321900   -0.28755300   -3.37345200
 C                  5.77765500   -0.91804700   -3.08748600
 H                  6.75043500   -1.63649900   -1.30784200
 H                  4.50314900   -0.24036100   -4.70092400
 H                  6.68634300   -0.91506700   -3.68145500
 C                  2.31528100   -1.53634100    1.05951300
 C                  1.77348400   -2.69246600    1.62463000
 C                  3.18309100   -0.74499400    1.82272700
 C                  2.09549800   -3.05666200    2.93051700
 H                  1.07296700   -3.29284000    1.05438500
 C                  3.51972900   -1.11951800    3.11921800
 H                  3.58495700    0.17415600    1.40254200
 C                  2.96994900   -2.27312400    3.67799500
 H                  1.65100600   -3.94585900    3.36646000
 H                  4.20152500   -0.50360000    3.69863600
 H                  3.21579200   -2.55427200    4.69743900
 C                 -2.05469400    0.88255100   -1.10646900
 C                 -2.74850700    1.71089200   -0.21628100
 C                 -1.61560700    1.40981100   -2.32351100
 C                 -2.99841100    3.03991500   -0.54067600
 H                 -3.05079600    1.32729200    0.75519100
 C                 -1.86878700    2.74054400   -2.65060600
 H                 -1.04905600    0.77794100   -3.00297400
 C                 -2.55952900    3.55613000   -1.75903300
 H                 -3.51019300    3.68045400    0.17065300
 H                 -1.51172000    3.14184700   -3.59403400
 H                 -2.73892700    4.59881400   -2.00198000
 C                 -3.26459100   -1.70994600   -0.71480200
 C                 -4.49248700   -1.04038100   -0.71763700
 C                 -3.26421900   -3.11155000   -0.74945700
 C                 -5.68842900   -1.75536500   -0.73532100
 H                 -4.52295700    0.04368700   -0.71870100
 C                 -4.45913400   -3.82491100   -0.74966300
 H                 -2.31503000   -3.63989500   -0.78372500
 C                 -5.67608400   -3.14696500   -0.74375400
 H                 -6.63235400   -1.21902700   -0.74315200
 H                 -4.43737700   -4.91013500   -0.76953900
 H                 -6.60958600   -3.70095900   -0.75630800
 H                  0.43516900   -0.91526400   -2.93989600
 O                  1.12818100    1.04254900    3.18874400
 O                 -0.83120400    2.74918800    1.79373700
 Rh                 0.13192900   -2.07980800   -1.82455800
 C                  0.34104300   -3.87150600   -1.22142300
 O                  0.45071500   -4.98530200   -0.94461900
 C                  1.56096400    1.37429500    4.49437800
 H                  0.71959100    1.59407800    5.15725600
 H                  2.17253600    0.57951700    4.92707000
 H                  2.16780900    2.27297000    4.36629000
 C                 -0.41057100    3.57812700    2.87164900
 H                 -0.89973200    4.55277800    2.80299100
 H                 -0.70666800    3.08112800    3.79992000
 H                  0.67488800    3.71386900    2.86430700
 C                 -1.02542000   -2.72888100   -3.50232600
 C                  0.07117300   -2.00313500   -4.06787800
 C                  1.27997800   -2.74548500   -4.59090600
 O                  1.30909600   -2.71923800   -6.03508000
 C                  1.77229700   -1.58372000   -6.57358600
 C                  1.78861500   -1.65944800   -8.07787100
 O                  2.12715300   -0.62644000   -5.92292300
 H                 -1.00742300   -3.81307900   -3.58266600
 H                 -2.02146100   -2.29415300   -3.53819800
 H                 -0.15205400   -1.10157700   -4.63912900
 H                  1.21982000   -3.80124400   -4.31889500
 H                  2.21933200   -2.33138300   -4.22481200
 H                  0.77754500   -1.84970500   -8.44645100
 H                  2.41822800   -2.49342100   -8.39771900
 H                  2.16744600   -0.72304000   -8.48415800

