93

 C                 -1.52514500   -1.85592400    1.81548700
 C                 -1.14149300   -0.75957600    1.03275700
 C                 -0.16915000    0.11797100    1.53151500
 C                  0.36747200   -0.04468500    2.83182100
 C                 -0.04647700   -1.14410500    3.59227500
 C                 -0.97819000   -2.04055500    3.07100300
 H                 -2.24819500   -2.57338900    1.44274700
 Cl                 0.55006600   -1.53159300    5.19239000
 H                 -1.26641600   -2.89270900    3.67694100
 C                  0.35273500    1.25696900    0.71093800
 C                 -0.06876700    2.55078100    1.06341800
 C                  1.16689700    1.06714000   -0.41799700
 C                  0.23277700    3.62680500    0.23005000
 C                  1.43461300    2.16627900   -1.24683000
 C                  0.96796000    3.43356600   -0.93445100
 Cl                -0.36301800    5.21636900    0.61326200
 H                  2.00707600    2.02698700   -2.15877600
 H                  1.16669000    4.27832500   -1.58513800
 P                 -1.76355600   -0.65025100   -0.70915900
 P                  1.66738600   -0.62200600   -0.97241900
 C                  3.32296300   -0.39680900   -1.75336800
 C                  4.19054300    0.68126800   -1.53791500
 C                  3.75995900   -1.46152100   -2.55175600
 C                  5.44830400    0.70421800   -2.13467800
 H                  3.88925900    1.50870100   -0.90224000
 C                  5.01714900   -1.43763400   -3.15001900
 H                  3.11847000   -2.32391100   -2.71307100
 C                  5.86129700   -0.34969500   -2.94750200
 H                  6.10815200    1.54898900   -1.96081200
 H                  5.31358400   -2.26871700   -3.78147000
 H                  6.83978600   -0.32223000   -3.41712800
 C                  2.22614000   -1.42382500    0.59673600
 C                  1.72683200   -2.67962900    0.94218900
 C                  3.17617300   -0.81540000    1.42570800
 C                  2.15504200   -3.31523800    2.10748600
 H                  0.98961700   -3.15508200    0.30223600
 C                  3.60657800   -1.45071800    2.58501500
 H                  3.57603200    0.16125300    1.16571000
 C                  3.09180700   -2.70108300    2.93162100
 H                  1.74926900   -4.28734400    2.37058300
 H                  4.35218300   -0.97513900    3.21608600
 H                  3.42367700   -3.19275400    3.84084900
 C                 -2.30967800    1.10457100   -0.85298500
 C                 -2.88861400    1.77189000    0.23305200
 C                 -2.17913600    1.77797700   -2.06804200
 C                 -3.31156200    3.08931600    0.10822400
 H                 -2.94983800    1.28685400    1.20296900
 C                 -2.61203900    3.09725300   -2.19635300
 H                 -1.72994700    1.27128100   -2.91659300
 C                 -3.17600700    3.75521800   -1.10904000
 H                 -3.72255500    3.60417500    0.97072400
 H                 -2.49743300    3.61028100   -3.14626700
 H                 -3.49432500    4.78887500   -1.20139400
 C                 -3.40173500   -1.49692300   -0.63096700
 C                 -4.31428100   -1.29676500    0.41354500
 C                 -3.77457000   -2.30401300   -1.70788800
 C                 -5.56435100   -1.90291800    0.38415600
 H                 -4.04260600   -0.67655900    1.26263200
 C                 -5.03226200   -2.90581900   -1.74117500
 H                 -3.07049000   -2.45450300   -2.52236600
 C                 -5.92634500   -2.70913400   -0.69520600
 H                 -6.25862900   -1.74526300    1.20364600
 H                 -5.30692900   -3.53117000   -2.58481700
 H                 -6.90371100   -3.18114600   -0.71656300
 H                 -0.32917000   -0.14446800   -3.05890900
 O                  1.26760100    0.91557000    3.14628900
 O                 -0.84360900    2.69356400    2.17310100
 Rh                -0.20248100   -1.52949000   -2.21842800
 C                 -0.58551200   -3.34405100   -1.72756800
 O                 -0.85440200   -4.41138900   -1.39012600
 C                  1.91903800    1.02756600    4.39802700
 H                  1.20439500    1.13936200    5.21770100
 H                  2.56987400    0.17190900    4.58819300
 H                  2.52138300    1.93418500    4.31421400
 C                 -0.28927500    3.43725700    3.25429800
 H                 -0.77976300    4.41088900    3.32865500
 H                 -0.46691900    2.86236200    4.16715200
 H                  0.78736300    3.57857700    3.12187100
 C                 -0.25407400   -1.01172100   -4.40926300
 C                  0.76528900   -1.95831300   -4.07257100
 C                  0.65130200   -3.39780700   -4.48740100
 O                  1.17368500   -3.59626900   -5.82259100
 C                  2.50966000   -3.64259000   -5.91886900
 C                  2.94475700   -3.82450700   -7.35015800
 O                  3.25941500   -3.54714400   -4.97452600
 H                 -1.20815500   -1.36776800   -4.79160600
 H                  0.04402200   -0.05542500   -4.83482800
 H                  1.78586100   -1.58461800   -4.10127300
 H                 -0.39255000   -3.71535900   -4.54599800
 H                  1.20221100   -4.05850900   -3.81372300
 H                  2.63141200   -2.95752600   -7.93779500
 H                  2.46110000   -4.70582600   -7.77762300
 H                  4.02788600   -3.92900700   -7.38898100

