93

 C                 -1.71932400    0.04491100    2.69182600
 C                 -1.35457600    0.35891500    1.37604100
 C                 -0.32085600    1.27940600    1.14915300
 C                  0.28225900    1.95487200    2.23127700
 C                 -0.10241700    1.60647900    3.52627000
 C                 -1.08735600    0.66158100    3.75948200
 H                 -2.49037100   -0.69412300    2.88415500
 F                  0.48655500    2.17149700    4.59978100
 H                 -1.33810100    0.42519300    4.78788200
 C                  0.22726400    1.59261700   -0.20836200
 C                 -0.07295600    2.85642200   -0.72771400
 C                  1.05408300    0.70960400   -0.93408900
 C                  0.40724000    3.20925800   -1.98631000
 C                  1.56753100    1.12888000   -2.16544500
 C                  1.24057500    2.37093100   -2.69975600
 F                  0.05352300    4.39832400   -2.50280000
 H                  2.23847800    0.48793300   -2.72407300
 H                  1.61524800    2.69467600   -3.66468000
 P                 -2.05211600   -0.65737700    0.00373400
 P                  1.33229700   -1.01174100   -0.29071100
 C                  2.75151400   -1.61712700   -1.29266000
 C                  4.00809300   -1.90889600   -0.75549100
 C                  2.50930000   -1.93390100   -2.63720700
 C                  4.99858100   -2.48891800   -1.54852700
 H                  4.21771000   -1.69069100    0.28660400
 C                  3.50063500   -2.49631500   -3.43272900
 H                  1.52603300   -1.73083300   -3.05704900
 C                  4.75213000   -2.77924500   -2.88608600
 H                  5.96761000   -2.71316200   -1.11332300
 H                  3.29279600   -2.72644800   -4.47349200
 H                  5.52573600   -3.23031600   -3.49929600
 C                  2.12635200   -0.60670200    1.32402900
 C                  1.74316600   -1.29715800    2.47510400
 C                  3.07079700    0.42261800    1.42812700
 C                  2.27852100   -0.95464000    3.71614400
 H                  1.00476300   -2.08920400    2.39910400
 C                  3.61391600    0.75631400    2.66420100
 H                  3.36454700    0.97577400    0.53913200
 C                  3.20852500    0.07598200    3.81337900
 H                  1.95792300   -1.48727100    4.60612100
 H                  4.34611800    1.55588200    2.73351200
 H                  3.62014600    0.34897800    4.78039900
 C                 -2.36426700    0.56905400   -1.33455800
 C                 -3.01310400    1.77887600   -1.06531900
 C                 -1.92244300    0.30804400   -2.63234900
 C                 -3.20518200    2.71499000   -2.07468900
 H                 -3.32623300    2.01823200   -0.05380500
 C                 -2.11878200    1.24482300   -3.64518800
 H                 -1.40250700   -0.62364500   -2.83868900
 C                 -2.75712900    2.44994600   -3.36758400
 H                 -3.68753600    3.66004700   -1.84617300
 H                 -1.76100900    1.03506000   -4.64861500
 H                 -2.89756200    3.18588500   -4.15318300
 C                 -3.76312200   -1.04430900    0.56047100
 C                 -4.57168300   -0.15216800    1.27600900
 C                 -4.28963100   -2.28171800    0.17981000
 C                 -5.88048000   -0.49360300    1.59946200
 H                 -4.17198700    0.80271200    1.60541800
 C                 -5.60482800   -2.61819300    0.49469100
 H                 -3.65513000   -2.98128000   -0.35930300
 C                 -6.40073100   -1.72555000    1.20503700
 H                 -6.49505800    0.20244900    2.16192100
 H                 -6.00112900   -3.58157800    0.18989500
 H                 -7.42302500   -1.98897500    1.45809300
 H                 -0.87376600   -2.47979700   -1.93052800
 O                  1.22232400    2.87265400    1.89925300
 O                 -0.87186800    3.68326600   -0.00215500
 Rh                -0.62857300   -2.46752800   -0.30488800
 C                 -1.07493900   -3.16118500    1.41453400
 O                 -1.39648200   -3.60180200    2.42848500
 C                  1.80117400    3.70491600    2.89026900
 H                  2.43612300    4.40140900    2.34047500
 H                  1.03515300    4.26029700    3.43948200
 H                  2.40732000    3.12668700    3.59116900
 C                 -0.38164300    5.00109600    0.20985700
 H                 -0.65083900    5.66140900   -0.61783000
 H                 -0.84741900    5.35470800    1.13180100
 H                  0.70604700    4.98954800    0.33511300
 C                  0.29650000   -4.31255700   -0.88785000
 C                 -0.73062200   -4.09805100   -1.85739600
 C                 -0.38738600   -4.05513300   -3.33242700
 O                 -0.22265700   -5.39192300   -3.83558600
 C                 -1.35901900   -6.06504900   -4.09206300
 C                 -1.05857700   -7.45456200   -4.59108200
 O                 -2.46212300   -5.60251500   -3.93588100
 H                  1.33284100   -4.20686900   -1.20857800
 H                  0.13252600   -5.05637900   -0.11467700
 H                 -1.69909100   -4.56026300   -1.68430300
 H                  0.58100000   -3.58207000   -3.49446400
 H                 -1.16248400   -3.55334100   -3.91752400
 H                 -0.53204000   -8.01388000   -3.81329400
 H                 -0.40236600   -7.40392900   -5.46310400
 H                 -1.99082400   -7.95603800   -4.84583000

