93

 C                 -1.61937800   -0.14250200    2.47508200
 C                 -1.11840400    0.14461500    1.20089100
 C                 -0.13950000    1.14639000    1.06543100
 C                  0.31369400    1.86831600    2.18445300
 C                 -0.18752700    1.52454400    3.44122500
 C                 -1.14681200    0.53910000    3.58724500
 H                 -2.38383700   -0.89917200    2.60678800
 F                  0.25025500    2.14363900    4.55670800
 H                 -1.51027700    0.32339100    4.58629700
 C                  0.43223600    1.53141900   -0.26212200
 C                  0.00902400    2.75872800   -0.79456500
 C                  1.30852300    0.71792800   -1.00121400
 C                  0.38475400    3.10496800   -2.08861700
 C                  1.67221100    1.10509900   -2.29695700
 C                  1.20899100    2.29316700   -2.84752700
 F                 -0.08337000    4.24994400   -2.61186300
 H                  2.31620900    0.46439100   -2.89109700
 H                  1.46681700    2.59745500   -3.85597000
 P                 -1.62516300   -0.88025100   -0.26328200
 P                  1.80494000   -0.94772000   -0.37926100
 C                  3.44251700   -1.24966800   -1.16857100
 C                  4.39677500   -0.25332800   -1.41234600
 C                  3.75461700   -2.57523800   -1.48537800
 C                  5.63491400   -0.57968800   -1.95573600
 H                  4.16542400    0.78729300   -1.20416700
 C                  4.99953800   -2.90298600   -2.01943000
 H                  3.00582000   -3.34488700   -1.31298200
 C                  5.94069600   -1.90630000   -2.25573800
 H                  6.36210300    0.20351500   -2.14656800
 H                  5.22849000   -3.93750600   -2.25556300
 H                  6.90826800   -2.15845400   -2.67847600
 C                  2.29015000   -0.59583700    1.36760200
 C                  1.71880600   -1.33762100    2.40344300
 C                  3.19730700    0.42168900    1.68271600
 C                  2.04325000   -1.06703800    3.73122100
 H                  0.99378000   -2.11107700    2.17332200
 C                  3.52595600    0.68855800    3.00744900
 H                  3.63298900    1.02823200    0.89529500
 C                  2.94481200   -0.05198600    4.03641500
 H                  1.58002100   -1.64456600    4.52512400
 H                  4.23424700    1.47946200    3.23715300
 H                  3.19471400    0.16328600    5.07080800
 C                 -2.22070200    0.42990900   -1.41236200
 C                 -2.90918700    1.56232000   -0.96058000
 C                 -1.91277800    0.32032600   -2.77079200
 C                 -3.27299600    2.56723400   -1.85041900
 H                 -3.12187100    1.67645100    0.09966000
 C                 -2.28206000    1.32452800   -3.66397200
 H                 -1.35124800   -0.54190900   -3.12101300
 C                 -2.95723300    2.45115900   -3.20348400
 H                 -3.78225200    3.45245000   -1.48280100
 H                 -2.02544100    1.23320900   -4.71498900
 H                 -3.22788000    3.24365400   -3.89421400
 C                 -3.18658000   -1.66789800    0.32030400
 C                 -4.46294900   -1.22516200   -0.03693700
 C                 -3.06967800   -2.83488000    1.09012700
 C                 -5.59504000   -1.92879400    0.37334600
 H                 -4.58124400   -0.33780400   -0.64975000
 C                 -4.19965900   -3.52491000    1.51478000
 H                 -2.08082800   -3.21559400    1.33501700
 C                 -5.46821000   -3.07423800    1.15213100
 H                 -6.57889900   -1.57774100    0.07745400
 H                 -4.08753600   -4.42782400    2.10649200
 H                 -6.35132000   -3.62187200    1.46581200
 H                  0.33524900   -1.79000100   -2.36479600
 O                  1.23332600    2.82995100    1.92488100
 O                 -0.81655300    3.54781700   -0.05463100
 Rh                 0.14034300   -2.47226300   -0.89898700
 C                  0.43112600   -3.79171200    0.44343200
 O                  0.62023400   -4.63439900    1.20515400
 C                  1.70664500    3.67411100    2.96080900
 H                  2.38069500    4.37719400    2.46896700
 H                  0.88640500    4.22096200    3.43483500
 H                  2.25268200    3.10573700    3.71718200
 C                 -0.35741400    4.87549500    0.16728800
 H                 -0.55455700    5.51309100   -0.69789200
 H                 -0.90984000    5.24612100    1.03265800
 H                  0.71382200    4.87506000    0.39380300
 C                  0.00027100   -3.32743500   -2.98234300
 C                 -0.93165200   -3.92672100   -2.09401400
 C                 -2.40175300   -3.68189300   -2.29227300
 O                 -2.93052300   -4.48733400   -3.37203500
 C                 -3.16006400   -5.77586000   -3.07394100
 C                 -3.70856800   -6.51551800   -4.26832000
 O                 -2.95066900   -6.26517000   -1.99085100
 H                 -0.39081700   -2.74866400   -3.81848200
 H                  0.94764700   -3.81273200   -3.19399400
 H                 -0.69014400   -4.90955700   -1.69778700
 H                 -2.59193100   -2.65134800   -2.60621400
 H                 -2.97393100   -3.89837000   -1.38796000
 H                 -2.98077100   -6.48534900   -5.08330900
 H                 -4.62000100   -6.02686000   -4.62106800
 H                 -3.91602600   -7.54757900   -3.99004000

