93

 C                 -1.03432100   -3.05698900    1.33471600
 C                 -1.02400800   -1.66995200    1.11797900
 C                 -0.14268400   -0.85557100    1.84159300
 C                  0.65409300   -1.44533000    2.84925200
 C                  0.62053000   -2.81894600    3.07702300
 C                 -0.21612500   -3.61850700    2.30204400
 H                 -1.67847500   -3.69587100    0.73863800
 H                  1.25405600   -3.27404700    3.82890700
 H                 -0.22628000   -4.69223000    2.46160800
 C                  0.04621000    0.61122100    1.60263900
 C                 -0.43808400    1.49590400    2.58659400
 C                  0.73696400    1.13082500    0.49336000
 C                 -0.25121800    2.87229500    2.47074300
 C                  0.94047500    2.51417100    0.39896200
 C                  0.44869100    3.36797300    1.37618900
 H                 -0.64248800    3.55509200    3.21519800
 H                  1.50118500    2.93080400   -0.42857300
 H                  0.61320900    4.43769600    1.28934200
 P                 -1.97844100   -0.99798800   -0.30757800
 P                  1.23631700   -0.01458400   -0.88378900
 C                  2.41144700    0.99033200   -1.88030300
 C                  1.88096300    2.02450800   -2.66444200
 C                  3.77013400    0.69271100   -2.01140500
 C                  2.67790700    2.76451200   -3.52808200
 H                  0.82018400    2.25394900   -2.59001000
 C                  4.58073600    1.41555700   -2.88572600
 H                  4.21194800   -0.11329600   -1.43483100
 C                  4.03009500    2.44872200   -3.63199400
 H                  2.25812700    3.56752300   -4.12379300
 H                  5.63367700    1.17671400   -2.98435900
 Br                 5.12638800    3.43619400   -4.81493000
 C                  2.37043400   -1.12280300    0.05516300
 C                  2.29968500   -2.50507900   -0.11951700
 C                  3.25615000   -0.60093200    1.00606800
 C                  3.06753200   -3.36368500    0.66440000
 H                  1.61158600   -2.91839300   -0.85013600
 C                  4.03872800   -1.44351300    1.78504500
 H                  3.31287200    0.47360600    1.16178200
 C                  3.91459600   -2.82075200    1.62095300
 H                  2.98672300   -4.43886200    0.55194000
 H                  4.71637100   -1.04232600    2.53094900
 Br                 4.89190800   -3.97289500    2.76495800
 C                 -2.68198400    0.56896400    0.35960100
 C                 -3.40419400    0.57621100    1.55641600
 C                 -2.44914800    1.77774600   -0.29799400
 C                 -3.85976500    1.76827700    2.10535900
 H                 -3.58999800   -0.34859900    2.09257200
 C                 -2.88596000    2.98162000    0.24643400
 H                 -1.88259400    1.77895600   -1.22518900
 C                 -3.57106800    2.96299900    1.45462900
 H                 -4.41195000    1.77476800    3.03871500
 H                 -2.67254300    3.92373000   -0.24550800
 Br                -4.08197300    4.59757600    2.26337800
 C                 -3.48018600   -2.05801500   -0.39934800
 C                 -4.11551800   -2.62640800    0.71162400
 C                 -4.04476800   -2.24258500   -1.66465800
 C                 -5.29008400   -3.35531700    0.56490400
 H                 -3.68001700   -2.52901900    1.70194200
 C                 -5.22654100   -2.96121100   -1.82462100
 H                 -3.54464700   -1.82327300   -2.53456300
 C                 -5.83816700   -3.51071400   -0.70498500
 H                 -5.77652500   -3.80241100    1.42436500
 H                 -5.66224100   -3.09935300   -2.80746900
 Br                -7.43784400   -4.49866600   -0.90774800
 H                 -1.24450600    0.38450600   -2.74694100
 O                  1.45068800   -0.59329300    3.53992500
 O                 -1.09818500    0.91457700    3.61880600
 Rh                -0.59103200   -1.00663400   -2.16394100
 C                 -0.55021000   -2.91555500   -2.17821400
 O                 -0.58231700   -4.06508600   -2.21372500
 C                  2.21797600   -1.12684700    4.59645500
 H                  2.93152600   -1.87895000    4.23691400
 H                  2.76318300   -0.28581600    5.02534600
 H                  1.57458500   -1.57566100    5.36277500
 C                 -1.57302100    1.75803100    4.64425600
 H                 -2.06827800    1.10687300    5.36475500
 H                 -0.74715600    2.28656000    5.13537100
 H                 -2.29241700    2.49162400    4.25819400
 C                  0.24049100   -0.90914500   -4.14036500
 C                 -1.00526600   -0.21803800   -4.23657000
 C                 -1.04857300    1.21173200   -4.73756100
 O                 -0.95878200    1.22975700   -6.17056200
 C                 -2.09453000    0.93207500   -6.83038400
 C                 -1.87647600    0.97219800   -8.31992300
 O                 -3.13629200    0.67020500   -6.28165500
 H                  1.15772900   -0.32436000   -4.20795400
 H                  0.30949400   -1.91215600   -4.54900000
 H                 -1.87628400   -0.78218300   -4.55957200
 H                 -0.17468100    1.77018200   -4.40180500
 H                 -1.96742200    1.72147500   -4.43627500
 H                 -1.13234600    0.22180000   -8.59930000
 H                 -1.48559100    1.94956800   -8.61257200
 H                 -2.81852000    0.77270500   -8.82796100

