93

 C                 -1.14396200   -2.83420400    1.14266000
 C                 -0.91119200   -1.47910000    0.87182700
 C                 -0.02467000   -0.74997300    1.68220800
 C                  0.58502100   -1.39562300    2.77856400
 C                  0.35721800   -2.74679800    3.03389200
 C                 -0.50714500   -3.45651900    2.20676500
 H                 -1.83481500   -3.40269500    0.53119400
 H                  0.84816700   -3.24933100    3.85863000
 H                 -0.69222400   -4.50766900    2.40571400
 C                  0.28476700    0.70305900    1.48443400
 C                 -0.24167200    1.60502400    2.43522200
 C                  1.08453700    1.20797300    0.44527400
 C                 -0.02135000    2.97642400    2.32436100
 C                  1.31673700    2.58625700    0.35180700
 C                  0.75866700    3.45614000    1.27700100
 H                 -0.45111800    3.66915800    3.03785900
 H                  1.94409300    2.98264200   -0.43809800
 H                  0.94071600    4.52309200    1.19271700
 P                 -1.66024500   -0.67189200   -0.61854600
 P                  1.70244700    0.07392200   -0.88677800
 C                  3.11455800    0.98916800   -1.64826700
 C                  2.81832800    2.00223800   -2.57146200
 C                  4.45763900    0.67872300   -1.41783100
 C                  3.82428100    2.71832900   -3.20772000
 H                  1.78121000    2.22942200   -2.80126000
 C                  5.47718900    1.37377600   -2.06563600
 H                  4.73021000   -0.12150500   -0.73944000
 C                  5.15261100    2.39584500   -2.94664500
 H                  3.58381700    3.50768300   -3.91085800
 H                  6.51581400    1.12060400   -1.88551300
 Br                 6.53102600    3.35388300   -3.81678900
 C                  2.54130200   -1.20043900    0.13706800
 C                  2.30146700   -2.55796200   -0.08117000
 C                  3.35834800   -0.81695000    1.20724700
 C                  2.84211500   -3.52152800    0.76607500
 H                  1.65484100   -2.87166800   -0.89346500
 C                  3.92260200   -1.76827000    2.04737500
 H                  3.52924100    0.23753200    1.40988000
 C                  3.63525900   -3.11220600    1.83034200
 H                  2.62602600   -4.57327800    0.61803400
 H                  4.54899300   -1.47144100    2.88151900
 Br                 4.29807300   -4.40059600    3.05045100
 C                 -2.50440900    0.75193400    0.18999300
 C                 -3.19535200    0.60636000    1.39835300
 C                 -2.37537800    2.02599100   -0.36660400
 C                 -3.73802100    1.71046600    2.04427500
 H                 -3.28170500   -0.37523800    1.85796800
 C                 -2.89617300    3.14507400    0.27777200
 H                 -1.82116200    2.14893300   -1.29345700
 C                 -3.55986400    2.97285800    1.48600200
 H                 -4.26498800    1.60083700    2.98600700
 H                 -2.76605200    4.13815800   -0.13695700
 Br                -4.19752200    4.49060700    2.42419500
 C                 -3.06237400   -1.78873800   -1.04884400
 C                 -4.40490100   -1.48494800   -0.80932100
 C                 -2.76290200   -2.95201200   -1.77417700
 C                 -5.42186800   -2.32251200   -1.26426900
 H                 -4.67816500   -0.57991400   -0.27776200
 C                 -3.76524600   -3.80537000   -2.21781100
 H                 -1.72879300   -3.18209700   -2.01860700
 C                 -5.09363600   -3.47926100   -1.95822500
 H                 -6.46160300   -2.07563100   -1.08166500
 H                 -3.52230600   -4.69962600   -2.78007100
 Br                -6.47073700   -4.61917200   -2.57399600
 H                 -0.17530200    1.21671800   -2.41468900
 O                  1.40364900   -0.62234800    3.53516800
 O                 -0.97325400    1.04728900    3.43116600
 Rh                -0.01590800   -0.41001100   -2.37535300
 C                  0.56819500   -2.11147700   -3.00394500
 O                  0.89630400   -3.13215700   -3.42210800
 C                  1.96641900   -1.20379500    4.68989400
 H                  2.61573600   -2.05242000    4.43889100
 H                  2.55985700   -0.42054000    5.16226300
 H                  1.18525000   -1.54011100    5.38223800
 C                 -1.44983500    1.89878100    4.44911500
 H                 -1.97798600    1.25665900    5.15448400
 H                 -0.62131900    2.40249400    4.96143800
 H                 -2.14288000    2.65234700    4.05364300
 C                 -0.50629900    1.04925500   -4.03338800
 C                 -1.23580900   -0.16704700   -4.14270500
 C                 -2.72667200   -0.14161700   -3.94770200
 O                 -3.40248200    0.37325300   -5.11648600
 C                 -3.52299500   -0.49156200   -6.13869100
 C                 -4.24820300    0.14162300   -7.29849900
 O                 -3.10107600   -1.62153600   -6.11446400
 H                 -1.07045900    1.96867300   -3.87646900
 H                  0.40582900    1.18611800   -4.60601400
 H                 -0.89125100   -0.89454300   -4.87290000
 H                 -3.00599900    0.54873200   -3.14553800
 H                 -3.12313300   -1.13502500   -3.72970500
 H                 -3.68843800    1.01214000   -7.65000300
 H                 -5.23213100    0.48963500   -6.97482600
 H                 -4.35062300   -0.58714300   -8.10093100

