101

 C                 -1.64349800   -2.04410200    1.72696400
 C                 -1.12259500   -0.89422300    1.12039600
 C                 -0.11462800   -0.16019200    1.77307100
 C                  0.34791800   -0.60320000    3.02990200
 C                 -0.16675000   -1.75848200    3.61758200
 C                 -1.16482400   -2.46707000    2.95954000
 H                 -2.44000500   -2.60406500    1.25359400
 H                  0.19967700   -2.10415000    4.57676300
 H                 -1.57945900   -3.35857600    3.41999700
 C                  0.45190900    1.11985200    1.23860900
 C                  0.05940200    2.31567800    1.88446700
 C                  1.30805000    1.19914200    0.13138600
 C                  0.44537900    3.55774400    1.38704900
 C                  1.65808400    2.45659100   -0.38756100
 C                  1.22835300    3.61663100    0.23587800
 H                  0.12753500    4.47288300    1.87178500
 H                  2.27035900    2.52150400   -1.28181800
 H                  1.51100400    4.58407300   -0.16799300
 P                 -1.68105000   -0.39944900   -0.58354600
 P                  1.75645100   -0.30989500   -0.82603800
 C                  3.44086800    0.02341200   -1.50305400
 C                  4.35986500    0.94676100   -0.97642500
 C                  3.82468800   -0.77761400   -2.58471900
 C                  5.62192300    1.07619000   -1.53608200
 H                  4.08321700    1.57003600   -0.13139300
 C                  5.08960100   -0.64464900   -3.15053500
 H                  3.13261000   -1.50373100   -3.00237400
 C                  5.98676700    0.28474500   -2.62996200
 H                  6.34396600    1.78563300   -1.14329000
 H                  5.35443000   -1.25355200   -4.01108900
 C                  7.33046900    0.43824300   -3.23759400
 C                  2.23446700   -1.49589100    0.51071100
 C                  1.65476600   -2.76514500    0.54560500
 C                  3.15492900   -1.12432100    1.50072500
 C                  1.94841500   -3.63682700    1.59039900
 H                  0.94618600   -3.05174700   -0.22588200
 C                  3.44315300   -1.98753300    2.54402600
 H                  3.61498600   -0.14105100    1.47274800
 C                  2.81797500   -3.23743800    2.60377200
 H                  1.47272100   -4.61371800    1.63825100
 H                  4.13255600   -1.70833700    3.33540700
 C                  3.02585900   -4.10435500    3.78490000
 C                 -2.24938400    1.32136600   -0.22901300
 C                 -2.92121300    1.58601900    0.97612100
 C                 -2.00871300    2.36421900   -1.12361300
 C                 -3.29820700    2.87830900    1.29824500
 H                 -3.11420900    0.77618900    1.67459200
 C                 -2.38546400    3.66550500   -0.79935600
 H                 -1.50299800    2.16411800   -2.06199900
 C                 -3.00487900    3.92706700    0.41994800
 H                 -3.79823600    3.10351100    2.23560200
 H                 -2.16960800    4.48306000   -1.48331000
 C                 -3.30471800    5.32238400    0.81691900
 C                 -3.29471500   -1.27788900   -0.79880100
 C                 -4.51820300   -0.60263300   -0.84162300
 C                 -3.28023000   -2.66568800   -1.02753200
 C                 -5.69836600   -1.30060400   -1.08998900
 H                 -4.56086500    0.46949800   -0.68848800
 C                 -4.45511300   -3.36233900   -1.25531500
 H                 -2.33811300   -3.20434100   -1.02374800
 C                 -5.67368900   -2.67720900   -1.28923300
 H                 -6.64552600   -0.76708400   -1.12566700
 H                 -4.45237900   -4.43502800   -1.42191900
 C                 -6.93433700   -3.41569700   -1.54347100
 H                 -0.20755100    0.81535400   -2.60205000
 O                  1.31550400    0.15386900    3.59629100
 O                 -0.72494200    2.16206900    2.97807200
 Rh                -0.09202600   -0.77061800   -2.28753800
 C                 -0.34432400   -2.66305800   -2.49510500
 O                 -0.43435300   -3.80412300   -2.61890000
 C                  1.78711100   -0.22838100    4.87221300
 H                  2.54648100    0.50554900    5.14171100
 H                  0.97823500   -0.20605500    5.61215600
 H                  2.23868800   -1.22807300    4.85350400
 C                 -1.06327900    3.31927700    3.71391500
 H                 -1.67267200    4.01387900    3.12240000
 H                 -1.64437900    2.97076100    4.56776100
 H                 -0.16314700    3.83451600    4.06916100
 O                 -6.99433400   -4.60930600   -1.71888100
 H                 -7.85023600   -2.78871600   -1.56251800
 O                 -3.67134100    5.64129400    1.92491400
 H                 -3.14969000    6.08607000    0.02698000
 O                  8.16359100    1.22386400   -2.85052200
 H                  7.53457000   -0.23243600   -4.09793700
 O                  3.58634500   -3.74306800    4.79532500
 H                  2.60379300   -5.12761200    3.70478000
 C                 -0.15382600    0.47493000   -4.16950400
 C                  0.86258300   -0.53172000   -4.18474400
 C                  0.74301000   -1.73160600   -5.08392000
 O                  1.27744400   -1.44293200   -6.39532000
 C                  2.61365100   -1.48423900   -6.49664800
 C                  3.06324500   -1.15710200   -7.89641600
 O                  3.35132100   -1.74999800   -5.57507500
 H                 -1.11097900    0.27280700   -4.64405900
 H                  0.14745900    1.51890300   -4.23608700
 H                  1.88619900   -0.17764100   -4.08302100
 H                 -0.30213800   -1.99873200   -5.25626300
 H                  1.28459900   -2.59380100   -4.68784500
 H                  2.75828400   -0.13801100   -8.14821200
 H                  2.58130600   -1.83146500   -8.60809500
 H                  4.14621500   -1.24942200   -7.96047300

