93

 C                 -1.63281100   -2.52290300    0.91852500
 C                 -1.16181500   -1.21210400    0.76327100
 C                 -0.16624200   -0.72460100    1.62572600
 C                  0.31247900   -1.55918700    2.65708500
 C                 -0.15165100   -2.86575100    2.79685600
 C                 -1.12289800   -3.33733000    1.91939900
 H                 -2.40932900   -2.90501600    0.26626500
 H                  0.23425100   -3.51513400    3.57333100
 H                 -1.49254800   -4.35222900    2.02925800
 C                  0.39754800    0.66152800    1.55153200
 C                  0.02549300    1.55947600    2.57561600
 C                  1.29135400    1.09921600    0.56038700
 C                  0.49172500    2.87228800    2.58458100
 C                  1.76978300    2.41566400    0.58630300
 C                  1.36293500    3.28997700    1.58319200
 H                  0.18563600    3.56719500    3.35710600
 H                  2.47035700    2.75761800   -0.16668500
 H                  1.73651100    4.30927700    1.59237800
 P                 -1.73802300   -0.15913400   -0.64724500
 P                  1.70829700   -0.00901400   -0.86689800
 C                  3.27212700    0.69572600   -1.55221400
 C                  4.53515800    0.13172700   -1.35172000
 C                  3.17339900    1.81847700   -2.38649300
 C                  5.67058300    0.68374000   -1.94139300
 H                  4.65111800   -0.75810100   -0.74383400
 C                  4.29862100    2.39323600   -2.96315700
 H                  2.19594400    2.24452800   -2.59369200
 C                  5.54458800    1.81694000   -2.73326800
 H                  6.64618500    0.23600300   -1.78738100
 H                  4.21427000    3.26815800   -3.59827100
 Cl                 6.96058600    2.51949300   -3.46341100
 C                  2.28921300   -1.50233200    0.03175800
 C                  1.81804400   -2.76846500   -0.31869200
 C                  3.15336300   -1.37714200    1.12628900
 C                  2.18707700   -3.89383900    0.41299500
 H                  1.12860500   -2.87946300   -1.14854900
 C                  3.54706400   -2.49343500    1.85306000
 H                  3.50143200   -0.39387400    1.43317700
 C                  3.04235800   -3.74094400    1.49711100
 H                  1.79990800   -4.87418100    0.15886300
 H                  4.21598400   -2.39924900    2.70198300
 Cl                 3.46830300   -5.13315300    2.45757800
 C                 -2.33474500    1.31705900    0.27866000
 C                 -2.00213900    2.59162900   -0.18492200
 C                 -3.05258900    1.19685200    1.47428100
 C                 -2.35886500    3.73081200    0.53151400
 H                 -1.42410900    2.69136500   -1.09984200
 C                 -3.43106300    2.32430000    2.19299500
 H                 -3.29543400    0.21063000    1.86228700
 C                 -3.06303700    3.58114800    1.72006500
 H                 -2.07882300    4.71984900    0.18634900
 H                 -3.98417800    2.23498100    3.12219400
 Cl                -3.47267900    4.99379700    2.65854000
 C                 -3.30641100   -0.97217800   -1.17348000
 C                 -4.57903100   -0.45808900   -0.91230100
 C                 -3.20192700   -2.10389600   -1.99642900
 C                 -5.71841800   -1.05948600   -1.44382600
 H                 -4.69810700    0.43159700   -0.30352600
 C                 -4.32936800   -2.72559100   -2.51718200
 H                 -2.21937800   -2.49057200   -2.25534600
 C                 -5.58463100   -2.19193500   -2.23619400
 H                 -6.70317900   -0.65008400   -1.24685300
 H                 -4.23910600   -3.59723300   -3.15565000
 Cl                -7.00499400   -2.94575200   -2.90381900
 H                  0.08162300    1.58947500   -2.26533100
 O                  1.24957100   -1.00898700    3.46966200
 O                 -0.81153500    1.05894000    3.51774100
 Rh                -0.05309000   -0.03569900   -2.38355100
 C                  0.22645300   -1.74629300   -3.17464000
 O                  0.37329300   -2.76441500   -3.69069700
 C                  1.69647200   -1.77733000    4.56362400
 H                  2.19193200   -2.69871100    4.23197700
 H                  2.41306400   -1.15270200    5.09752500
 H                  0.86525600   -2.03462200    5.23105600
 C                 -1.14916600    1.89277100    4.60292800
 H                 -1.79661700    1.29857300    5.24831100
 H                 -0.25495500    2.19650200    5.16038000
 H                 -1.68992200    2.78747900    4.26949000
 C                 -0.26756400    1.63794400   -3.89154300
 C                 -1.19501400    0.58246900   -4.11197300
 C                 -2.66151200    0.84498300   -3.90692700
 O                 -3.22542600    1.57887400   -5.01664700
 C                 -3.48260100    0.85042100   -6.11684800
 C                 -4.07387000    1.70844600   -7.20600400
 O                 -3.26329400   -0.33266900   -6.20433300
 H                 -0.66563000    2.62126800   -3.64101300
 H                  0.65901000    1.67030500   -4.45639100
 H                 -0.97312200   -0.12084300   -4.91027200
 H                 -2.82794800    1.49229500   -3.04013400
 H                 -3.22514300   -0.08188900   -3.78434500
 H                 -3.36703900    2.49731700   -7.47579100
 H                 -4.98538800    2.19048800   -6.84442100
 H                 -4.29317500    1.08888300   -8.07406800

