97

 C                 -1.60642100   -2.56329900    1.71316300
 C                 -1.33515500   -1.24724400    1.30783700
 C                 -0.33217100   -0.50866000    1.94966800
 C                  0.32108300   -1.07832600    3.06615000
 C                  0.02632500   -2.37443500    3.48291700
 C                 -0.92677200   -3.11522400    2.78783600
 H                 -2.34485900   -3.15658700    1.18284200
 H                  0.54211600   -2.81874000    4.32558800
 H                 -1.14053600   -4.13345600    3.09714500
 C                  0.12322200    0.85077100    1.51718100
 C                 -0.21062100    1.93937400    2.34759000
 C                  0.91492900    1.07557100    0.37686900
 C                  0.21938100    3.23061800    2.04664400
 C                  1.36335800    2.37329700    0.09730500
 C                  1.01396300    3.43262800    0.92329900
 H                 -0.04947700    4.07113800    2.67484100
 H                  2.00535700    2.56249300   -0.75390700
 H                  1.36940200    4.43282500    0.69561800
 P                 -2.11366900   -0.62498800   -0.23963000
 P                  1.22345800   -0.33079600   -0.79816000
 C                  2.58492700    0.28252700   -1.87385600
 C                  3.85683000   -0.29709200   -1.91383200
 C                  2.27261800    1.27959200   -2.81099900
 C                  4.79786400    0.11888000   -2.85100100
 H                  4.12221800   -1.08309800   -1.21506600
 C                  3.20584600    1.71413200   -3.73920800
 H                  1.27742000    1.71799400   -2.80515100
 C                  4.47787300    1.12831800   -3.76135100
 H                  5.78239900   -0.33557400   -2.87861500
 H                  2.95768200    2.49147300   -4.45427700
 C                  5.45131900    1.56308600   -4.72735500
 C                  2.12320600   -1.47451600    0.33821000
 C                  1.82207800   -2.83745500    0.33072700
 C                  3.06753400   -0.98154900    1.24862200
 C                  2.42666400   -3.70033100    1.23906700
 H                  1.08657500   -3.21868400   -0.37004600
 C                  3.68678400   -1.83412400    2.14989500
 H                  3.29744100    0.08052200    1.26845300
 C                  3.35062900   -3.19450500    2.15652900
 H                  2.17303200   -4.75483800    1.25339200
 H                  4.41295000   -1.45594600    2.86233600
 C                  3.93923800   -4.06320800    3.14197700
 C                 -2.53658500    1.12519100    0.17320400
 C                 -3.25550700    1.43081900    1.33403400
 C                 -2.10965100    2.15991200   -0.66125100
 C                 -3.52508200    2.74912100    1.66935700
 H                 -3.58086200    0.64086500    2.00249000
 C                 -2.36009700    3.48555900   -0.32818900
 H                 -1.54584400    1.92052300   -1.55831400
 C                 -3.06028000    3.78013600    0.84477800
 H                 -4.07832800    2.98892900    2.57153600
 H                 -2.00290600    4.29208200   -0.95938700
 C                 -3.27298200    5.14956000    1.23290800
 C                 -3.79497100   -1.38283200   -0.25466300
 C                 -4.54116400   -1.66721500    0.89648900
 C                 -4.36155000   -1.62078200   -1.51091800
 C                 -5.82960200   -2.17314400    0.79483400
 H                 -4.10743700   -1.52047800    1.88104000
 C                 -5.65546100   -2.11666400   -1.62416800
 H                 -3.77351900   -1.42187300   -2.40345500
 C                 -6.38999400   -2.39364000   -0.46860200
 H                 -6.40582300   -2.40181400    1.68482600
 H                 -6.09462600   -2.29719200   -2.59922500
 C                 -7.72689700   -2.91737400   -0.57345000
 H                 -1.09329800    0.23708900   -2.80758300
 O                  1.24868900   -0.29301200    3.66433700
 O                 -0.97993800    1.63650000    3.42126100
 Rh                -0.72173200   -1.14974600   -2.01122800
 C                 -1.02672800   -3.02158600   -1.76055100
 O                 -1.26431200   -4.13944800   -1.63628800
 C                  1.86955800   -0.78421100    4.83291100
 H                  2.44510600   -1.69560900    4.62926200
 H                  2.54470200    0.00321400    5.16764200
 H                  1.12986300   -0.99084800    5.61507900
 C                 -1.28756800    2.68012200    4.31995900
 H                 -1.88669200    2.22965500    5.11109900
 H                 -0.37656700    3.11218900    4.75006800
 H                 -1.86623800    3.47256400    3.82902200
 N                 -8.80166900   -3.33765400   -0.65344600
 N                 -3.42575100    6.24764700    1.56457300
 N                  6.23377100    1.91570000   -5.50320800
 N                  4.39961200   -4.74780600    3.95349700
 C                  0.14160700   -1.48951600   -3.94980400
 C                 -0.94856400   -0.60143500   -4.19118400
 C                 -0.71557300    0.72810800   -4.88199600
 O                 -0.61651300    0.52945800   -6.29862700
 C                 -1.78753600    0.35665800   -6.94490200
 C                 -1.56358600    0.15768600   -8.41987300
 O                 -2.85874900    0.36373600   -6.39078000
 H                  1.15389600   -1.10076400   -4.05882300
 H                  0.02590000   -2.53627500   -4.21145700
 H                 -1.90600300   -1.03496300   -4.46785700
 H                  0.24641100    1.15360700   -4.59535600
 H                 -1.52236600    1.43779600   -4.68085100
 H                 -0.96278700   -0.74141600   -8.57942600
 H                 -1.00615100    1.00378400   -8.82865000
 H                 -2.52522200    0.05965600   -8.92074500

