105

 C                 -1.75359900   -2.61646000    1.37801700
 C                 -1.35225300   -1.31558700    1.04809000
 C                 -0.31992800   -0.69646200    1.77497700
 C                  0.26577600   -1.39970000    2.85249200
 C                 -0.12827900   -2.70014700    3.16162100
 C                 -1.13784600   -3.29949300    2.41662100
 H                 -2.55809300   -3.09602500    0.83348600
 H                  0.34128600   -3.24401700    3.97223800
 H                 -1.45425700   -4.30906600    2.65972300
 C                  0.19743200    0.69101400    1.53171000
 C                 -0.11819700    1.66694600    2.50237400
 C                  1.03131500    1.04724200    0.45785600
 C                  0.35324800    2.97359800    2.38829500
 C                  1.51887800    2.35790200    0.36514700
 C                  1.17521900    3.30609900    1.31739300
 H                  0.09318100    3.72446000    3.12465000
 H                  2.18965800    2.63834900   -0.43717900
 H                  1.56075200    4.31768000    1.23401300
 P                 -2.04617600   -0.49802600   -0.46457100
 P                  1.36206900   -0.19996500   -0.87393100
 C                  2.79346600    0.49652700   -1.79689900
 C                  4.05124200   -0.11457400   -1.84457100
 C                  2.55834600    1.61311000   -2.61385900
 C                  5.04828700    0.39013400   -2.67347600
 H                  4.25698600   -0.98952200   -1.23738900
 C                  3.55270900    2.13022800   -3.43154500
 H                  1.57562800    2.07792900   -2.59830800
 C                  4.80598000    1.51258400   -3.46291600
 H                  6.02694400   -0.07656500   -2.71853800
 H                  3.36182900    2.99833000   -4.05325900
 C                  5.90900800    2.00927800   -4.32685600
 C                  2.16703100   -1.51110900    0.14734000
 C                  1.82114200   -2.85139200   -0.03484700
 C                  3.07492800   -1.16533400    1.15746100
 C                  2.33604400   -3.83487600    0.80463600
 H                  1.12082000   -3.12387200   -0.81582000
 C                  3.59065900   -2.14076900    1.99675800
 H                  3.34452700   -0.12338000    1.30869900
 C                  3.20255900   -3.47356300    1.83559700
 H                  2.04409700   -4.87191900    0.68111800
 H                  4.27397400   -1.88701000    2.80122400
 C                  3.70006000   -4.46178300    2.82718200
 C                 -2.44992100    1.16508100    0.21503700
 C                 -3.10446900    1.26233500    1.45056200
 C                 -2.05899700    2.32842300   -0.44943500
 C                 -3.33623300    2.50290500    2.02285100
 H                 -3.39869000    0.35998200    1.98027700
 C                 -2.27873200    3.57589200    0.12655700
 H                 -1.54123000    2.25080000   -1.40087700
 C                 -2.89921000    3.65908400    1.37288000
 H                 -3.82634800    2.59435600    2.98690700
 H                 -1.94357400    4.47931800   -0.37084600
 C                 -3.05807200    4.95198200    2.08746800
 C                 -3.72997300   -1.23763100   -0.69047100
 C                 -4.91145800   -0.52243200   -0.45926100
 C                 -3.82867200   -2.53541200   -1.21494300
 C                 -6.15111500   -1.09988800   -0.71262500
 H                 -4.87684700    0.49567900   -0.09142500
 C                 -5.06421600   -3.12265100   -1.45144400
 H                 -2.93166300   -3.09607800   -1.45289500
 C                 -6.23266200   -2.40233900   -1.19764100
 H                 -7.06907300   -0.54814100   -0.53848800
 H                 -5.12441800   -4.13046000   -1.84689300
 C                 -7.58414700   -2.97342600   -1.44244200
 H                 -0.89011500    0.78176500   -2.74011600
 O                  1.22449800   -0.73202900    3.53766800
 O                 -0.90789000    1.24943600    3.52074500
 Rh                -0.55553600   -0.74970200   -2.24875300
 C                 -0.69400400   -2.64269000   -2.40080300
 O                 -0.73934500   -3.78191500   -2.56629900
 C                  1.78951700   -1.36077800    4.66845300
 H                  1.01943300   -1.59507100    5.41312300
 H                  2.32949800   -2.27631800    4.39733400
 H                  2.49418900   -0.64235900    5.08767700
 C                 -1.19728300    2.17308800    4.54924900
 H                 -1.75177400    3.04121500    4.17102100
 H                 -1.81618600    1.63538900    5.26771700
 H                 -0.27773400    2.51281400    5.04071600
 O                 -8.62273900   -2.39212500   -1.23988600
 O                 -7.54283200   -4.23228900   -1.92067000
 H                 -8.46840500   -4.50464300   -2.04605100
 O                 -3.38379800    5.05611900    3.24808700
 O                 -2.77935700    6.02148500    1.32066000
 H                 -2.89939800    6.80286700    1.88809600
 O                  7.00769600    1.51305800   -4.39373100
 O                  5.56307100    3.09458900   -5.04758500
 H                  6.34751800    3.33135100   -5.57212800
 O                  4.27588400   -4.17340800    3.85148800
 O                  3.42924000   -5.73591200    2.48997900
 H                  3.78146000   -6.28871300    3.20918100
 C                  0.26761600   -0.67873400   -4.22845900
 C                 -0.81509100    0.25275300   -4.25803100
 C                 -0.56693500    1.69202600   -4.66498600
 O                 -0.45926500    1.78338100   -6.09326500
 C                 -1.62544600    1.78077300   -6.76852200
 C                 -1.38553400    1.85916500   -8.25322700
 O                 -2.70495900    1.72099100   -6.23504000
 H                  1.28370100   -0.28711500   -4.27516400
 H                  0.13054000   -1.64308000   -4.70763200
 H                 -1.78598200   -0.10226100   -4.59368200
 H                  0.39639500    2.04431500   -4.29550700
 H                 -1.36935000    2.35389100   -4.32874200
 H                 -0.83406500    0.97337500   -8.57921900
 H                 -0.77374100    2.73370800   -8.48652300
 H                 -2.34190000    1.91520100   -8.77051000

