117

 C                 -1.49134900   -2.37777600    1.12956000
 C                 -1.03846800   -1.06714200    0.92403600
 C                 -0.03560000   -0.54270100    1.75250800
 C                  0.46802200   -1.33154300    2.80493200
 C                  0.02510400   -2.63809100    2.99509200
 C                 -0.95282400   -3.15175000    2.14686200
 H                 -2.27374000   -2.78747300    0.50092100
 H                  0.42675200   -3.25366700    3.79075800
 H                 -1.30675700   -4.16750000    2.29685600
 C                  0.50134200    0.84710600    1.61633900
 C                  0.10598800    1.77943900    2.59872800
 C                  1.37200500    1.26006300    0.59676900
 C                  0.52101400    3.10671100    2.53664700
 C                  1.80255600    2.59332800    0.55220300
 C                  1.36900400    3.50257000    1.50521200
 H                  0.19612900    3.82864600    3.27621900
 H                  2.48227100    2.91979300   -0.22681400
 H                  1.70302300    4.53475900    1.45706200
 P                 -1.62870200   -0.07168100   -0.51689100
 P                  1.80543400    0.10260800   -0.78687200
 C                  3.35675500    0.81123500   -1.49475600
 C                  3.23714100    1.87017400   -2.40614500
 C                  4.63683500    0.31894000   -1.22495000
 C                  4.36001900    2.44220200   -2.99060500
 H                  2.24903000    2.24286900   -2.66104400
 C                  5.75713100    0.88339900   -1.83111000
 H                  4.77184700   -0.51871300   -0.55029100
 C                  5.64090700    1.95637600   -2.71364600
 H                  4.24118300    3.27004800   -3.68621700
 H                  6.74256700    0.47877100   -1.61125100
 C                  6.85116100    2.52623000   -3.41065000
 C                  2.40194700   -1.36533000    0.14266900
 C                  1.98943800   -2.64664100   -0.23001900
 C                  3.25751800   -1.22835200    1.24216700
 C                  2.43536900   -3.76356100    0.46799900
 H                  1.30491700   -2.77307800   -1.06104800
 C                  3.71218300   -2.35116400    1.92659400
 H                  3.55904700   -0.23714500    1.57269800
 C                  3.30715600   -3.63498300    1.55102900
 H                  2.10009500   -4.75302600    0.16522900
 H                  4.39074100   -2.22893300    2.76830300
 C                  3.75800600   -4.85993500    2.30968200
 C                 -2.23518600    1.45022200    0.32073100
 C                 -2.95435100    1.41476300    1.51998700
 C                 -1.94891300    2.69179600   -0.25369900
 C                 -3.38128000    2.59609300    2.11988500
 H                 -3.16898100    0.45856700    1.99153500
 C                 -2.37056900    3.86900800    0.35424000
 H                 -1.37194900    2.72959500   -1.17399000
 C                 -3.09083400    3.83949100    1.55039100
 H                 -3.94765600    2.55386500    3.04803900
 H                 -2.13276400    4.82710400   -0.10308700
 C                 -3.50422300    5.13033500    2.21603100
 C                 -3.18173700   -0.90204300   -1.04622100
 C                 -4.44454500   -0.31813100   -0.91816500
 C                 -3.06318700   -2.06204600   -1.82703100
 C                 -5.54464100   -0.85946500   -1.58097000
 H                 -4.57164100    0.58569700   -0.33117400
 C                 -4.16635900   -2.60558300   -2.47076800
 H                 -2.08393300   -2.51044300   -1.97681100
 C                 -5.42247400   -1.99754600   -2.37791400
 H                 -6.51378300   -0.37312500   -1.49247300
 H                 -4.04351000   -3.48795400   -3.09372300
 C                 -6.58312700   -2.49368800   -3.20246200
 H                  0.14842100    1.62902700   -2.27636800
 O                  1.40475100   -0.73291300    3.58490500
 O                 -0.70303300    1.28982200    3.57216500
 Rh                 0.02922300   -0.00297500   -2.30088000
 C                  0.31916100   -1.73313000   -3.03776400
 O                  0.46162000   -2.75691000   -3.54628000
 C                  1.89040500   -1.45393900    4.69050600
 H                  2.41351000   -2.36409700    4.37149000
 H                  2.59337700   -0.79268200    5.19825400
 H                  1.07895700   -1.72358300    5.37785000
 C                 -1.08541000    2.16295400    4.60648500
 H                 -1.69297000    1.57118400    5.29200400
 H                 -0.21099900    2.55717900    5.13908500
 H                 -1.68361300    2.99690400    4.21902600
 H                 -6.47822100   -3.56993400   -3.37814200
 H                 -7.52027700   -2.34760000   -2.65319800
 C                 -6.64996200   -1.75714500   -4.54704700
 H                 -6.79537400   -0.68364100   -4.38401500
 H                 -5.71663500   -1.88231700   -5.10410100
 H                 -7.47897300   -2.12639100   -5.15832900
 H                 -3.93273300    5.80406500    1.46494000
 H                 -4.29338900    4.93264600    2.94972000
 C                 -2.32522700    5.83019600    2.90191500
 H                 -1.50888300    5.99873600    2.19210400
 H                 -2.62606000    6.79643300    3.31715000
 H                 -1.93143200    5.21815900    3.71967300
 H                  6.70984800    3.60053000   -3.57449800
 H                  7.73213400    2.41457000   -2.76888000
 C                  7.10348400    1.83186000   -4.75419400
 H                  6.23971900    1.94863900   -5.41579500
 H                  7.98102800    2.24940800   -5.25629400
 H                  7.26683300    0.75990500   -4.60775300
 H                  4.02831000   -5.64706400    1.59647500
 H                  4.66230300   -4.62860200    2.88331400
 C                  2.67059500   -5.38882700    3.25173900
 H                  2.98396600   -6.31895100    3.73463800
 H                  2.44715500   -4.65840400    4.03592100
 H                  1.74283700   -5.57956200    2.70255600
 C                 -0.24215700    1.58032100   -3.88534500
 C                 -1.16906500    0.50639800   -4.02304800
 C                 -2.63205600    0.76350600   -3.79493900
 O                 -3.25684800    1.33030800   -4.97311100
 C                 -3.65118500    0.44369600   -5.89768700
 C                 -4.34776500    1.13128600   -7.04502900
 O                 -3.48212800   -0.74962400   -5.80814100
 H                 -0.64337900    2.57361700   -3.68341700
 H                  0.66631500    1.58953700   -4.47963000
 H                 -0.96357000   -0.23826200   -4.78867800
 H                 -2.78242100    1.51459700   -3.01305500
 H                 -3.17187300   -0.14743400   -3.53690900
 H                 -3.72187200    1.93703000   -7.43504200
 H                 -5.27931100    1.57842800   -6.68697600
 H                 -4.56276200    0.40339800   -7.82590500

