117

 C                 -1.49571400   -2.67269500    0.99061800
 C                 -1.23083500   -1.29609800    0.90358000
 C                 -0.29618500   -0.71429200    1.76640800
 C                  0.29345500   -1.50815800    2.77378700
 C                  0.01809100   -2.86896600    2.86463800
 C                 -0.86818900   -3.44434300    1.95503000
 H                 -2.18561900   -3.13760300    0.29332000
 H                  0.49272600   -3.48547300    3.61852300
 H                 -1.07086300   -4.50964900    2.00988600
 C                  0.15892700    0.70713300    1.67884200
 C                 -0.28477800    1.58978000    2.68060100
 C                  1.04871400    1.16730800    0.69492300
 C                  0.13399800    2.91754800    2.70288700
 C                  1.48492300    2.49917000    0.74033000
 C                  1.02678600    3.35722900    1.72957300
 H                 -0.21543600    3.60246000    3.46583100
 H                  2.19706200    2.86647500    0.01173400
 H                  1.37381700    4.38630200    1.75226900
 P                 -1.90355100   -0.35684600   -0.53255700
 P                  1.48591200    0.04719300   -0.72212300
 C                  2.89977700    0.90131800   -1.52829000
 C                  2.62831200    2.06729100   -2.25839500
 C                  4.19522200    0.38148600   -1.57729800
 C                  3.62075900    2.70444900   -2.99086200
 H                  1.62027200    2.47724300   -2.24163100
 C                  5.18455600    1.01577500   -2.32784200
 H                  4.43815200   -0.52546500   -1.03278700
 C                  4.91800700    2.18333600   -3.04183200
 H                  3.38604900    3.61220400   -3.54304200
 H                  6.18600100    0.59216400   -2.35651100
 C                  5.97279300    2.82772700   -3.90636800
 C                  2.31454200   -1.32977000    0.17575700
 C                  2.09340300   -2.64674900   -0.23318300
 C                  3.15725300   -1.09587900    1.26846800
 C                  2.69186000   -3.70642700    0.44078500
 H                  1.43876700   -2.83882000   -1.07732800
 C                  3.75807700   -2.16000000    1.93400900
 H                  3.33179700   -0.07744300    1.60728900
 C                  3.52753800   -3.48067000    1.53602900
 H                  2.50214100   -4.72638800    0.11335700
 H                  4.41634000   -1.96384400    2.77804000
 C                  4.12596500   -4.64707700    2.28503600
 C                 -2.37742100    1.28103100    0.16546600
 C                 -3.21193000    1.38731100    1.28295700
 C                 -1.91324400    2.45097500   -0.43818100
 C                 -3.57600500    2.63613500    1.77446200
 H                 -3.57227500    0.49374900    1.78322800
 C                 -2.27532600    3.69722900    0.06215600
 H                 -1.25395400    2.37755200   -1.29873000
 C                 -3.11385200    3.80977000    1.17178000
 H                 -4.23723500    2.70279500    2.63619900
 H                 -1.90009600    4.59858800   -0.41764600
 C                 -3.46480000    5.16759900    1.72903100
 C                 -3.54937700   -1.11676300   -0.83597800
 C                 -4.38699100   -1.60324600    0.17532100
 C                 -4.00506500   -1.14951200   -2.15673400
 C                 -5.64683200   -2.10234700   -0.13289700
 H                 -4.04311600   -1.62266300    1.20587300
 C                 -5.27242200   -1.64112300   -2.45676500
 H                 -3.35052700   -0.79535800   -2.94992700
 C                 -6.11039100   -2.12542800   -1.45181400
 H                 -6.28177900   -2.48762900    0.66179200
 H                 -5.61064500   -1.65923300   -3.49011700
 C                 -7.50210900   -2.61194500   -1.77170600
 H                 -0.66080500    0.99974600   -2.78829600
 O                  1.14328900   -0.85349900    3.60504000
 O                 -1.14139900    1.05293500    3.58656500
 Rh                -0.34908900   -0.52288200   -2.25206700
 C                 -0.66862500   -2.39430600   -2.40598900
 O                 -0.91562800   -3.51103700   -2.54161300
 C                  1.72393400   -1.58741200    4.65562200
 H                  2.35919100   -2.39391100    4.26991700
 H                  2.33692400   -0.88025100    5.21529400
 H                  0.95755200   -2.01108300    5.31655600
 C                 -1.61336400    1.89225900    4.61232000
 H                 -2.27642300    1.27978500    5.22396800
 H                 -0.78949400    2.26875100    5.23130800
 H                 -2.17541200    2.73997400    4.20077900
 H                 -7.51557000   -3.05497000   -2.77356100
 H                 -7.78721900   -3.40290600   -1.06903400
 C                 -8.52329800   -1.47039400   -1.70160400
 H                 -8.53669600   -1.02714600   -0.70111100
 H                 -8.26437800   -0.67950400   -2.41200900
 H                 -9.53102000   -1.82664400   -1.93426200
 H                 -3.58609800    5.87920500    0.90470900
 H                 -4.42740400    5.11802900    2.24994400
 C                 -2.38711300    5.68484500    2.68841000
 H                 -1.41147800    5.71162600    2.19192400
 H                 -2.62295800    6.69161000    3.04555200
 H                 -2.29835200    5.02680600    3.55933300
 H                  5.84072300    3.91565100   -3.90003600
 H                  6.96549800    2.62476100   -3.48954300
 C                  5.90556100    2.31224500   -5.34889200
 H                  4.92386100    2.51924200   -5.78612700
 H                  6.66823600    2.78537000   -5.97427200
 H                  6.05940100    1.22926600   -5.37666300
 H                  4.50538400   -5.38329900    1.56709400
 H                  4.98467800   -4.30829300    2.87509800
 C                  3.10336100   -5.32489300    3.20444700
 H                  3.53056400   -6.20725500    3.68980500
 H                  2.76815200   -4.63678000    3.98727600
 H                  2.22060800   -5.63652400    2.63667900
 C                  0.72112200   -0.48165200   -4.10982800
 C                 -0.35768900    0.43749400   -4.28969200
 C                 -0.07485100    1.87279300   -4.68212600
 O                  0.20794300    1.94923200   -6.09098400
 C                 -0.86059000    1.90827000   -6.90617700
 C                 -0.43570000    1.96787600   -8.35084400
 O                 -2.00003400    1.83192300   -6.51721700
 H                  1.73023700   -0.07721000   -4.03019800
 H                  0.65653000   -1.45575200   -4.58429800
 H                 -1.27106800    0.06803500   -4.74887700
 H                  0.83348800    2.23718900   -4.20307500
 H                 -0.91823000    2.53116700   -4.45824900
 H                  0.16511300    1.08612100   -8.58881800
 H                  0.18826400    2.84844800   -8.52061000
 H                 -1.31935800    1.99979800   -8.98618400

