93

 C                 -1.77927700   -2.24399600    1.66980800
 C                 -1.21587000   -1.09330000    1.10165400
 C                 -0.24812800   -0.36668000    1.81352100
 C                  0.10690100   -0.79079900    3.11068500
 C                 -0.45375700   -1.93878200    3.66740300
 C                 -1.39190100   -2.66059900    2.93488400
 H                 -2.52791700   -2.80872500    1.12510400
 H                 -0.16790700   -2.27533100    4.65645000
 H                 -1.83288000   -3.55346500    3.36759500
 C                  0.40102900    0.87892700    1.29319800
 C                  0.01374100    2.09595700    1.89317600
 C                  1.37238900    0.90246800    0.27896000
 C                  0.54580600    3.31010800    1.46595800
 C                  1.91526200    2.12670600   -0.13293900
 C                  1.49563400    3.31315300    0.44957400
 H                  0.23270100    4.24510800    1.91408700
 H                  2.67678500    2.15693400   -0.90243700
 H                  1.92010500    4.25577000    0.11817300
 P                 -1.60686300   -0.62101700   -0.64319600
 P                  1.84180400   -0.66551700   -0.59638200
 C                  3.44925800   -0.26702700   -1.40639100
 C                  4.67755800   -0.78237000   -0.98020800
 C                  3.42445800    0.51909000   -2.56870900
 C                  5.85059200   -0.50811500   -1.68050600
 H                  4.73206900   -1.41783800   -0.10341100
 C                  4.58553000    0.81266100   -3.27191900
 H                  2.48397400    0.90470300   -2.95370400
 C                  5.78569200    0.29059500   -2.81024000
 H                  6.80716300   -0.90866900   -1.36408200
 H                  4.55380600    1.41538100   -4.17274200
 F                  6.91320500    0.55436900   -3.48462800
 C                  2.32885300   -1.70355300    0.83639600
 C                  1.82806800   -2.99947500    0.97924300
 C                  3.14595600   -1.17335800    1.84366400
 C                  2.12876400   -3.76023200    2.10562100
 H                  1.16819800   -3.40942300    0.22271200
 C                  3.46992000   -1.92555000    2.96509000
 H                  3.51415900   -0.15377700    1.76058900
 C                  2.93985100   -3.20358000    3.08084800
 H                  1.72789900   -4.75774600    2.24494300
 H                  4.09847000   -1.53286900    3.75718000
 F                  3.20859600   -3.91024800    4.18948700
 C                 -2.12509900    1.13014800   -0.42358000
 C                 -2.90798800    1.54716800    0.66060000
 C                 -1.68073000    2.08349600   -1.34419800
 C                 -3.25654700    2.88401000    0.81346900
 H                 -3.22683200    0.82373400    1.40687500
 C                 -2.00729600    3.42879600   -1.19810800
 H                 -1.04630500    1.76903500   -2.16901900
 C                 -2.78890200    3.80280200   -0.11669900
 H                 -3.86630700    3.22664900    1.64276100
 H                 -1.65576900    4.18371700   -1.89228600
 F                 -3.09761200    5.09794500    0.04791400
 C                 -3.20209300   -1.48479600   -0.98086000
 C                 -4.46305600   -0.89040400   -0.86291300
 C                 -3.13173300   -2.81240000   -1.42981900
 C                 -5.62315500   -1.60052000   -1.16208200
 H                 -4.55403200    0.14296800   -0.54786300
 C                 -4.28035700   -3.54155600   -1.71389000
 H                 -2.15819100   -3.27565900   -1.56492900
 C                 -5.51201200   -2.91811600   -1.57485600
 H                 -6.60485300   -1.14732900   -1.08133200
 H                 -4.23466700   -4.56955500   -2.05553800
 F                 -6.62518900   -3.60703100   -1.85986800
 H                  0.45059300    0.16393700   -2.75818300
 O                  1.02161500   -0.01936700    3.75121500
 O                 -0.91026600    1.99328500    2.88204500
 Rh                 0.18445600   -1.31553700   -2.09578300
 C                  0.46951600   -3.19449500   -2.13423900
 O                  0.62767900   -4.33151000   -2.24309000
 C                  1.36546700   -0.37424800    5.07035200
 H                  2.09047600    0.36917400    5.40302200
 H                  0.48826000   -0.35034100    5.72832600
 H                  1.82231800   -1.37116100    5.11190900
 C                 -1.26806300    3.17165000    3.56549100
 H                 -1.98929800    2.87173200    4.32623600
 H                 -0.39599600    3.62997500    4.04752600
 H                 -1.73301400    3.90074600    2.89016600
 C                 -0.96597600   -1.39594000   -3.89653700
 C                  0.11122200   -0.49766500   -4.18533900
 C                  1.33341800   -0.99735800   -4.92345000
 O                  1.36946700   -0.46960700   -6.26701500
 C                  1.82835400    0.78447100   -6.37199000
 C                  1.85637800    1.23850900   -7.80750100
 O                  2.17187700    1.45549100   -5.42432400
 H                 -0.92474500   -2.39014300   -4.33468200
 H                 -1.97168300   -0.99663700   -3.78897600
 H                 -0.13571500    0.53643200   -4.42731400
 H                  1.28664600   -2.08250700   -5.03602900
 H                  2.26570300   -0.72704200   -4.42820500
 H                  0.85033400    1.18052700   -8.23032400
 H                  2.49792500    0.57350600   -8.39095800
 H                  2.22800500    2.26063700   -7.85758200

