93

 C                 -1.47332200   -2.37362900    1.42461600
 C                 -1.13339200   -1.06981800    1.03462300
 C                 -0.20165300   -0.33979000    1.79003200
 C                  0.31270200   -0.90434400    2.97413900
 C                 -0.05298800   -2.18882700    3.37102900
 C                 -0.93477900   -2.92002700    2.57987500
 H                 -2.15626300   -2.96208000    0.82096100
 H                  0.35689200   -2.63233300    4.27025600
 H                 -1.20115600   -3.93059100    2.87390200
 C                  0.28826400    1.01345000    1.38123600
 C                 -0.16961400    2.12945800    2.11251800
 C                  1.13291200    1.21814600    0.28056500
 C                  0.13566900    3.42549600    1.70701800
 C                  1.40050200    2.52933600   -0.14651200
 C                  0.90381400    3.61298800    0.55908300
 H                 -0.23443800    4.28408800    2.25362100
 H                  1.99669900    2.69576700   -1.03823200
 H                  1.11784200    4.62242300    0.22134300
 P                 -1.75130500   -0.42194200   -0.58203600
 P                  1.67437400   -0.19354300   -0.77733800
 C                  3.32927200    0.29625000   -1.42509400
 C                  4.18404100    1.24743600   -0.85307100
 C                  3.78877900   -0.43784800   -2.52693000
 C                  5.44713600    1.48319000   -1.38623300
 H                  3.86747200    1.81706700    0.01538900
 C                  5.04792700   -0.21371700   -3.07421700
 H                  3.16164300   -1.20283200   -2.97628000
 C                  5.85392600    0.75170700   -2.49336600
 H                  6.11826500    2.21972000   -0.95839500
 H                  5.38306500   -0.76749100   -3.94369300
 F                  7.06688100    0.99101600   -3.01266000
 C                  2.24052900   -1.44809100    0.45382900
 C                  1.79953400   -2.76811000    0.34942400
 C                  3.15213100   -1.11300100    1.46248700
 C                  2.24311200   -3.74349000    1.24010900
 H                  1.09144600   -3.03533200   -0.42914500
 C                  3.60505400   -2.07248900    2.35830900
 H                  3.50407600   -0.08966100    1.55868900
 C                  3.13330100   -3.37356400    2.23324400
 H                  1.90186700   -4.77087900    1.17942500
 H                  4.31579500   -1.83525000    3.14288300
 F                  3.55615800   -4.29804600    3.11019200
 C                 -2.36967100    1.25635100   -0.12827000
 C                 -3.06026600    1.46370700    1.07288500
 C                 -2.20418500    2.33206300   -1.00223400
 C                 -3.57534900    2.71257500    1.39378100
 H                 -3.16326400    0.65532400    1.79013200
 C                 -2.70564000    3.59414500   -0.69224200
 H                 -1.66943500    2.18664400   -1.93521200
 C                 -3.38157900    3.76106100    0.50402200
 H                 -4.11595600    2.88781300    2.31772400
 H                 -2.57483700    4.44041300   -1.35713500
 F                 -3.86038900    4.97307400    0.82123000
 C                 -3.35409900   -1.29950100   -0.83581800
 C                 -4.27135100   -1.55348900    0.19374600
 C                 -3.70463000   -1.64391800   -2.14463700
 C                 -5.49985400   -2.14361100   -0.07196000
 H                 -4.02007100   -1.31002300    1.22138100
 C                 -4.93594600   -2.22862200   -2.43051400
 H                 -2.99833000   -1.44823400   -2.94741900
 C                 -5.81159800   -2.46955300   -1.38577800
 H                 -6.21580500   -2.35490500    0.71430600
 H                 -5.21866400   -2.50183900   -3.44084100
 F                 -6.99599500   -3.03788200   -1.64511500
 H                 -0.33250400    0.89660100   -2.61702600
 O                  1.19198500   -0.12842000    3.65337300
 O                 -0.94536900    1.84270700    3.18875100
 Rh                -0.16387900   -0.68461300   -2.28398100
 C                 -0.49475100   -2.56867600   -2.43563500
 O                 -0.73481600   -3.69376000   -2.47735400
 C                  1.70541500   -0.63189700    4.86547800
 H                  2.37378900    0.13756100    5.25215900
 H                  0.90218200   -0.81641300    5.58914800
 H                  2.26946000   -1.55863600    4.70441200
 C                 -1.35314100    2.91920600    4.00149200
 H                 -1.92516000    2.48030700    4.81931700
 H                 -0.48807200    3.45760400    4.40692000
 H                 -1.98843100    3.62070400    3.44685300
 C                 -0.21884900    0.53521900   -4.17742500
 C                  0.82880600   -0.43981600   -4.15807800
 C                  0.76674400   -1.66060500   -5.03191300
 O                  1.31327200   -1.38819600   -6.34379500
 C                  2.65133600   -1.36878300   -6.41887900
 C                  3.11332200   -1.05213400   -7.81747600
 O                  3.38338300   -1.57743700   -5.47849500
 H                 -1.15731700    0.30096400   -4.67488100
 H                  0.05119000    1.58673800   -4.25372900
 H                  1.83606200   -0.04695600   -4.04337000
 H                 -0.26561200   -1.96727200   -5.21651600
 H                  1.32927600   -2.49422000   -4.60467600
 H                  2.78066600   -0.04731100   -8.09096500
 H                  2.66484900   -1.75295100   -8.52537600
 H                  4.19970400   -1.10977500   -7.86195100

