125

 C                 -1.66163700   -2.55648400    1.26610000
 C                 -1.12758000   -1.29643400    0.96154200
 C                 -0.13624400   -0.74382900    1.78745600
 C                  0.27488400   -1.45553600    2.93270500
 C                 -0.25762700   -2.70924400    3.22703200
 C                 -1.22234200   -3.25190900    2.38254000
 H                 -2.42813600   -2.98631000    0.63024500
 H                  0.07530500   -3.26567100    4.09503600
 H                 -1.64152500   -4.22779000    2.61011900
 C                  0.47124100    0.60551400    1.55315400
 C                  0.08045200    1.63267600    2.43711200
 C                  1.39376000    0.90005000    0.53644500
 C                  0.55710800    2.93239700    2.28868300
 C                  1.88574100    2.20612000    0.40730500
 C                  1.46082400    3.20752400    1.26689700
 H                  0.23515400    3.72429300    2.95440900
 H                  2.61161700    2.44053700   -0.36194600
 H                  1.84375400    4.21706000    1.14972100
 P                 -1.59557100   -0.44285200   -0.61326700
 P                  1.87013900   -0.39972400   -0.70408600
 C                  3.41179800    0.24532800   -1.46487600
 C                  4.67805300   -0.30364300   -1.24796800
 C                  3.31915500    1.27667900   -2.41020300
 C                  5.80070700    0.16418900   -1.92188600
 H                  4.80183800   -1.13049700   -0.55632000
 C                  4.42784000    1.76334100   -3.08264700
 H                  2.35237600    1.71088700   -2.65478500
 C                  5.70830900    1.22260500   -2.84477700
 H                  6.75348400   -0.31258600   -1.72617400
 H                  4.27138800    2.54784300   -3.81296400
 N                  6.82658300    1.71151100   -3.50121600
 C                  2.44198700   -1.72051600    0.42047300
 C                  1.93452900   -3.01663500    0.32998000
 C                  3.31553400   -1.43281500    1.47546400
 C                  2.26312400   -3.98910900    1.26471300
 H                  1.23725100   -3.26696700   -0.46270000
 C                  3.67067300   -2.39761500    2.40383300
 H                  3.71069600   -0.42550300    1.58760500
 C                  3.11536900   -3.69208800    2.34396300
 H                  1.82253500   -4.97287700    1.16245400
 H                  4.34759500   -2.12457900    3.20484100
 N                  3.37327700   -4.62335900    3.34349400
 C                 -2.11560600    1.20312600    0.00236300
 C                 -2.86286600    1.38360100    1.17113900
 C                 -1.70952600    2.34757600   -0.68787700
 C                 -3.21585200    2.64950500    1.61875900
 H                 -3.15045700    0.51835000    1.76443600
 C                 -2.03998700    3.62101400   -0.24757900
 H                 -1.09376000    2.23778900   -1.57744500
 C                 -2.81409000    3.80331300    0.91430100
 H                 -3.78944500    2.73498500    2.53444000
 H                 -1.68115200    4.47447200   -0.80950100
 N                 -3.16426100    5.07559600    1.34559000
 C                 -3.18145300   -1.24388500   -1.08369600
 C                 -4.45033800   -0.75648500   -0.75793700
 C                 -3.12706900   -2.40963900   -1.85949200
 C                 -5.60904000   -1.40762000   -1.16195000
 H                 -4.55029300    0.16435900   -0.19286100
 C                 -4.27286300   -3.08317700   -2.25526400
 H                 -2.15794700   -2.79308800   -2.16896300
 C                 -5.55077100   -2.60197900   -1.90543300
 H                 -6.56474900   -0.97302900   -0.89524600
 H                 -4.16581600   -3.97797200   -2.85614900
 N                 -6.70154900   -3.27503500   -2.28246200
 H                  0.36065900    0.85298800   -2.55934000
 O                  1.21002700   -0.84158800    3.70394800
 O                 -0.79164800    1.26368700    3.41185100
 Rh                 0.15785200   -0.74705600   -2.24646400
 C                  0.49070900   -2.55484100   -2.71606100
 O                  0.67350700   -3.63280500   -3.08751300
 C                  1.63475100   -1.51170800    4.86543800
 H                  2.07292200   -2.49009900    4.62792400
 H                  2.39348900   -0.87386000    5.32132000
 H                  0.80402500   -1.65042900    5.56944700
 C                 -1.13890800    2.22775700    4.37278900
 H                 -1.80673100    1.72835200    5.07581300
 H                 -0.25335200    2.59580300    4.90627800
 H                 -1.66309400    3.07569400    3.91382600
 C                 -7.97525700   -2.60272300   -2.13783700
 H                 -8.76726300   -3.26092300   -2.49758800
 H                 -8.17977600   -2.38349300   -1.08474500
 H                 -8.02288700   -1.65756700   -2.69980900
 C                 -6.59518200   -4.32958300   -3.26903500
 H                 -5.97095100   -5.14771700   -2.89541300
 H                 -7.58896200   -4.73526500   -3.46338700
 H                 -6.16725600   -3.97923700   -4.22047200
 C                 -2.41287900    6.20160200    0.82812300
 H                 -2.58866000    6.32968900   -0.24477900
 H                 -2.74680400    7.11190800    1.32799500
 H                 -1.32933300    6.08980600    0.98621200
 C                 -3.78709300    5.22326500    2.64178700
 H                 -4.71977400    4.65284300    2.68645200
 H                 -3.14322900    4.89074800    3.47253500
 H                 -4.03557200    6.27396700    2.79922000
 C                  6.62846100    2.58678600   -4.63825200
 H                  7.60169500    2.86342200   -5.04626000
 H                  6.03250400    2.11811400   -5.43612000
 H                  6.12184300    3.50753600   -4.33300900
 C                  8.05128200    0.94211100   -3.44335100
 H                  8.41240300    0.86769600   -2.41245000
 H                  7.93140000   -0.07821300   -3.83870200
 H                  8.81955400    1.45282500   -4.02562700
 C                  4.52291500   -4.40951300    4.20015000
 H                  5.45906900   -4.29908000    3.63283700
 H                  4.39073800   -3.51266500    4.81518800
 H                  4.62385200   -5.25903200    4.87701600
 C                  2.93601500   -5.98900200    3.13677700
 H                  3.19483500   -6.58115400    4.01582000
 H                  1.84849200   -6.02500700    3.01950300
 H                  3.39294000   -6.45562900    2.25083000
 C                 -1.06376500   -0.44680600   -3.97178500
 C                 -0.01569400    0.52625300   -4.08190300
 C                  1.18366700    0.24056700   -4.95564600
 O                  1.12513900    1.01738100   -6.17650100
 C                  1.53684000    2.28511300   -6.06708600
 C                  1.44939900    3.00207500   -7.39040100
 O                  1.92549300    2.78522300   -5.03529000
 H                 -1.01866200   -1.31058300   -4.63103800
 H                 -2.07285000   -0.11243600   -3.74241000
 H                 -0.29324200    1.58113300   -4.07818700
 H                  1.17531800   -0.80336800   -5.27524500
 H                  2.12988400    0.45995000   -4.46167400
 H                  0.41391400    2.99941600   -7.74001700
 H                  2.04992000    2.47557400   -8.13628500
 H                  1.80338300    4.02512100   -7.27315400

