125

 C                 -1.54514100   -2.60988200    0.86016200
 C                 -1.22208200   -1.24299400    0.83803800
 C                 -0.35651200   -0.72035200    1.80722800
 C                  0.11754600   -1.57131400    2.83010000
 C                 -0.22766000   -2.91911400    2.86003500
 C                 -1.05055000   -3.43165500    1.85930700
 H                 -2.17956200   -3.02702800    0.08447000
 H                  0.15044100   -3.57448600    3.63533800
 H                 -1.30438000   -4.48747800    1.86525200
 C                  0.16065700    0.68502700    1.81921200
 C                 -0.32674200    1.55608700    2.80900700
 C                  1.16268600    1.13018500    0.94376700
 C                  0.15911100    2.85801600    2.91908700
 C                  1.66858300    2.43022000    1.07850900
 C                  1.16628200    3.27928600    2.05435300
 H                 -0.22774500    3.53671000    3.67027400
 H                  2.46914600    2.76856000    0.43020400
 H                  1.56405400    4.28560600    2.15155700
 P                 -1.74190500   -0.25219300   -0.63283100
 P                  1.66853800    0.02351700   -0.44696900
 C                  3.09129100    0.83499500   -1.25548300
 C                  4.25098200    0.10383400   -1.53642600
 C                  2.89240000    2.01985900   -1.97718500
 C                  5.14374800    0.50440100   -2.51859800
 H                  4.43963800   -0.82833600   -1.01258300
 C                  3.78592400    2.44650900   -2.95012300
 H                  1.98453200    2.59960500   -1.81654700
 C                  4.91272300    1.66534100   -3.28032200
 H                  6.00420000   -0.11997300   -2.72544500
 H                  3.57195100    3.36079000   -3.49148400
 N                  5.75105600    2.00490900   -4.32371900
 C                  2.41985000   -1.36413200    0.47707700
 C                  2.09903400   -2.67954000    0.13783200
 C                  3.27286900   -1.15712300    1.56636400
 C                  2.60032100   -3.75571900    0.85725300
 H                  1.42232200   -2.86177000   -0.69327800
 C                  3.79225200   -2.22072700    2.28883100
 H                  3.52138900   -0.14221100    1.86844600
 C                  3.46231700   -3.55126500    1.95153500
 H                  2.30582500   -4.75711600    0.56786100
 H                  4.43948300   -2.01169800    3.13274400
 N                  3.96501200   -4.62164000    2.67376300
 C                 -2.19703900    1.37871500    0.07576000
 C                 -3.14233400    1.49480700    1.09893800
 C                 -1.57860900    2.55012300   -0.36463400
 C                 -3.46169700    2.72348200    1.65948500
 H                 -3.63048600    0.60905500    1.49351000
 C                 -1.87598700    3.78469100    0.19108500
 H                 -0.82304500    2.48896400   -1.14236800
 C                 -2.83260000    3.90433200    1.21674700
 H                 -4.19524100    2.75468800    2.45667300
 H                 -1.34697800    4.65728500   -0.17211900
 N                 -3.13920900    5.14179700    1.76424900
 C                 -3.36663500   -0.96447100   -1.08646200
 C                 -4.31583700   -1.43325100   -0.17012000
 C                 -3.71305800   -0.98595700   -2.44025200
 C                 -5.55591800   -1.89646400   -0.58103100
 H                 -4.07715700   -1.46773000    0.88973600
 C                 -4.95334500   -1.43704500   -2.86944600
 H                 -2.98411000   -0.64277900   -3.17158700
 C                 -5.90667500   -1.91212900   -1.94784500
 H                 -6.25165400   -2.25411500    0.16821000
 H                 -5.17128200   -1.42710000   -3.93027000
 N                 -7.13420300   -2.39046500   -2.36529300
 H                 -0.18415400    1.14558200   -2.48372500
 O                  0.93224400   -0.98617500    3.74545400
 O                 -1.28506800    1.03507500    3.61869400
 Rh                -0.03569700   -0.44013800   -2.20178600
 C                 -0.47213500   -2.26770700   -2.50999900
 O                 -0.82757200   -3.34864500   -2.70090200
 C                  1.44012800   -1.79717000    4.77589600
 H                  2.03164800   -2.62793500    4.37075600
 H                  2.08436900   -1.15406400    5.37671700
 H                  0.63306400   -2.19592300    5.40382100
 C                 -1.78669400    1.85694500    4.64214900
 H                 -2.52579500    1.25957900    5.17708000
 H                 -0.99257200    2.16247400    5.33511000
 H                 -2.27095900    2.75095500    4.22862400
 C                 -8.15800600   -2.65360000   -1.37724500
 H                 -9.06341400   -2.98970000   -1.88387200
 H                 -7.84560800   -3.44981200   -0.69253700
 H                 -8.40354500   -1.76418800   -0.77808700
 C                 -7.52759200   -2.19826800   -3.74473500
 H                 -6.84231000   -2.72030300   -4.42119700
 H                 -8.52321700   -2.61814800   -3.89267500
 H                 -7.54958100   -1.13666700   -4.03230100
 C                 -2.20281600    6.22875700    1.55950300
 H                 -2.16924800    6.52477700    0.50585300
 H                 -2.53125400    7.09488600    2.13565600
 H                 -1.18162600    5.96336100    1.87264900
 C                 -3.99098700    5.19640100    2.93065000
 H                 -4.96021100    4.73473600    2.71925200
 H                 -3.55655700    4.69163500    3.80923500
 H                 -4.17287000    6.24058900    3.18977300
 C                  5.44419200    3.16587900   -5.12512300
 H                  6.21963500    3.29328800   -5.88152900
 H                  4.47049200    3.08408500   -5.63463100
 H                  5.42685400    4.07254000   -4.50940100
 C                  6.64821300    0.99251100   -4.84949000
 H                  7.52067400    0.84538400   -4.19971500
 H                  6.13175500    0.02970000   -4.96072300
 H                  7.01000800    1.31072100   -5.82895600
 C                  4.73536000   -4.36591900    3.86970200
 H                  5.61712400   -3.75954600    3.63799700
 H                  4.16064600   -3.84315000    4.65110600
 H                  5.08461400   -5.31534000    4.27794400
 C                  3.34239900   -5.91856800    2.51134500
 H                  3.78896700   -6.61992800    3.21731200
 H                  2.25713200   -5.88369500    2.69056300
 H                  3.50578900   -6.31171400    1.50190800
 C                  0.48917100    0.77183500   -4.03128900
 C                  1.38192700   -0.31085900   -3.82479900
 C                  1.35948200   -1.47700200   -4.76941600
 O                  2.06341700   -1.13491100   -5.99252800
 C                  3.39839400   -1.09929100   -5.92010600
 C                  3.99701700   -0.56968500   -7.20036100
 O                  4.04133500   -1.42229400   -4.94812700
 H                 -0.32601800    0.67087800   -4.74368300
 H                  0.86503000    1.78608800   -3.93025400
 H                  2.37794200   -0.07882400   -3.45628000
 H                  0.34564600   -1.71139200   -5.10053100
 H                  1.82945500   -2.36455100   -4.33878200
 H                  3.89221700    0.52020200   -7.20879800
 H                  3.46827400   -0.96497900   -8.06929900
 H                  5.05485000   -0.82874300   -7.24078000

