101

 C                 -1.52862800   -2.40607200    0.86169500
 C                 -1.20635300   -1.04341500    0.75604900
 C                 -0.28831800   -0.47483900    1.64908800
 C                  0.23092100   -1.27282100    2.69257400
 C                 -0.11005900   -2.61807600    2.80441600
 C                 -0.98073900   -3.17845800    1.87295800
 H                 -2.20208400   -2.86073500    0.14228100
 H                  0.31323000   -3.23660400    3.58642800
 H                 -1.23097500   -4.23272800    1.94297100
 C                  0.22457400    0.92896800    1.55407800
 C                 -0.21490800    1.85335700    2.52018700
 C                  1.16458300    1.33524800    0.59231100
 C                  0.25665100    3.16465500    2.52603600
 C                  1.65070100    2.64965800    0.61964000
 C                  1.19684700    3.54774800    1.57457500
 H                 -0.10123000    3.88462800    3.25182900
 H                  2.39705900    2.96804400   -0.09868500
 H                  1.57968100    4.56413700    1.58412100
 P                 -1.80225400   -0.11330500   -0.72385900
 P                  1.63406100    0.16532900   -0.77012600
 C                  3.06079900    0.98294900   -1.57816000
 C                  4.36169100    0.47236900   -1.55976500
 C                  2.80990700    2.09164900   -2.40109900
 C                  5.37285500    1.05011200   -2.31841500
 H                  4.59090300   -0.40132900   -0.95789900
 C                  3.81536600    2.68588900   -3.14776200
 H                  1.79900400    2.49206100   -2.45729200
 C                  5.11717200    2.16495400   -3.12333000
 H                  6.37473100    0.62944000   -2.29307100
 H                  3.59538900    3.55043000   -3.76919100
 N                  6.14158500    2.77477100   -3.84772900
 C                  2.40083200   -1.17809800    0.20905900
 C                  2.08053200   -2.50973900   -0.06266400
 C                  3.24870500   -0.90438900    1.29011500
 C                  2.57289800   -3.54105100    0.72783100
 H                  1.41431200   -2.73691500   -0.89044500
 C                  3.75473800   -1.92760500    2.07625000
 H                  3.49735800    0.12673000    1.53083000
 C                  3.40381600   -3.26098000    1.81746600
 H                  2.28848000   -4.56923000    0.51905900
 H                  4.40095700   -1.69904500    2.92097400
 N                  3.81649300   -4.27549800    2.68606900
 C                 -2.26214500    1.52702000   -0.03959700
 C                 -3.14881900    1.63496700    1.03744500
 C                 -1.69964700    2.70016900   -0.54663400
 C                 -3.45344800    2.86646500    1.59603700
 H                 -3.59489300    0.74457200    1.46871900
 C                 -1.98974100    3.93750800    0.01219300
 H                 -0.99816300    2.63673600   -1.37368200
 C                 -2.86067800    4.03619600    1.10255600
 H                 -4.13810900    2.92722000    2.43903600
 H                 -1.51434000    4.83408800   -0.37762300
 N                 -3.08147600    5.26036200    1.73852000
 C                 -3.43521700   -0.86230600   -1.09404200
 C                 -4.34072100   -1.31493400   -0.12482400
 C                 -3.82856400   -0.92656200   -2.43490500
 C                 -5.58999500   -1.80090300   -0.47872300
 H                 -4.05749600   -1.31986300    0.92418200
 C                 -5.08089400   -1.40227600   -2.79925000
 H                 -3.12787900   -0.60141100   -3.20102200
 C                 -5.98303300   -1.84510700   -1.82461800
 H                 -6.26984300   -2.16333800    0.28811100
 H                 -5.36123900   -1.44824900   -3.84840100
 N                 -7.21567100   -2.38065100   -2.18423300
 H                 -0.30539700    1.23445000   -2.72503700
 O                  1.08237000   -0.64483100    3.54249300
 O                 -1.12080400    1.37768300    3.41367400
 Rh                -0.16729700   -0.34466600   -2.36214300
 C                 -0.60130500   -2.19376700   -2.51578900
 O                 -0.93155700   -3.29585600   -2.59062200
 C                  1.60864900   -1.39822900    4.60982800
 H                  2.18686600   -2.25786800    4.24882800
 H                  2.26548600   -0.72218300    5.15854200
 H                  0.81064800   -1.75114100    5.27530900
 C                 -1.58789400    2.27006400    4.39667600
 H                 -2.07895000    3.14103300    3.94404500
 H                 -2.31100800    1.71166500    4.99235300
 H                 -0.77002100    2.61236500    5.04319200
 H                 -7.92784000   -2.33460800   -1.46765400
 H                 -7.56526700   -2.07955600   -3.08425200
 H                 -3.98198500    5.33473500    2.19520100
 H                 -2.90083100    6.06874600    1.15651100
 H                  5.82644400    3.29042700   -4.65957900
 H                  6.90655700    2.15539700   -4.08372900
 H                  3.80982000   -5.20058200    2.27453700
 H                  4.69704400   -4.09082800    3.15050300
 C                  0.15395800    0.77423700   -4.29864800
 C                  1.06494600   -0.30520400   -4.12784300
 C                  0.91278500   -1.53531800   -4.97858600
 O                  1.46981300   -1.32802100   -6.29970500
 C                  2.80405400   -1.41975100   -6.39535700
 C                  3.25894800   -1.15627400   -7.81013400
 O                  3.53629800   -1.67786000   -5.47139300
 H                 -0.72772900    0.63366400   -4.91939300
 H                  0.53992500    1.79020100   -4.31778100
 H                  2.09811200   -0.06199700   -3.88665700
 H                 -0.13951600   -1.76193200   -5.16324300
 H                  1.40924500   -2.40067900   -4.53363600
 H                  2.98698900   -0.13700700   -8.09689500
 H                  2.75270400   -1.83822600   -8.49745500
 H                  4.33816300   -1.28747600   -7.87342300

