97

 C                 -1.77684000   -2.18326400    1.64631500
 C                 -1.19018800   -1.04234000    1.08117000
 C                 -0.22087600   -0.32815800    1.80283500
 C                  0.11573900   -0.75556000    3.10387400
 C                 -0.46792800   -1.89371900    3.65724500
 C                 -1.41031000   -2.60208100    2.91662400
 H                 -2.52807100   -2.73636500    1.09291700
 H                 -0.19665800   -2.23078400    4.65036300
 H                 -1.87186100   -3.48579500    3.34743400
 C                  0.45396800    0.90668600    1.28892200
 C                  0.07896800    2.13079400    1.88256700
 C                  1.44009600    0.91197000    0.28928900
 C                  0.63931200    3.33495700    1.46317900
 C                  2.01255800    2.12615300   -0.11313000
 C                  1.60605400    3.32002000    0.46284100
 H                  0.33493100    4.27512500    1.90661800
 H                  2.78737100    2.14083400   -0.86980300
 H                  2.05505100    4.25430300    0.13947900
 P                 -1.56068200   -0.57067900   -0.66918700
 P                  1.89589100   -0.66257700   -0.58242900
 C                  3.51430600   -0.28856900   -1.37425500
 C                  4.72845400   -0.82466500   -0.94062500
 C                  3.52384300    0.50124900   -2.53640800
 C                  5.91221100   -0.56942100   -1.62972100
 H                  4.76490500   -1.46331000   -0.06476300
 C                  4.69539400    0.77284600   -3.22411300
 H                  2.59559200    0.90824500   -2.93006800
 C                  5.90075800    0.23379600   -2.76765700
 H                  6.84653500   -1.00320900   -1.28009700
 H                  4.68079900    1.37947300   -4.12327100
 O                  7.02442100    0.51538700   -3.47861400
 C                  2.34348400   -1.71474300    0.84756700
 C                  1.80919300   -2.99578700    0.98555500
 C                  3.16178000   -1.21483200    1.87125400
 C                  2.07926100   -3.76458000    2.11312400
 H                  1.14427500   -3.38851300    0.22403700
 C                  3.45172900   -1.97744100    2.99132000
 H                  3.55894600   -0.20510500    1.79777500
 C                  2.89313800   -3.25138500    3.12047200
 H                  1.63244700   -4.75023200    2.22082200
 H                  4.08153300   -1.59787600    3.78943400
 O                  3.16199100   -3.93379300    4.26704600
 C                 -2.05563300    1.18400000   -0.45869300
 C                 -2.84198000    1.62048100    0.61711400
 C                 -1.58372400    2.13444000   -1.36575500
 C                 -3.16185200    2.96076200    0.77227600
 H                 -3.18452000    0.90331800    1.35928000
 C                 -1.88260900    3.48460400   -1.21213000
 H                 -0.94584400    1.81552200   -2.18644000
 C                 -2.66674900    3.89856100   -0.13690700
 H                 -3.77296000    3.30664200    1.59982300
 H                 -1.48751400    4.21652400   -1.91296500
 O                 -2.97001500    5.20550200    0.09115300
 C                 -3.15554300   -1.42335000   -1.01911400
 C                 -4.42030900   -0.84123100   -0.86434300
 C                 -3.09531000   -2.73600300   -1.50421800
 C                 -5.58050800   -1.54456500   -1.16170100
 H                 -4.50962100    0.18365500   -0.52119100
 C                 -4.24918300   -3.45689700   -1.78816200
 H                 -2.12481300   -3.19688100   -1.66782000
 C                 -5.49841700   -2.85972900   -1.61800500
 H                 -6.55935500   -1.09078700   -1.04973300
 H                 -4.17763700   -4.47675700   -2.15972900
 O                 -6.66295500   -3.50506700   -1.89089000
 H                  0.53477100    0.19762500   -2.74903600
 O                  1.03457500    0.00391700    3.75237000
 O                 -0.85835900    2.04554600    2.86027100
 Rh                 0.24482600   -1.28465800   -2.10281000
 C                  0.52145000   -3.16169800   -2.15274200
 O                  0.67693500   -4.29934500   -2.27171000
 C                  1.37702700   -0.36659000    5.06721900
 H                  1.81835800   -1.37073200    5.09960100
 H                  2.11509700    0.36271600    5.40266600
 H                  0.50241200   -0.33188700    5.72867200
 C                 -1.22205600    3.23535700    3.51990500
 H                 -1.66089700    3.96126900    2.82405600
 H                 -1.96704800    2.95150100    4.26389300
 H                 -0.35838300    3.68924500    4.02151900
 H                 -6.46435500   -4.39662000   -2.21074300
 H                 -2.57802900    5.74755400   -0.60838200
 H                  7.77950400    0.07104400   -3.06750500
 H                  2.72636600   -4.79744100    4.22994800
 C                 -0.88969700   -1.33964500   -3.91403100
 C                  0.20048100   -0.45050100   -4.18452400
 C                  1.42381400   -0.95808100   -4.91423900
 O                  1.47249300   -0.43353400   -6.26016500
 C                  1.93168400    0.82018700   -6.36350200
 C                  1.97717400    1.26843400   -7.80107200
 O                  2.26332700    1.49624000   -5.41563900
 H                 -0.85383000   -2.33059600   -4.36032600
 H                 -1.89230800   -0.93084700   -3.81334400
 H                 -0.03246300    0.58793500   -4.42144200
 H                  1.37144500   -2.04310700   -5.02551800
 H                  2.35486300   -0.69216100   -4.41445200
 H                  0.97747200    1.20408400   -8.23777300
 H                  2.63010700    0.60402800   -8.37249600
 H                  2.34536900    2.29188800   -7.85032300

