109

 C                 -1.54729100   -2.85925400    0.75059400
 C                 -1.28437800   -1.48090300    0.80869800
 C                 -0.31650800   -0.99379900    1.69627000
 C                  0.31403400   -1.89884000    2.57987700
 C                  0.02890200   -3.26094300    2.53468300
 C                 -0.89347200   -3.73309700    1.60362100
 H                 -2.26208000   -3.24410600    0.03010600
 H                  0.52661200   -3.95532100    3.20084700
 H                 -1.10307700   -4.79726500    1.55114900
 C                  0.13278500    0.43369600    1.76565200
 C                 -0.25521400    1.17869900    2.89633600
 C                  0.97241700    1.02571800    0.80699300
 C                  0.17877800    2.49107000    3.07573000
 C                  1.42089400    2.33873800    1.00817400
 C                  1.02695500    3.05563100    2.12853700
 H                 -0.12856600    3.06745300    3.94008700
 H                  2.09773600    2.79821500    0.29825700
 H                  1.38763000    4.07016300    2.27307000
 P                 -2.03497900   -0.39195100   -0.47718600
 P                  1.35116000    0.10372300   -0.76398400
 C                  2.71439600    1.07747700   -1.51707800
 C                  4.01897600    0.59438000   -1.68608500
 C                  2.40185600    2.31509700   -2.08528200
 C                  4.96717500    1.32795400   -2.38433200
 H                  4.29766500   -0.37048100   -1.27467400
 C                  3.34423300    3.07282200   -2.77588600
 H                  1.38995400    2.70170100   -1.97998500
 C                  4.63929200    2.57155800   -2.93168700
 H                  5.97682900    0.95597900   -2.52286000
 H                  3.05599400    4.03017000   -3.19437700
 O                  5.63490200    3.21135800   -3.59585000
 C                  2.23357300   -1.34305400   -0.05748900
 C                  1.94426500   -2.62861700   -0.50497000
 C                  3.15572400   -1.19005000    0.99102500
 C                  2.52669800   -3.75185700    0.08405400
 H                  1.22639900   -2.76306600   -1.30801200
 C                  3.75164100   -2.29192500    1.57636100
 H                  3.38663600   -0.19525900    1.36462400
 C                  3.41737400   -3.58216400    1.14238700
 H                  2.25370000   -4.73815500   -0.27154300
 H                  4.45893000   -2.18900600    2.39333900
 O                  3.99827300   -4.60028200    1.83126900
 C                 -2.48908600    1.12289400    0.45443400
 C                 -3.28266600    1.05845800    1.60883200
 C                 -1.99817800    2.36377600    0.05731300
 C                 -3.55088800    2.19474100    2.35029700
 H                 -3.67495500    0.10628600    1.95085200
 C                 -2.24739500    3.51623800    0.80032700
 H                 -1.37496000    2.42595900   -0.83081500
 C                 -3.00836700    3.42645000    1.96535600
 H                 -4.15957400    2.15565200    3.24803700
 H                 -1.81956500    4.45800800    0.47815500
 O                 -3.26429100    4.46847800    2.79954900
 C                 -3.66966700   -1.15241200   -0.81563600
 C                 -4.47495000   -1.77198200    0.15483000
 C                 -4.16859000   -1.04433300   -2.11305200
 C                 -5.73079500   -2.25465700   -0.16576200
 H                 -4.10294500   -1.90720200    1.16661200
 C                 -5.43701600   -1.51651100   -2.45003000
 H                 -3.54702700   -0.58619100   -2.87902000
 C                 -6.22304100   -2.12388500   -1.47143000
 H                 -6.35630600   -2.74390500    0.57325100
 H                 -5.78811400   -1.41169900   -3.46951400
 O                 -7.46437700   -2.62566900   -1.68467700
 H                 -0.91801300    1.26537700   -2.58826400
 O                  1.20762900   -1.35088100    3.44067100
 O                 -1.06941200    0.53268500    3.76823100
 Rh                -0.54877800   -0.30559000   -2.26420900
 C                 -0.83903900   -2.14899200   -2.64086600
 O                 -1.06916000   -3.24715100   -2.90241600
 C                  1.84373700   -2.21105600    4.35714100
 H                  1.11407300   -2.68800100    5.02337200
 H                  2.42800100   -2.98424100    3.84302800
 H                  2.51419700   -1.58212700    4.94350600
 C                 -1.48348200    1.23763100    4.91505200
 H                 -0.62679600    1.50878500    5.54454000
 H                 -2.03845000    2.14517600    4.64604200
 H                 -2.13809300    0.56108200    5.46505700
 C                 -7.99364100   -2.51958400   -2.98809300
 H                 -7.37374500   -3.05873000   -3.71431700
 H                 -8.98443300   -2.97171300   -2.95010200
 H                 -8.08214600   -1.47138600   -3.29752100
 C                 -2.66703600    5.70652000    2.48558900
 H                 -3.02846100    6.09313600    1.52520200
 H                 -2.95293600    6.39322600    3.28222100
 H                 -1.57375700    5.61945800    2.44951700
 C                  5.32783400    4.45277800   -4.18916600
 H                  5.02350100    5.19064900   -3.43672900
 H                  6.24212200    4.79020200   -4.67684000
 H                  4.53165300    4.35112700   -4.93660300
 C                  3.64539400   -5.91423900    1.45999100
 H                  3.93800400   -6.12938500    0.42546300
 H                  4.18678600   -6.57691900    2.13493800
 H                  2.56635000   -6.08034100    1.56920500
 C                  0.42967700    0.00142100   -4.14651400
 C                 -0.67410900    0.90941100   -4.15628200
 C                 -0.43730000    2.38935700   -4.37424600
 O                 -0.21510900    2.65180700   -5.77176900
 C                 -1.31483600    2.68359100   -6.54460500
 C                 -0.95079900    2.93363500   -7.98553800
 O                 -2.43564900    2.52902800   -6.12577800
 H                  1.43381600    0.41698100   -4.06189500
 H                  0.36022600   -0.90377900   -4.74143200
 H                 -1.60046500    0.57969100   -4.61953200
 H                  0.48299000    2.71321000   -3.88870700
 H                 -1.28341600    2.99254600   -4.03495200
 H                 -0.33902300    2.10595700   -8.35400800
 H                 -0.35584000    3.84625900   -8.06760300
 H                 -1.86014300    3.01846100   -8.57835000

