109

 C                 -1.63690100   -2.36578100    1.28510900
 C                 -1.11481100   -1.10431000    0.97048200
 C                 -0.07693300   -0.56954500    1.75519700
 C                  0.41779100   -1.32144700    2.83988500
 C                 -0.09924200   -2.58219300    3.13670600
 C                 -1.13126700   -3.09030000    2.35547200
 H                 -2.45581100   -2.77822600    0.70864900
 H                  0.29281500   -3.16430500    3.96262800
 H                 -1.55129200   -4.06381500    2.59203900
 C                  0.49148000    0.80191600    1.54946600
 C                  0.11849700    1.79315000    2.48608000
 C                  1.32644000    1.15820800    0.48196800
 C                  0.49923400    3.12153900    2.31527900
 C                  1.67589800    2.50691700    0.29741900
 C                  1.26324700    3.47020500    1.20293200
 H                  0.19133900    3.88366100    3.02144200
 H                  2.27215700    2.79630400   -0.56240400
 H                  1.54373600    4.50875700    1.05247800
 P                 -1.71600500   -0.19286600   -0.53779400
 P                  1.74325100   -0.05748800   -0.83958600
 C                  3.39177000    0.45706900   -1.46939700
 C                  4.34771100    1.20525100   -0.76627800
 C                  3.73554000   -0.01732900   -2.73783200
 C                  5.58240700    1.49086600   -1.33018200
 H                  4.12478700    1.58109700    0.22840100
 C                  4.97168200    0.26416600   -3.31348800
 H                  3.02761600   -0.61481500   -3.30666000
 C                  5.90343500    1.03221700   -2.61584800
 H                  6.30665100    2.07925900   -0.77322800
 H                  5.16457500   -0.10507900   -4.31319200
 S                  7.48925100    1.48785700   -3.25553700
 C                  2.23152200   -1.55063300    0.12181700
 C                  1.59143500   -2.76580100   -0.11215800
 C                  3.21630500   -1.49168500    1.11453400
 C                  1.87798500   -3.88944400    0.65946700
 H                  0.83224100   -2.82904100   -0.88701100
 C                  3.51017100   -2.60412100    1.88671300
 H                  3.73661600   -0.55840800    1.31073200
 C                  2.81811500   -3.80596500    1.68648800
 H                  1.34129600   -4.81128700    0.46571200
 H                  4.25841000   -2.53753200    2.67260200
 S                  3.18780600   -5.13259800    2.80238200
 C                 -2.25644100    1.37703000    0.25469300
 C                 -2.92359900    1.33788400    1.48851100
 C                 -1.99134200    2.62015600   -0.31338800
 C                 -3.27992100    2.50567500    2.14157700
 H                 -3.13641500    0.38067300    1.95805800
 C                 -2.33355600    3.80151900    0.34258200
 H                 -1.48778500    2.67827900   -1.27261900
 C                 -2.95851800    3.75301200    1.58759300
 H                 -3.77721400    2.45557500    3.10687400
 H                 -2.08727000    4.74929200   -0.12240100
 S                 -3.36313700    5.18024900    2.55430500
 C                 -3.33014400   -0.99846100   -0.92414300
 C                 -4.56698400   -0.37398700   -0.72370300
 C                 -3.33029600   -2.26087200   -1.52721300
 C                 -5.75167400   -0.99506900   -1.09847600
 H                 -4.61672700    0.61484900   -0.28152900
 C                 -4.51192200   -2.89900600   -1.88799200
 H                 -2.39091300   -2.76987800   -1.71941800
 C                 -5.74076300   -2.26742800   -1.67881000
 H                 -6.69757100   -0.48426100   -0.94081700
 H                 -4.45684700   -3.88110400   -2.34335500
 S                 -7.30915900   -2.96572800   -2.10499800
 H                 -0.26131300    1.50009900   -2.18004100
 O                  1.41525500   -0.73765500    3.54674200
 O                 -0.64083000    1.36278800    3.52423300
 Rh                -0.15614200   -0.11141700   -2.31886600
 C                 -0.42605100   -1.87365600   -3.01973000
 O                 -0.52450800   -2.94049400   -3.44579800
 C                  1.93294900   -1.44560300    4.65052200
 H                  2.34897200   -2.41392900    4.34522900
 H                  2.72638900   -0.82149300    5.06234700
 H                  1.16129500   -1.60622400    5.41361700
 C                 -0.96696700    2.29914400    4.52626900
 H                 -1.56809200    3.12552400    4.12640000
 H                 -1.54913600    1.75317500    5.26927600
 H                 -0.06196900    2.70386700    4.99574700
 C                 -6.84356800   -4.52775000   -2.88794900
 H                 -7.77825100   -4.99525600   -3.20216500
 H                 -6.21862400   -4.35950900   -3.76771300
 H                 -6.33557900   -5.19240400   -2.18585100
 C                 -2.46602500    6.49203500    1.68926000
 H                 -2.55335700    7.38281300    2.31349500
 H                 -1.41032700    6.23105200    1.58106900
 H                 -2.90258600    6.70309000    0.71105400
 C                  7.46883600    0.73466700   -4.90009800
 H                  7.39998200   -0.35333200   -4.83799700
 H                  6.64750000    1.12567800   -5.50484800
 H                  8.41749000    1.00522300   -5.36681700
 C                  1.82778900   -6.28275100    2.48238700
 H                  0.86564500   -5.77054100    2.56325800
 H                  1.91869700   -6.75432200    1.50188700
 H                  1.89185800   -7.05395400    3.25187200
 C                 -0.27032700    1.60017600   -3.77907900
 C                  0.74558800    0.64278100   -4.10003100
 C                  0.59587500   -0.25939800   -5.29258600
 O                  1.06434700    0.39697900   -6.49520700
 C                  2.39179000    0.41115100   -6.67074600
 C                  2.76459600    1.15191900   -7.92931100
 O                  3.18200700   -0.10252100   -5.91206000
 H                 -1.24099100    1.52997400   -4.26423400
 H                  0.03034100    2.62563200   -3.57020400
 H                  1.77206100    0.96455200   -3.93698200
 H                 -0.45350100   -0.49014200   -5.48963200
 H                  1.16363800   -1.18588600   -5.17827700
 H                  2.47245400    2.20097900   -7.83239400
 H                  2.22368200    0.73546600   -8.78204800
 H                  3.83941600    1.07859800   -8.08834300

