93

 C                 -1.62289900   -2.54976200    1.16578200
 C                 -1.15429800   -1.24769000    0.94845900
 C                 -0.16972600   -0.70955700    1.79457900
 C                  0.29330400   -1.48340100    2.87881400
 C                 -0.17864900   -2.77844500    3.08851000
 C                 -1.12940500   -3.30474500    2.22073200
 H                 -2.38517000   -2.97432800    0.52358400
 H                  0.19102900   -3.37939700    3.91025800
 H                 -1.49365600   -4.31510800    2.37660400
 C                  0.39717600    0.66891000    1.64663000
 C                  0.01916400    1.62511900    2.61399600
 C                  1.29484300    1.05074500    0.63567600
 C                  0.48322400    2.93750800    2.54470500
 C                  1.76161600    2.36969700    0.57603700
 C                  1.34746700    3.30139200    1.51722600
 H                  0.17410700    3.67622800    3.27405200
 H                  2.45784000    2.67235900   -0.19739400
 H                  1.70580100    4.32407900    1.45798200
 P                 -1.70694100   -0.27176600   -0.52421800
 P                  1.71500200   -0.14615800   -0.71353200
 C                  3.29186400    0.49941900   -1.43768000
 C                  4.54216600   -0.08371800   -1.22312800
 C                  3.18646200    1.57716700   -2.32622600
 C                  5.66057300    0.42898600   -1.87593300
 H                  4.66351400   -0.93900000   -0.57073300
 C                  4.32109300    2.07779000   -2.94674400
 H                  2.21769500    2.01347000   -2.54372500
 C                  5.57580400    1.51485600   -2.73621800
 Br                 7.34457800   -0.37772500   -1.58459900
 Br                 4.15511400    3.54452700   -4.12798200
 H                  6.45440000    1.90271600   -3.23652200
 C                  2.28513200   -1.58126600    0.29086900
 C                  1.75881100   -2.85027200    0.04988600
 C                  3.18137000   -1.38276100    1.34621700
 C                  2.12797200   -3.90624000    0.87510500
 H                  1.03794500   -3.00906000   -0.74361500
 C                  3.56435800   -2.46622300    2.12421800
 H                  3.56479100   -0.39210300    1.57183100
 C                  3.03838700   -3.73684200    1.91240500
 Br                 1.34485100   -5.60352100    0.61403000
 Br                 4.82458600   -2.20907000    3.51224400
 H                  3.32777000   -4.57085300    2.54032800
 C                 -2.29682400    1.25746000    0.32784100
 C                 -3.08348100    1.19332700    1.48217800
 C                 -1.86155400    2.49323400   -0.15144300
 C                 -3.43951200    2.37047900    2.12614500
 H                 -3.39816500    0.23598800    1.88694200
 C                 -2.20227200    3.65118500    0.53719300
 H                 -1.22068900    2.54253600   -1.02607200
 C                 -2.99820900    3.61199900    1.67622800
 Br                -4.53637800    2.28902600    3.66633700
 Br                -1.53044800    5.31361200   -0.05735400
 H                 -3.26525400    4.52112800    2.20153300
 C                 -3.28322100   -1.09282500   -1.02432900
 C                 -4.54431900   -0.52001800   -0.85148000
 C                 -3.16697400   -2.28890800   -1.74657600
 C                 -5.66303400   -1.15204700   -1.38910800
 H                 -4.67149400    0.41670000   -0.32279800
 C                 -4.30231400   -2.90713100   -2.25017200
 H                 -2.19039100   -2.72260900   -1.93916600
 C                 -5.56705900   -2.34792800   -2.08676500
 Br                -7.36391300   -0.35696100   -1.16476300
 Br                -4.12997300   -4.52531200   -3.20521700
 H                 -6.44560700   -2.82605700   -2.50157100
 H                  0.13360800    1.36709600   -2.23408800
 O                  1.22749600   -0.89380200    3.66461000
 O                 -0.82783100    1.18344200    3.57500300
 Rh                -0.01943400   -0.25827800   -2.24351200
 C                  0.25683100   -2.02237900   -2.92948400
 O                  0.41572900   -3.06726000   -3.37915000
 C                  1.58539100   -1.55594200    4.85871900
 H                  0.70636900   -1.71577400    5.49463500
 H                  2.06912700   -2.51858200    4.65411000
 H                  2.29788500   -0.90356100    5.36281300
 C                 -1.10302500    2.05237700    4.65259000
 H                 -0.17877400    2.34017600    5.16791600
 H                 -1.63038300    2.95332100    4.31616300
 H                 -1.75099600    1.49641600    5.32946200
 C                 -0.19004000    1.31942500   -3.86442100
 C                 -1.13183500    0.26760100   -4.02442200
 C                 -2.59496600    0.56777900   -3.84399500
 O                 -3.13894100    1.24174900   -4.99773300
 C                 -3.40710200    0.45064800   -6.05268900
 C                 -3.97535700    1.25102200   -7.19587500
 O                 -3.21157900   -0.73946700   -6.06237100
 H                 -0.57181600    2.32332400   -3.67850000
 H                  0.74601900    1.29959300   -4.41450700
 H                 -0.91670400   -0.49192900   -4.77141000
 H                 -2.75219300    1.26966300   -3.01872300
 H                 -3.17409500   -0.34125700   -3.66878300
 H                 -3.25097300    2.00708900   -7.50944600
 H                 -4.87822700    1.77315500   -6.87002500
 H                 -4.20315600    0.58331400   -8.02515400

