93

 P                  1.99987500   -0.32807400    0.18464500
 C                  3.59376100   -1.17631800    0.58395100
 C                  1.86911800    0.89214200    1.57657100
 C                  2.50888200    0.78639100   -1.19800300
 C                  4.26508000   -1.95107900   -0.38902400
 C                  5.38817300   -2.68432100    0.00109500
 C                  5.85048100   -2.67873500    1.31345500
 C                  5.18368800   -1.92230400    2.26994900
 C                  4.06715600   -1.17673400    1.90199200
 C                  0.91508000    0.66733400    2.57316200
 C                  0.72586600    1.58069400    3.60791900
 C                  1.49968700    2.73562900    3.66334100
 C                  2.46328800    2.96670800    2.68324300
 C                  2.64639000    2.05414700    1.64820400
 C                  1.53435800    1.21193600   -2.10373800
 C                  1.85404000    2.09032600   -3.13751500
 C                  3.16255000    2.53832000   -3.28959800
 C                  4.14885800    2.10595100   -2.40358200
 C                  3.82456700    1.23850500   -1.36461700
 C                  3.81998500   -2.02969200   -1.82965700
 H                  5.90283200   -3.28223900   -0.74695500
 H                  6.72190100   -3.26646400    1.58470100
 H                  5.52762300   -1.90681200    3.29940200
 H                  3.55460100   -0.58642800    2.65540500
 H                  0.28969500   -0.21720700    2.51527900
 H                 -0.04167500    1.39330700    4.35315900
 H                  1.34989000    3.45684200    4.46090200
 H                  3.06984200    3.86660800    2.71804500
 H                  3.38838200    2.26184900    0.88420900
 H                  0.51373100    0.85483100   -2.00033000
 H                  1.07575300    2.41028700   -3.82413500
 H                  3.41822000    3.21407000   -4.09991000
 H                  5.17414900    2.44267300   -2.52350000
 H                  4.60254400    0.89520500   -0.68607100
 P                 -2.01825900   -0.48958800   -0.11974600
 C                 -2.28186000    0.84493300   -1.37249700
 C                 -2.58845500    0.27457200    1.46381300
 C                 -3.47118500   -1.59559000   -0.43545100
 C                 -1.61056600    2.08413800   -1.28577300
 C                 -1.74611700    2.99328800   -2.33994300
 C                 -2.50929400    2.70381400   -3.46529700
 C                 -3.15859500    1.47702700   -3.55401600
 C                 -3.04477100    0.56071300   -2.51409500
 C                 -3.28849500    1.48296100    1.52845000
 C                 -3.72070400    1.98831200    2.75347500
 C                 -3.47602700    1.28373200    3.92848700
 C                 -2.80249700    0.06492000    3.87317600
 C                 -2.35989400   -0.43061000    2.65050700
 C                 -3.26369600   -2.86658100   -0.97718300
 C                 -4.34233000   -3.71018200   -1.24448500
 C                 -5.63897300   -3.29094600   -0.96846900
 C                 -5.85688100   -2.02431400   -0.42605400
 C                 -4.78179200   -1.18357400   -0.16121000
 C                 -0.74437100    2.47656900   -0.11454600
 H                 -1.22518300    3.94541300   -2.27024000
 H                 -2.58957200    3.42882100   -4.26939000
 H                 -3.75122000    1.22826800   -4.42845700
 H                 -3.55404900   -0.39416100   -2.59667300
 H                 -3.49894500    2.03467700    0.61585700
 H                 -4.25415700    2.93335300    2.78602700
 H                 -3.81423600    1.67785500    4.88170900
 H                 -2.61867100   -0.49980200    4.78230300
 H                 -1.83012800   -1.37983900    2.61517400
 H                 -2.24868100   -3.19089200   -1.19064700
 H                 -4.16315900   -4.69414100   -1.66662400
 H                 -6.47959600   -3.94694300   -1.17252200
 H                 -6.86713100   -1.69193200   -0.20792600
 H                 -4.96233100   -0.19944700    0.26257100
 Rh                 0.02017500   -1.67497500   -0.23622400
 C                  0.02341100   -1.74018600   -2.12653400
 O                  0.02390100   -1.77800100   -3.27500100
 H                 -0.11705100   -1.89987300    1.38750500
 H                  4.20613200   -2.94060700   -2.29575100
 H                  4.18204800   -1.17388900   -2.40908600
 H                  2.72895900   -2.03853500   -1.92075000
 H                  0.10331100    3.07975500   -0.45363700
 H                 -0.34335200    1.60780700    0.41115700
 H                 -1.30482400    3.06432900    0.62135300
 C                 -0.22634300   -3.47696400    1.16915500
 C                  0.43389700   -3.83008000   -0.02907000
 C                  1.87659800   -4.24035900    0.02502400
 O                  2.01601000   -5.61960200    0.44454500
 C                  1.73226000   -6.53949000   -0.48967500
 C                  1.90937000   -7.93468700    0.05462100
 O                  1.38235500   -6.27262300   -1.61400900
 H                  0.33232400   -3.56543400    2.10114100
 H                 -1.29470600   -3.65085100    1.27017800
 H                 -0.14823000   -4.29908400   -0.81772400
 H                  2.42239000   -3.67001400    0.77959500
 H                  2.36513000   -4.12986200   -0.94502800
 H                  1.22557300   -8.08968100    0.89321900
 H                  2.92728700   -8.05964000    0.43159600
 H                  1.70595300   -8.65849500   -0.73300800

