101

 C                 -1.95229400    1.70563400   -2.12088400
 C                 -1.28143400    0.76724400   -1.32980900
 C                 -0.37123000   -0.13021900   -1.92205200
 C                 -0.20136400   -0.08909600   -3.32083300
 C                 -0.86817400    0.85352900   -4.10138300
 C                 -1.73633200    1.75050300   -3.49256200
 H                 -2.66198900    2.39402500   -1.67744500
 H                 -0.71707100    0.88261900   -5.17383200
 H                 -2.26208200    2.48290500   -4.09649100
 C                  0.30021500   -1.24643600   -1.17814400
 C                 -0.17068100   -2.54937000   -1.46883800
 C                  1.34588000   -1.10374100   -0.24647600
 C                  0.35650100   -3.66791300   -0.82578900
 C                  1.85389400   -2.23654800    0.40709600
 C                  1.35838800   -3.50031300    0.12284100
 H                 -0.01229800   -4.66155400   -1.04879600
 H                  2.64523000   -2.14070400    1.13991600
 H                  1.75786200   -4.36528100    0.64231100
 P                 -1.48693000    0.74460900    0.50753500
 P                  1.98596100    0.55624300    0.26815600
 C                  3.57552400    0.11434600    1.11598100
 C                  3.56567300   -0.06052800    2.50106900
 C                  4.77932000   -0.02722000    0.42373900
 C                  4.75396500   -0.33270200    3.18764900
 H                  2.63769300    0.00451600    3.06231600
 C                  5.96288000   -0.31352800    1.11389000
 H                  4.82168500    0.08514100   -0.65455800
 C                  5.96277900   -0.45655500    2.50122300
 C                  4.74480500   -0.43665400    4.62494100
 C                  7.19395200   -0.45184900    0.38050400
 H                  6.88472300   -0.65683000    3.03532300
 C                  2.67761700    1.26360400   -1.28773600
 C                  3.14572600    2.57953200   -1.25854800
 C                  2.78037100    0.53073400   -2.46745500
 C                  3.68828000    3.16281000   -2.40667800
 H                  3.09743800    3.16073500   -0.34209600
 C                  3.29901400    1.12883100   -3.62199200
 H                  2.44654200   -0.49968600   -2.51850700
 C                  3.75632800    2.44558700   -3.60307000
 C                  4.16947300    4.51872300   -2.35830900
 C                  3.34481900    0.37029000   -4.84471900
 H                  4.15960500    2.90488600   -4.49841400
 C                 -2.01194000   -1.00911700    0.74762300
 C                 -2.93484600   -1.62571400   -0.09995000
 C                 -1.39058700   -1.75647800    1.74795900
 C                 -3.24838300   -2.97714700    0.06833600
 H                 -3.39295600   -1.06935300   -0.91376100
 C                 -1.68709700   -3.11623800    1.89427200
 H                 -0.64276600   -1.29484300    2.38933400
 C                 -2.62113000   -3.73334200    1.06125200
 C                 -4.18380700   -3.60391800   -0.82849500
 C                 -0.97677000   -3.90179700    2.86877500
 H                 -2.84710800   -4.78796500    1.17478600
 C                 -3.06795900    1.65633400    0.79077300
 C                 -4.25974800    1.05126300    1.19303200
 C                 -3.02398800    3.05541700    0.71766800
 C                 -5.38963600    1.82593600    1.48639500
 H                 -4.33418000   -0.02551100    1.29421400
 C                 -4.15819300    3.82310000    0.99146000
 H                 -2.09797200    3.55982100    0.45386200
 C                 -5.35380700    3.21449500    1.37947000
 C                 -6.60296000    1.17221600    1.90300800
 C                 -4.08574700    5.25786600    0.89361700
 H                 -6.23075000    3.81067700    1.60408900
 H                  0.64803500    0.72925800    2.66128500
 O                  0.64651500   -1.00896200   -3.85014500
 O                 -1.17736700   -2.62475000   -2.37312400
 Rh                 0.47154800    1.83174200    1.45517100
 C                  0.60976300    3.42913600    0.43070300
 O                  0.64992100    4.39730000   -0.18534400
 C                  0.43174100   -1.39801500   -5.19847700
 H                  0.72319700   -0.61057800   -5.89894500
 H                  1.07549200   -2.26103100   -5.36616100
 H                 -0.61900500   -1.67069200   -5.34823400
 C                 -1.55083800   -3.90738100   -2.84021600
 H                 -2.33929400   -3.74298400   -3.57384300
 H                 -0.69829800   -4.41382300   -3.30735900
 H                 -1.94712800   -4.53129500   -2.03099200
 N                 -7.57353800    0.63992000    2.23738100
 N                 -4.02442300    6.40990800    0.81512400
 N                 -4.91332300   -4.10811500   -1.57136500
 N                 -0.39059900   -4.54151700    3.63350200
 N                  8.17850900   -0.56452800   -0.21544300
 N                  4.76078700   -0.48877400    5.78007600
 N                  4.55941600    5.60652900   -2.31788200
 N                  3.37218000   -0.23518300   -5.83017800
 C                 -0.47290800    2.92775200    3.08000500
 C                  0.29070200    1.94433600    3.74657700
 C                  1.60398400    2.28587200    4.43244100
 O                  1.60807000    1.83420900    5.79370400
 C                  1.68637600    0.50030500    5.94337400
 C                  1.83791000    0.09345700    7.37840000
 O                  1.66591900   -0.26412300    5.00254100
 H                 -0.10887900    3.95159600    3.07062300
 H                 -1.55379000    2.82086500    3.04035000
 H                 -0.25435600    1.13890000    4.23282900
 H                  1.73027900    3.36880200    4.48586100
 H                  2.46998600    1.85837400    3.92661000
 H                  1.37616400    0.81970600    8.04738700
 H                  2.91099100    0.04052400    7.58986100
 H                  1.41100700   -0.89954900    7.51694600

