93

 C                 -1.77814300   -2.03982700    1.97045200
 C                 -1.22665200   -0.92436300    1.32713800
 C                 -0.30701500   -0.10770900    2.00541300
 C                  0.00646800   -0.40506600    3.34801100
 C                 -0.54772600   -1.51554000    3.98294000
 C                 -1.43153200   -2.33089400    3.28211500
 H                 -2.48251100   -2.67785700    1.44827300
 H                 -0.29388200   -1.75282100    5.00882100
 H                 -1.86088600   -3.19823300    3.77367700
 C                  0.33763400    1.09976900    1.39656400
 C                 -0.08426400    2.35947700    1.87404600
 C                  1.34097600    1.05140100    0.41365500
 C                  0.44290000    3.53872100    1.35213900
 C                  1.87547100    2.24144300   -0.09555700
 C                  1.41981400    3.46796400    0.36455800
 H                  0.10289600    4.50407800    1.70629400
 H                  2.65489400    2.21665900   -0.84671000
 H                  1.83666100    4.38382600   -0.04214700
 P                 -1.56402100   -0.61457500   -0.46287900
 P                  1.85287500   -0.57730800   -0.30935500
 C                  3.51769000   -0.25837900   -1.04753200
 C                  4.69219200   -0.77838900   -0.49923300
 C                  3.57202100    0.43949500   -2.26230600
 C                  5.89290400   -0.58064500   -1.16906100
 H                  4.70348300   -1.34420600    0.42375900
 C                  4.79783900    0.61566700   -2.88455500
 H                  2.68425900    0.83305400   -2.75008100
 C                  5.98252600    0.11512700   -2.36184000
 F                  7.01226300   -1.08700300   -0.63830000
 F                  4.84689200    1.27669200   -4.04483600
 H                  6.92885800    0.25221800   -2.86971100
 C                  2.26047700   -1.50114200    1.23151400
 C                  1.75360500   -2.78568900    1.42569100
 C                  3.00825900   -0.87872600    2.23690100
 C                  1.99810500   -3.42424500    2.63305200
 H                  1.13876700   -3.27591900    0.68052300
 C                  3.22852600   -1.56240400    3.41949100
 H                  3.37791100    0.13651400    2.13185100
 C                  2.73451300   -2.83842700    3.65106000
 F                  1.48516600   -4.64158800    2.83789800
 F                  3.91427800   -0.95786500    4.40151600
 H                  2.90826800   -3.35057500    4.58962900
 C                 -2.13907300    1.13797400   -0.39805300
 C                 -2.93150200    1.61539200    0.65086800
 C                 -1.70380200    2.00770700   -1.39922000
 C                 -3.26871900    2.95801200    0.67030800
 H                 -3.23964500    0.97679600    1.47275800
 C                 -2.06607900    3.34523500   -1.33036500
 H                 -1.05790400    1.66508100   -2.20141600
 C                 -2.84901600    3.85230200   -0.30406300
 F                 -4.00692900    3.42693500    1.68905900
 F                 -1.63390100    4.18561800   -2.27668600
 H                 -3.11662300    4.90101500   -0.26269200
 C                 -3.13608400   -1.54221500   -0.76183400
 C                 -4.40987100   -0.97940300   -0.64945300
 C                 -3.00621300   -2.88101300   -1.15135600
 C                 -5.52002800   -1.76964900   -0.91416400
 H                 -4.56580200    0.05597800   -0.37321800
 C                 -4.14730700   -3.63073300   -1.39006300
 H                 -2.02875300   -3.33396200   -1.28434100
 C                 -5.42493800   -3.10215600   -1.28143100
 F                 -6.73719700   -1.22287300   -0.80878700
 F                 -4.01599500   -4.91092000   -1.75510300
 H                 -6.30516800   -3.69843600   -1.48638700
 H                  0.53297500    0.08562400   -2.54844400
 O                  0.88344200    0.43859800    3.94644600
 O                 -1.03657200    2.33196400    2.83884200
 Rh                 0.28598300   -1.36273900   -1.81874700
 C                  0.66996600   -3.22715400   -1.75538500
 O                  0.92153600   -4.34941700   -1.81118200
 C                  1.16674300    0.23428400    5.31318300
 H                  0.25652900    0.31485500    5.91918600
 H                  1.63374600   -0.74261100    5.48510600
 H                  1.86950700    1.01810300    5.59424000
 C                 -1.42647900    3.55985300    3.41428500
 H                 -0.57306000    4.05877500    3.88860100
 H                 -1.87339100    4.22905300    2.67031500
 H                 -2.17616900    3.31381800    4.16574400
 C                 -0.82233300   -1.61823000   -3.64173100
 C                  0.18810200   -0.66264600   -3.95854100
 C                  1.45534900   -1.09180000   -4.66758800
 O                  1.51607900   -0.53230800   -5.99303800
 C                  1.84310400    0.77021000   -6.03252700
 C                  1.93984400    1.26794000   -7.44948200
 O                  2.03037300    1.43963600   -5.04320000
 H                 -0.70132400   -2.63136000   -4.01657300
 H                 -1.85535200   -1.28913000   -3.56089300
 H                 -0.12933100    0.34478900   -4.22332100
 H                  1.46185900   -2.17547700   -4.80349100
 H                  2.35678500   -0.79378300   -4.13264800
 H                  0.99674800    1.08542900   -7.97024300
 H                  2.72144200    0.71617900   -7.97788900
 H                  2.17034800    2.33189700   -7.44375800

