93

 C                 -1.48288100   -2.23956200    1.57174200
 C                 -1.21787900   -0.91402800    1.19485500
 C                 -0.36350100   -0.12255300    1.97443700
 C                  0.13860000   -0.65062700    3.18413400
 C                 -0.14981500   -1.95865800    3.56667600
 C                 -0.94667300   -2.75086000    2.74340300
 H                 -2.10181800   -2.87270700    0.94417100
 H                  0.25183200   -2.37031100    4.48445100
 H                 -1.15246100   -3.77793200    3.02743700
 C                  0.08398500    1.25337400    1.59213400
 C                 -0.43766900    2.33622700    2.32605800
 C                  1.02688500    1.50046500    0.57989600
 C                 -0.05196100    3.64513400    2.04174000
 C                  1.42150500    2.81788600    0.31256500
 C                  0.88015900    3.87272500    1.03415800
 H                 -0.46561300    4.48011800    2.59390000
 H                  2.16062400    3.02418400   -0.45195600
 H                  1.19117900    4.88949000    0.81541500
 P                 -1.77516700   -0.34354500   -0.46631600
 P                  1.60039000    0.09275800   -0.48068400
 C                  3.05464500    0.78028200   -1.37209200
 C                  4.36349200    0.35845400   -1.13582700
 C                  2.79148000    1.65514600   -2.43626900
 C                  5.37944200    0.83000600   -1.95825400
 H                  4.61350700   -0.33244800   -0.33953200
 C                  3.84138600    2.10427100   -3.21859200
 H                  1.77963200    1.97720200   -2.66542500
 C                  5.15390200    1.70709800   -3.00588600
 F                  6.63189500    0.42479600   -1.72587400
 F                  3.58192600    2.94096500   -4.23112900
 H                  5.96158800    2.05660500   -3.63634600
 C                  2.37978900   -0.98616400    0.79341800
 C                  2.19907300   -2.36582800    0.69640300
 C                  3.09017500   -0.43958200    1.86736600
 C                  2.72033700   -3.17961200    1.69263300
 H                  1.63792500   -2.80386000   -0.12232000
 C                  3.58957300   -1.29597400    2.83307500
 H                  3.21919200    0.63179000    1.98366100
 C                  3.41702800   -2.67254800    2.77852200
 F                  2.53048400   -4.50107800    1.61869700
 F                  4.24169500   -0.77896100    3.88637300
 H                  3.81015200   -3.32215800    3.55099600
 C                 -2.35313900    1.38292100   -0.15046000
 C                 -3.23520600    1.65244300    0.90002800
 C                 -1.88041800    2.42165300   -0.95027500
 C                 -3.61333800    2.96339400    1.12960200
 H                 -3.59695900    0.88004800    1.56813700
 C                 -2.28281900    3.71950100   -0.67123200
 H                 -1.18074200    2.23595200   -1.75768500
 C                 -3.15274300    4.02451400    0.36335500
 F                 -4.43673800    3.23010200    2.15613800
 F                 -1.80277400    4.72027500   -1.41831900
 H                 -3.45472200    5.04428800    0.56791200
 C                 -3.39096200   -1.19734000   -0.72367200
 C                 -4.29385500   -1.48387800    0.30613800
 C                 -3.72117800   -1.50100200   -2.04544400
 C                 -5.51013900   -2.06455300   -0.01610800
 H                 -4.06290800   -1.29755200    1.34915600
 C                 -4.95652500   -2.07416800   -2.31519900
 H                 -3.02019200   -1.30760800   -2.85241500
 C                 -5.87384600   -2.36925100   -1.32032000
 F                 -6.37079100   -2.34925100    0.96812000
 F                 -5.27258200   -2.36313300   -3.58182200
 H                 -6.82851900   -2.82706000   -1.54741800
 H                 -0.30896400    0.62304400   -2.69599600
 O                  0.92470400    0.18554200    3.90423000
 O                 -1.33910400    2.00894600    3.28374800
 Rh                -0.09533500   -0.81937100   -1.98108400
 C                 -0.44351900   -2.69032800   -1.76456100
 O                 -0.73967700   -3.79287600   -1.62364000
 C                  1.40636600   -0.27184100    5.14949400
 H                  0.57784200   -0.49856000    5.83090300
 H                  2.03745600   -1.16031900    5.03396000
 H                  2.00748500    0.54127100    5.55518400
 C                 -1.86010700    3.05116000    4.07993500
 H                 -1.06174300    3.56232600    4.63074000
 H                 -2.41192300    3.77945100    3.47510200
 H                 -2.54598200    2.57795400    4.78213100
 C                  0.23073800   -0.13997800   -4.11777300
 C                  1.19313800   -1.09199100   -3.68790900
 C                  1.15997000   -2.49098800   -4.24288100
 O                  1.81236700   -2.54701600   -5.52888600
 C                  3.15660000   -2.54718200   -5.49838300
 C                  3.72672800   -2.59742100   -6.89260000
 O                  3.80564400   -2.50887300   -4.48180400
 H                 -0.62223700   -0.47123700   -4.70492900
 H                  0.55318900    0.87120100   -4.35223200
 H                  2.19821900   -0.73277500   -3.47758800
 H                  0.13592900   -2.81673000   -4.43912900
 H                  1.65693900   -3.20088300   -3.57743700
 H                  3.42302100   -1.70299500   -7.44288500
 H                  3.32987100   -3.46420500   -7.42622700
 H                  4.81279900   -2.65069300   -6.83663400

