117

 C                 -1.69916400   -2.17039900    1.43806000
 C                 -1.27132200   -0.89262600    1.05287200
 C                 -0.33883200   -0.20534700    1.84510800
 C                  0.14397600   -0.82019400    3.02093100
 C                 -0.27284300   -2.09766200    3.38706100
 C                 -1.19989300   -2.76164000    2.58880400
 H                 -2.43164800   -2.70214100    0.84270100
 H                  0.11194200   -2.57553400    4.27971600
 H                 -1.54016900   -3.75199100    2.87698700
 C                  0.19259400    1.16614100    1.56000900
 C                 -0.24870700    2.21020800    2.39611000
 C                  1.16035900    1.43754300    0.58246400
 C                  0.25456700    3.50206900    2.25922100
 C                  1.69043900    2.73107000    0.47680200
 C                  1.23694700    3.74678400    1.30549000
 H                 -0.09446200    4.30794600    2.89276400
 H                  2.47703700    2.94241000   -0.23597400
 H                  1.65848300    4.74401000    1.21711400
 P                 -1.74579400   -0.23078700   -0.61169400
 P                  1.63190100    0.08725900   -0.59444800
 C                  3.04252200    0.77624600   -1.54151400
 C                  2.81093700    1.87988200   -2.37698100
 C                  4.22970300    0.06002500   -1.68486900
 C                  3.75399200    2.28439900   -3.31690100
 H                  1.86445200    2.41526600   -2.31120600
 C                  5.17950800    0.42622500   -2.64557500
 H                  4.40817500   -0.82219800   -1.07554500
 C                  4.93244400    1.54154500   -3.44181000
 C                  3.50717700    3.48854200   -4.18998900
 C                  6.40428000   -0.42226000   -2.86118700
 H                  5.66488300    1.83019900   -4.19396800
 C                  2.41617400   -1.08103900    0.59306400
 C                  2.04066900   -2.42118200    0.58842500
 C                  3.31359600   -0.61785400    1.56142800
 C                  2.53334600   -3.30671000    1.55140100
 H                  1.32731600   -2.77265400   -0.15183500
 C                  3.83830100   -1.48428800    2.51671100
 H                  3.58852500    0.43531300    1.58167800
 C                  3.42990000   -2.82323100    2.50189300
 C                  2.04696300   -4.73195800    1.58445200
 C                  4.82349300   -0.98823800    3.54529400
 H                  3.81914200   -3.50280700    3.25913200
 C                 -2.18816300    1.50522400   -0.20722200
 C                 -3.05372200    1.79895200    0.85151600
 C                 -1.61163700    2.54379300   -0.93355400
 C                 -3.37383600    3.11807400    1.16490000
 H                 -3.47946600    0.98905200    1.44157600
 C                 -1.87110500    3.87630800   -0.60281800
 H                 -0.91791800    2.30273300   -1.73855500
 C                 -2.76012500    4.14335700    0.43821400
 C                 -4.38468400    3.42284000    2.24224900
 C                 -1.16159200    4.98690400   -1.33234400
 H                 -2.97979500    5.17867800    0.69452800
 C                 -3.38611500   -0.99190400   -0.99961200
 C                 -4.57503100   -0.26329400   -1.02346300
 C                 -3.42231000   -2.33949300   -1.38819200
 C                 -5.78437400   -0.86153200   -1.39772700
 H                 -4.57887100    0.79092300   -0.76745900
 C                 -4.61355000   -2.96275700   -1.74628900
 H                 -2.50478900   -2.91686500   -1.42502600
 C                 -5.79065100   -2.20806500   -1.74436800
 C                 -7.04702500   -0.03767100   -1.44023800
 C                 -4.63408700   -4.42138000   -2.12759300
 H                 -6.72720900   -2.68108300   -2.03470000
 H                 -1.05513800   -0.23609100   -3.30655000
 O                  1.02948600   -0.08743900    3.74212000
 O                 -1.18337000    1.86697900    3.31952900
 Rh                -0.06510300   -0.74011900   -2.14736900
 C                 -0.18076200   -2.65496200   -2.16392000
 O                 -0.23997500   -3.80178700   -2.27125700
 C                  1.55204600   -0.66189500    4.91647300
 H                  2.09067900   -1.59184300    4.69646100
 H                  2.24808400    0.07104100    5.32605400
 H                  0.75956800   -0.86224000    5.64851400
 C                 -1.59536600    2.86476900    4.22235900
 H                 -0.75137400    3.23490100    4.81767300
 H                 -2.06426700    3.70699100    3.69791400
 H                 -2.32727600    2.39538600    4.88053300
 H                 -7.16016300    0.55878100   -0.52965500
 H                 -7.93138700   -0.67153900   -1.54447200
 H                 -7.03152900    0.65815500   -2.28606300
 H                 -5.25234700   -4.58881900   -3.01457500
 H                 -5.04951400   -5.03261300   -1.31869200
 H                 -3.62570000   -4.78649000   -2.33983700
 H                 -4.21617800    4.40878200    2.68603500
 H                 -4.34831500    2.67364000    3.03883800
 H                 -5.40143600    3.41810300    1.83308500
 H                 -1.17651700    4.82412700   -2.41446000
 H                 -0.11153000    5.03067600   -1.01962500
 H                 -1.61691300    5.95911900   -1.12586500
 H                  6.76184700   -0.85207100   -1.92134900
 H                  7.21764100    0.15591100   -3.30870700
 H                  6.15210600   -1.24588500   -3.53765400
 H                  3.84627400    3.30947800   -5.21462800
 H                  4.04690600    4.36508000   -3.81455300
 H                  2.44349500    3.74132800   -4.22284700
 H                  2.70155000   -5.36627100    2.18832300
 H                  1.98962900   -5.15355900    0.57676100
 H                  1.03935100   -4.77615500    2.01456400
 H                  4.75977800   -1.56867200    4.47095200
 H                  4.64231700    0.06344700    3.78602400
 H                  5.85230800   -1.06997600    3.17709200
 C                  0.23833100    0.36376000   -4.08395100
 C                  1.23549100   -0.63588100   -3.82861700
 C                  1.32360200   -1.83996800   -4.72300200
 O                  2.11557700   -1.52777500   -5.89627500
 C                  3.44196500   -1.50270200   -5.70742000
 C                  4.15843900   -1.01662400   -6.94194000
 O                  3.98694700   -1.80863200   -4.67267600
 H                 -0.40039500    0.23649500   -4.95789500
 H                  0.46320500    1.40622400   -3.87659700
 H                  2.21115800   -0.29998900   -3.49537800
 H                  0.34513200   -2.12914900   -5.11412600
 H                  1.78656600   -2.68886200   -4.21564800
 H                  4.03030000    0.06782300   -7.01472200
 H                  3.72996200   -1.46604700   -7.83941500
 H                  5.21951000   -1.24950100   -6.86058000

