101

 C                 -2.06426600   -1.60961400    2.06393200
 C                 -1.37615500   -0.67705800    1.28026800
 C                 -0.45456500    0.20158400    1.88695800
 C                 -0.30184000    0.14051400    3.28210100
 C                 -0.97108900   -0.80280800    4.05300700
 C                 -1.85227400   -1.68138900    3.43578100
 H                 -2.77862600   -2.28175300    1.60249100
 H                 -0.79729100   -0.84658400    5.12308400
 H                 -2.38499500   -2.41871400    4.02764100
 C                  0.27208700    1.27919000    1.13764200
 C                 -0.15831200    2.60048900    1.39522400
 C                  1.32883000    1.07727300    0.22783200
 C                  0.40964600    3.68897300    0.73745900
 C                  1.89760400    2.18467500   -0.41990700
 C                  1.43435500    3.46865600   -0.17496800
 H                  0.05876500    4.69651100    0.92235800
 H                  2.71207300    2.04591100   -1.12042700
 H                  1.88122500    4.31216700   -0.69189100
 P                 -1.56927100   -0.65722400   -0.56187300
 P                  1.92112300   -0.61227800   -0.27804300
 C                  3.50394900   -0.21625800   -1.14305400
 C                  4.68698600   -0.05344400   -0.42116300
 C                  3.49236700   -0.02523800   -2.52506000
 C                  5.85852000    0.29659000   -1.09743900
 H                  4.70347800   -0.18998800    0.65691300
 C                  4.67513900    0.32209900   -3.19034200
 H                  2.57269100   -0.13077900   -3.09256800
 C                  5.86092600    0.48473600   -2.47651100
 O                  7.04042200    0.46843900   -0.44848200
 O                  4.71932600    0.51614300   -4.52724600
 H                  6.77822100    0.74574300   -2.99165400
 C                  2.54384400   -1.35048600    1.28239200
 C                  2.96923600   -2.68173600    1.27770100
 C                  2.56863500   -0.61497300    2.45829200
 C                  3.38304300   -3.26904900    2.47369800
 H                  2.97236300   -3.25856500    0.35567500
 C                  2.90613800   -1.24059100    3.66245100
 H                  2.28581500    0.43045900    2.46970500
 C                  3.33548300   -2.56182900    3.67666800
 O                  3.81790200   -4.55587200    2.53579900
 O                  2.80312500   -0.56482500    4.83600100
 H                  3.59895600   -3.05032300    4.60761600
 C                 -2.00747800    1.11110300   -0.84272900
 C                 -2.94866800    1.76859900   -0.05117200
 C                 -1.32192200    1.79508400   -1.84718700
 C                 -3.21053300    3.11842000   -0.28549600
 H                 -3.47148400    1.26095100    0.75370500
 C                 -1.56747300    3.15359400   -2.04288800
 H                 -0.56333400    1.27955300   -2.43337600
 C                 -2.51924200    3.81907600   -1.27176400
 O                 -4.14245500    3.72058900    0.50588700
 O                 -0.89393700    3.89077800   -2.96398200
 H                 -2.69439400    4.87723300   -1.44441800
 C                 -3.16594600   -1.53630000   -0.86331300
 C                 -4.33331200   -0.87992300   -1.25356200
 C                 -3.14562800   -2.93461900   -0.78786000
 C                 -5.47890400   -1.62441900   -1.54459200
 H                 -4.38708300    0.19753800   -1.34517700
 C                 -4.30054200   -3.66150600   -1.06307700
 H                 -2.23941400   -3.47480500   -0.53300700
 C                 -5.47605800   -3.01304700   -1.44452500
 O                 -6.58451700   -0.92991100   -1.92285800
 O                 -4.22522100   -5.01462800   -0.95962000
 H                 -6.37204100   -3.58620500   -1.67321000
 H                  0.62247300   -0.76205900   -2.73824400
 O                  0.55532500    1.04419700    3.87876200
 O                 -1.16370800    2.72675600    2.29890600
 Rh                 0.33433800   -1.80735800   -1.49510300
 C                  0.44880900   -3.44734900   -0.54633100
 O                  0.46570000   -4.46130900    0.00103400
 C                  0.00572800    1.76019900    4.98220000
 H                  0.01990300    1.15681700    5.89606800
 H                  0.63832600    2.63847900    5.12192800
 H                 -1.01730000    2.07128900    4.75684600
 C                 -1.62164500    4.02867900    2.59955800
 H                 -0.82333700    4.63395500    3.04606500
 H                 -2.00707800    4.52951100    1.70526600
 H                 -2.43484700    3.90271500    3.31429500
 H                 -7.31020900   -1.54553000   -2.10210100
 H                 -5.08213300   -5.40697000   -1.18218200
 H                 -4.28548000    4.62856300    0.19965700
 H                 -0.22763800    3.33096800   -3.39028800
 H                  3.86824700    0.25602900   -4.92789900
 H                  6.91403000    0.29303800    0.49587400
 H                  3.72477600   -4.96594900    1.66309600
 H                  2.22824400    0.20400400    4.66374000
 C                 -0.66488100   -2.72145500   -3.14655700
 C                  0.39633400   -1.96718400   -3.74152900
 C                  1.68244100   -2.66000600   -4.13018000
 O                  1.78054200   -2.77705400   -5.57250700
 C                  2.17226200   -1.67876800   -6.21105800
 C                  2.28028200   -1.89281600   -7.69412200
 O                  2.40850800   -0.62711900   -5.64328500
 H                 -0.55126700   -3.80173800   -3.09678900
 H                 -1.68960100   -2.38154300   -3.27423200
 H                  0.12419300   -1.16035200   -4.42244000
 H                  1.68788900   -3.68549600   -3.75701100
 H                  2.57356500   -2.14222700   -3.77534500
 H                  1.32286200   -2.24618200   -8.08423500
 H                  3.02639600   -2.66549000   -7.89599600
 H                  2.56574300   -0.96067900   -8.17843200

