109

 C                 -2.14345600   -2.02617100    0.78408100
 C                 -1.41886600   -0.85752800    0.70634500
 C                 -0.31929100   -0.65993200    1.61288700
 C                 -0.05827300   -1.61230700    2.56991100
 H                 -2.98644700   -2.19512400    0.12036500
 C                  0.55454800    0.55669700    1.60395600
 C                  0.41136700    1.43897800    2.64982000
 C                  1.54510800    0.82301200    0.59491200
 C                  2.29163800    1.97638900    0.68100600
 H                  3.05661500    2.19283000   -0.05910900
 P                 -1.73103800    0.38592600   -0.62762200
 P                  1.68194300   -0.28927700   -0.88026800
 C                  3.35714600    0.06920500   -1.57220000
 C                  4.43495500   -0.81425400   -1.47597200
 C                  3.52239500    1.25034400   -2.31317300
 C                  5.65607800   -0.51505900   -2.07843800
 H                  4.33184800   -1.75296000   -0.94430500
 C                  4.74147300    1.56239000   -2.89640300
 H                  2.67939800    1.92288900   -2.44227600
 C                  5.81000200    0.67464200   -2.77646700
 H                  6.48358100   -1.21245600   -2.00765700
 H                  4.86068000    2.47993500   -3.46406300
 C                  7.13200900    1.04178700   -3.38721000
 C                  1.91853600   -1.91517300   -0.04571300
 C                  1.12535900   -3.00473700   -0.39925800
 C                  2.81865500   -2.04093900    1.02309200
 C                  1.22177100   -4.20921300    0.29861300
 H                  0.40119200   -2.90993500   -1.20085000
 C                  2.92630600   -3.23882700    1.71430900
 H                  3.41926100   -1.18646900    1.32680800
 C                  2.12069400   -4.31965900    1.34999100
 H                  0.57906100   -5.04469100    0.04285200
 H                  3.61644900   -3.33505000    2.54713300
 C                  2.25882500   -5.60712700    2.11222300
 C                 -1.94348500    1.90694000    0.39838300
 C                 -2.69597600    1.90334000    1.58148700
 C                 -1.23486400    3.05505500    0.04636500
 C                 -2.73080400    3.02722300    2.39523400
 H                 -3.23259200    1.00429800    1.87625000
 C                 -1.25702200    4.18477900    0.86394700
 H                 -0.62347000    3.04807700   -0.85224000
 C                 -2.00162400    4.16262500    2.03534800
 H                 -3.30233800    3.02267300    3.31868200
 H                 -0.67325900    5.06272000    0.60896600
 C                 -2.04931900    5.36314400    2.93712300
 C                 -3.45145800    0.01226700   -1.17381400
 C                 -4.54357700    0.84247500   -0.90682600
 C                 -3.63549600   -1.08795100   -2.02653400
 C                 -5.79234100    0.57222600   -1.46236700
 H                 -4.42699300    1.71960100   -0.28015000
 C                 -4.88181800   -1.37165400   -2.56744600
 H                 -2.78498700   -1.70937200   -2.29422600
 C                 -5.96068900   -0.53546600   -2.28395000
 H                 -6.63143800    1.23053400   -1.26363800
 H                 -5.01055900   -2.21750700   -3.23448600
 C                 -7.31776300   -0.85998100   -2.83996900
 H                  0.47422800    1.69465200   -2.20188000
 C                 -0.24429800   -1.55214000   -3.18225400
 O                 -0.38028300   -2.56287800   -3.71394400
 Rh                -0.05609200    0.15704600   -2.35872100
 H                 -0.32979700    1.22671700    3.41684000
 H                  0.76310100   -1.44883700    3.26388100
 C                 -1.81660300   -3.05564400    1.70433900
 C                 -2.49038500   -4.30603800    1.71024900
 C                 -0.76487900   -2.83726900    2.63022200
 C                 -2.10975200   -5.29632800    2.57964600
 H                 -3.29981800   -4.46871400    1.00351200
 C                 -0.40638700   -3.86929600    3.53480000
 C                 -1.05311800   -5.07757800    3.49945600
 H                 -2.61566100   -6.25633600    2.56558500
 H                  0.41412500   -3.69898000    4.22601600
 H                 -0.75068800   -5.87554700    4.16989600
 C                  2.77973600    4.17239300    1.73829200
 C                  2.51060900    5.09561300    2.71616700
 C                  1.55091700    4.81728800    3.72244400
 C                  0.88975800    3.61652400    3.73426800
 C                  1.13438500    2.65322400    2.72170900
 C                  2.08597000    2.93329700    1.70834700
 H                  3.51442800    4.38105700    0.96504000
 H                  3.03100200    6.04792600    2.72308000
 H                  1.33577200    5.56333900    4.48064500
 H                  0.14407600    3.40053900    4.49386700
 F                 -8.07722800    0.23697600   -2.96745500
 F                 -7.98361500   -1.70787600   -2.03990000
 F                 -7.23366900   -1.44215700   -4.04282200
 F                 -1.11838000    6.27168100    2.62415100
 F                 -1.86283300    5.01854700    4.22390700
 F                 -3.24254700    5.97316400    2.87616000
 F                  7.77643200    1.95319300   -2.64191200
 F                  6.97628900    1.57882100   -4.60584800
 F                  7.94121900   -0.01772900   -3.50767600
 F                  2.27699400   -5.39234200    3.43977700
 F                  3.40909300   -6.22923600    1.81208900
 F                  1.26232200   -6.46108500    1.85434400
 C                  0.16603100    1.87103300   -3.82403300
 C                 -0.99599500    1.09024600   -4.06905700
 C                 -2.34992400    1.70644800   -3.84647200
 O                 -2.72044300    2.57207900   -4.94064600
 C                 -3.16375700    1.94362300   -6.04454700
 C                 -3.53461600    2.93435200   -7.11758900
 O                 -3.24723600    0.74422100   -6.14306900
 H                  0.02855400    2.91629000   -3.54722500
 H                  1.07607700    1.67901400   -4.38409200
 H                 -0.95686300    0.37246600   -4.88418700
 H                 -2.34259600    2.36103800   -2.96906000
 H                 -3.12485500    0.94645900   -3.72998200
 H                 -2.65923000    3.53226000   -7.38365700
 H                 -4.30009400    3.61767200   -6.74186200
 H                 -3.90289900    2.39882200   -7.99105300

