109

 C                 -2.33597000   -2.22351200    1.00386900
 C                 -1.65927700   -1.03182700    0.87171800
 C                 -0.48468300   -0.80344000    1.67326600
 C                 -0.09273200   -1.77000500    2.57111700
 H                 -3.23463400   -2.41269400    0.42410500
 C                  0.33186100    0.45549000    1.64754200
 C                  0.21830900    1.28703500    2.73695800
 C                  1.25272400    0.79971500    0.59618000
 C                  1.97580900    1.96678500    0.70313700
 H                  2.70487400    2.23490100   -0.05481300
 P                 -2.10773600    0.15701600   -0.47423100
 P                  1.32603400   -0.27368400   -0.91017700
 C                  2.86976100    0.25192600   -1.76032100
 C                  3.96135700   -0.59667700   -1.96472100
 C                  2.88056100    1.51535600   -2.37029400
 C                  5.04344500   -0.18482000   -2.74003500
 H                  3.97157600   -1.58928900   -1.52729500
 C                  3.96149500    1.93806800   -3.13050000
 H                  2.02160200    2.16986700   -2.24432900
 C                  5.04525400    1.08059100   -3.31473100
 H                  5.88305100   -0.85251500   -2.90221500
 H                  3.95856800    2.91772500   -3.59776500
 C                  6.23592500    1.54993000   -4.10011600
 C                  1.83900400   -1.85483300   -0.10037400
 C                  1.13725600   -3.02933400   -0.36404000
 C                  2.84247700   -1.86206800    0.87949300
 C                  1.40304600   -4.19375300    0.35657000
 H                  0.34922000   -3.02967900   -1.10842700
 C                  3.11903100   -3.01926300    1.59332900
 H                  3.38618600   -0.94677100    1.10151800
 C                  2.38536000   -4.17971700    1.33689000
 H                  0.82458700   -5.09399700    0.17865400
 H                  3.88480700   -3.02293300    2.36338800
 C                  2.69120900   -5.41142300    2.13998300
 C                 -2.12804900    1.74677800    0.45830200
 C                 -2.79330700    1.82983600    1.69061400
 C                 -1.41793300    2.85124500   -0.00612600
 C                 -2.75585000    3.00014800    2.43419800
 H                 -3.32782700    0.96378100    2.07462800
 C                 -1.36243600    4.02602600    0.74456300
 H                 -0.87478400    2.77984400   -0.94416700
 C                 -2.03324900    4.09551000    1.95803400
 H                 -3.26453000    3.06211500    3.39128700
 H                 -0.78155800    4.87370800    0.39722800
 C                 -2.01796500    5.36163300    2.76706400
 C                 -3.90902800   -0.12456400   -0.79705600
 C                 -4.89473300    0.80787500   -0.46103000
 C                 -4.29463700   -1.27473500   -1.50420100
 C                 -6.23144400    0.58373300   -0.78671700
 H                 -4.63326300    1.72900800    0.04527700
 C                 -5.62574200   -1.51145600   -1.81363500
 H                 -3.54861600   -1.99050700   -1.83067500
 C                 -6.59592300   -0.57895400   -1.45010700
 H                 -6.98489300    1.31936400   -0.52770000
 H                 -5.90991600   -2.40712300   -2.35713500
 C                 -8.03419700   -0.86861600   -1.77043800
 H                 -0.62824400    1.43710800   -2.56429800
 C                 -1.22290600   -1.96147600   -2.66941400
 O                 -1.52226700   -3.03369600   -2.96442500
 Rh                -0.66091900   -0.18156900   -2.28121300
 H                 -0.46762500    1.01415100    3.53570100
 H                  0.78882200   -1.59055900    3.18231200
 C                 -1.88932900   -3.25459900    1.87054900
 C                 -2.52983000   -4.52055100    1.93317100
 C                 -0.74707800   -3.02050400    2.67670500
 C                 -2.03218000   -5.51083100    2.74116000
 H                 -3.40888200   -4.69490800    1.31846100
 C                 -0.26121400   -4.05618100    3.51580800
 C                 -0.88169400   -5.27860300    3.53680100
 H                 -2.51612600   -6.48170200    2.77193400
 H                  0.62904400   -3.87457200    4.11086500
 H                 -0.48874700   -6.07654500    4.15861600
 C                  2.46049400    4.12624600    1.83214000
 C                  2.21642700    4.99947300    2.86115300
 C                  1.31432300    4.65234900    3.89803000
 C                  0.68364400    3.43503700    3.88785100
 C                  0.90486200    2.52185200    2.82530500
 C                  1.79793700    2.87108100    1.78142000
 H                  3.15019100    4.38795600    1.03390400
 H                  2.71067800    5.96534700    2.88423200
 H                  1.11511600    5.36104200    4.69535300
 H                 -0.02048400    3.16848100    4.67130600
 F                 -8.81056700    0.21202600   -1.62300600
 F                 -8.52657800   -1.82707300   -0.97008500
 F                 -8.17647300   -1.30616400   -3.02961600
 F                 -1.00542700    6.16765400    2.42692400
 F                 -1.91225100    5.10541500    4.08207900
 F                 -3.15335300    6.05781300    2.60298500
 F                  7.10763000    2.20943500   -3.32136900
 F                  5.87922000    2.38900600   -5.08295900
 F                  6.90002000    0.52767900   -4.65540500
 F                  2.73296300   -5.13802500    3.45731800
 F                  3.89085300   -5.91940000    1.82032200
 F                  1.78415600   -6.37747800    1.95876100
 C                  0.17244300   -0.03800100   -4.25357600
 C                 -0.66437900    1.11354800   -4.13546000
 C                 -0.08722600    2.49795200   -4.36062800
 O                  0.02562400    2.75419900   -5.76704400
 C                 -1.11618000    3.11480100   -6.38767600
 C                 -0.87920500    3.34360000   -7.85670900
 O                 -2.17345200    3.23047600   -5.82013800
 H                  1.25181500    0.11225500   -4.27363000
 H                 -0.18061200   -0.87305700   -4.85041600
 H                 -1.68924700    1.03921400   -4.48951400
 H                  0.93539000    2.56114300   -3.98776500
 H                 -0.70762700    3.27612000   -3.90834800
 H                 -0.54069600    2.41325100   -8.32010300
 H                 -0.09107800    4.08744600   -7.99530100
 H                 -1.80409300    3.67885600   -8.32302200

