113

 C                 -2.25207600   -1.79933800    0.84797900
 C                 -1.44483900   -0.70119800    0.65314500
 C                 -0.32878800   -0.49177300    1.53747300
 C                 -0.12164100   -1.36937400    2.57596500
 H                 -3.11039600   -1.96778100    0.20372700
 C                  0.61124900    0.67270000    1.43313000
 C                  0.51968200    1.63493100    2.41296700
 C                  1.61748400    0.80804800    0.41281200
 C                  2.44329600    1.90860000    0.43226400
 H                  3.22304000    2.02098000   -0.31570700
 P                 -1.69504900    0.43977000   -0.78167000
 P                  1.69910200   -0.41169600   -0.98118100
 C                  3.38540300   -0.17860300   -1.68825900
 C                  4.43521300   -1.08578800   -1.50281400
 C                  3.60727500    0.92196700   -2.52690500
 C                  5.66986200   -0.88130900   -2.10779700
 H                  4.28911000   -1.97469800   -0.89950800
 C                  4.84814100    1.13435300   -3.11220800
 H                  2.79355100    1.61350400   -2.72757200
 C                  5.90767300    0.24200600   -2.90662900
 H                  6.45361300   -1.61950100   -1.96739700
 H                  4.99977400    2.00203400   -3.74929100
 C                  7.20896600    0.50814000   -3.54367300
 C                  1.84869100   -1.97145600   -0.02253500
 C                  0.98478900   -3.03750100   -0.26568800
 C                  2.73713200   -2.05738700    1.06036000
 C                  1.00421300   -4.16190500    0.55611600
 H                  0.26351700   -2.97717800   -1.07386200
 C                  2.76255200   -3.18205800    1.86967700
 H                  3.39041500   -1.21735600    1.28737500
 C                  1.89129300   -4.25640800    1.63119000
 H                  0.30010400   -4.97013500    0.37532600
 H                  3.44033000   -3.21231400    2.71773700
 C                  1.85078900   -5.45248300    2.49075200
 C                 -1.83564800    2.03640900    0.12587100
 C                 -2.58353400    2.15304400    1.30687800
 C                 -1.05906300    3.11976600   -0.28313000
 C                 -2.54217100    3.31612700    2.06030900
 H                 -3.17303900    1.30672100    1.65358800
 C                 -1.01125800    4.28417100    0.47899200
 H                 -0.44752800    3.02935900   -1.17753400
 C                 -1.74566900    4.40152500    1.66216700
 H                 -3.10728200    3.37025700    2.98623400
 H                 -0.36891500    5.10499200    0.16948200
 C                 -1.62415800    5.63476600    2.45943600
 C                 -3.42289200    0.09519200   -1.30985900
 C                 -4.48633100    0.98260000   -1.11060000
 C                 -3.65299000   -1.04929100   -2.08671800
 C                 -5.73945200    0.72612200   -1.65600900
 H                 -4.33468900    1.89830800   -0.54896000
 C                 -4.90985200   -1.31097900   -2.61439700
 H                 -2.83022200   -1.72583800   -2.30481100
 C                 -5.97967900   -0.43073900   -2.40497500
 H                 -6.53532200    1.45103200   -1.51373100
 H                 -5.06291300   -2.20210900   -3.21721300
 C                 -7.29511400   -0.74269700   -2.99000400
 H                  0.56817700    1.53148900   -2.42654000
 C                 -0.26959700   -1.74275500   -3.18648700
 O                 -0.43556600   -2.78352000   -3.64932500
 Rh                -0.02672100    0.01062200   -2.48293700
 H                 -0.23912100    1.52714300    3.18431600
 H                  0.71721500   -1.20133000    3.24735000
 C                 -2.00206200   -2.74768100    1.87376600
 C                 -2.79050500   -3.91847500    2.02824500
 C                 -0.92065000   -2.52366300    2.76351300
 C                 -2.50090200   -4.82847200    3.01331800
 H                 -3.62056700   -4.08366100    1.34637600
 C                 -0.64620400   -3.47648400    3.77792400
 C                 -1.41507400   -4.60614600    3.89703700
 H                 -3.10329000   -5.72517200    3.11990200
 H                  0.19954400   -3.30867200    4.43989700
 H                 -1.19058300   -5.33809000    4.66672000
 C                  3.11564300    4.10590100    1.37658300
 C                  2.93463300    5.09540100    2.30907400
 C                  1.94618500    4.95809100    3.31626200
 C                  1.16663300    3.83108800    3.37242600
 C                  1.33086200    2.79523900    2.41647600
 C                  2.31100900    2.93611000    1.40170000
 H                  3.87019700    4.20534400    0.60062500
 H                  3.54802000    5.99045400    2.27930500
 H                  1.80640600    5.75242300    4.04295300
 H                  0.39519700    3.72704700    4.13114400
 C                 -8.45771600   -0.18282800   -2.65306200
 H                 -7.28735800   -1.51758000   -3.75495700
 H                 -8.53526900    0.57349600   -1.87743900
 H                 -9.38076500   -0.47548500   -3.14119200
 C                 -2.37251800    5.97859700    3.50904600
 H                 -0.83537600    6.31122000    2.13347300
 H                 -3.18512700    5.35841100    3.87563200
 H                 -2.20046200    6.91164000    4.03427300
 C                  8.36798500   -0.07815400   -3.24127000
 H                  7.19511200    1.27277300   -4.31899600
 H                  8.45433900   -0.82684100   -2.45933500
 H                  9.27985900    0.18367000   -3.76646400
 C                  2.75588600   -5.79787600    3.40783800
 H                  0.98775400   -6.09768900    2.33377700
 H                  3.64830800   -5.20878600    3.59770900
 H                  2.63711200   -6.70124800    3.99594800
 C                  0.26128100    1.60907700   -4.05685200
 C                 -0.93726800    0.86660200   -4.24718500
 C                 -2.25903900    1.56076600   -4.06883500
 O                 -2.57451500    2.39356500   -5.20903100
 C                 -3.03915000    1.74369100   -6.28818500
 C                 -3.33546900    2.70647200   -7.41042900
 O                 -3.19395200    0.54808500   -6.34016300
 H                  0.17142800    2.67587100   -3.85169800
 H                  1.15789000    1.34104500   -4.60728500
 H                 -0.93396700    0.09592100   -5.01358600
 H                 -2.22638800    2.25774200   -3.22560100
 H                 -3.07506600    0.85024200   -3.92436100
 H                 -2.41858600    3.22782800   -7.69735300
 H                 -4.05231200    3.45936000   -7.07387600
 H                 -3.73562200    2.15718100   -8.26115800
