105

 C                 -2.27929600   -1.74824900    0.72668600
 C                 -1.44318700   -0.66240800    0.59344500
 C                 -0.34666100   -0.51121600    1.51332500
 C                 -0.19801500   -1.42099600    2.53457800
 H                 -3.12168100   -1.87758100    0.05334500
 C                  0.63774300    0.61796700    1.45734500
 C                  0.57123200    1.55316800    2.46514900
 C                  1.65819400    0.74778600    0.45052200
 C                  2.51236400    1.82595200    0.50171800
 H                  3.30166100    1.93682500   -0.23623900
 P                 -1.62582200    0.52415600   -0.81435500
 P                  1.71868800   -0.44190800   -0.97014500
 C                  3.43057000   -0.26667000   -1.64155500
 C                  4.43124100   -1.23082900   -1.45854500
 C                  3.70634700    0.84948600   -2.44543000
 C                  5.68197700   -1.06927900   -2.04259100
 H                  4.23483500   -2.11929600   -0.86957700
 C                  4.96262500    1.02071400   -3.01215500
 H                  2.92430000    1.57954300   -2.63324700
 C                  5.95495600    0.06059100   -2.81296300
 H                  6.46298200   -1.81198300   -1.91179700
 H                  5.17094000    1.89451600   -3.62543000
 C                  7.29347000    0.23425600   -3.42963400
 C                  1.78668700   -2.03429300   -0.04645700
 C                  0.89227200   -3.05623900   -0.36103400
 C                  2.64102400   -2.17809800    1.06018000
 C                  0.83530700   -4.20413400    0.42796800
 H                  0.20856100   -2.94084200   -1.19455500
 C                  2.58813500   -3.32041200    1.84268100
 H                  3.32260100   -1.37147600    1.32161200
 C                  1.67258900   -4.33182700    1.53133100
 H                  0.10933700   -4.98333100    0.20663100
 H                  3.22465800   -3.44286100    2.71392600
 C                  1.54201100   -5.51286000    2.42179300
 C                 -1.70873600    2.11017000    0.12727600
 C                 -2.44910900    2.23063100    1.31474200
 C                 -0.89057000    3.16386500   -0.28162700
 C                 -2.34315200    3.37324700    2.09283100
 H                 -3.07578800    1.40396300    1.64252700
 C                 -0.78198000    4.31293900    0.49881600
 H                 -0.29704500    3.05651800   -1.18565100
 C                 -1.49369500    4.41027400    1.69084300
 H                 -2.88450800    3.47634900    3.02868700
 H                 -0.10958100    5.11581100    0.20430500
 C                 -1.29237100    5.58794900    2.57155600
 C                 -3.36204900    0.26868800   -1.37486900
 C                 -4.38768400    1.19821300   -1.15625900
 C                 -3.61754000   -0.84603000   -2.18869800
 C                 -5.63951400    1.01320100   -1.73108200
 H                 -4.20632200    2.08018000   -0.55162300
 C                 -4.87287300   -1.03829900   -2.75032100
 H                 -2.81567500   -1.54532600   -2.41058400
 C                 -5.88666900   -0.10548700   -2.52710300
 H                 -6.44012900    1.73057200   -1.57882500
 H                 -5.05881700   -1.89944900   -3.38753900
 C                 -7.22045500   -0.29250500   -3.14969000
 H                  0.70662400    1.56589600   -2.42653300
 C                 -0.26538200   -1.65433800   -3.25251500
 O                 -0.47494300   -2.67236300   -3.74512700
 Rh                 0.04699600    0.07235500   -2.50413700
 H                 -0.19276800    1.44441500    3.23119500
 H                  0.62199200   -1.29289500    3.23734600
 C                 -2.07647100   -2.73870900    1.72230300
 C                 -2.87781600   -3.90926600    1.79684200
 C                 -1.02666500   -2.56242300    2.65930800
 C                 -2.62674900   -4.86483900    2.74831100
 H                 -3.68443600   -4.03836000    1.08001600
 C                 -0.79826300   -3.55737900    3.64518400
 C                 -1.57436800   -4.68805100    3.68272500
 H                 -3.23579500   -5.76211200    2.79237300
 H                  0.02119200   -3.42479200    4.34731000
 H                 -1.38203000   -5.45404700    4.42744000
 C                  3.21998300    3.99266200    1.49172400
 C                  3.05102100    4.96686100    2.44216900
 C                  2.06127400    4.82382200    3.44831700
 C                  1.26657600    3.70635500    3.48380400
 C                  1.41299000    2.69031700    2.50323200
 C                  2.39678100    2.83497500    1.49257300
 H                  3.97814500    4.09607400    0.71986500
 H                  3.67693800    5.85343900    2.43018000
 H                  1.93376200    5.60446400    4.19175200
 H                  0.49643200    3.59791700    4.24360500
 O                 -8.14654800    0.46881600   -3.00088000
 H                 -7.32208800   -1.20016700   -3.77982700
 O                 -1.79514800    5.70719600    3.66410100
 H                 -0.61867300    6.36912900    2.16261200
 O                  8.20280200   -0.54981500   -3.30062300
 H                  7.41602200    1.15675600   -4.03483800
 O                  2.17160900   -5.65915600    3.44291900
 H                  0.79944200   -6.26838600    2.09225700
 C                  0.42975100    1.67573300   -4.05477000
 C                 -0.79839000    0.99083200   -4.26871100
 C                 -2.09146100    1.73930500   -4.09561500
 O                 -2.39323000    2.53716100   -5.26038100
 C                 -2.93180300    1.86347100   -6.29246700
 C                 -3.22217600    2.78684500   -7.44721600
 O                 -3.14886200    0.67652500   -6.27694400
 H                  0.38579000    2.74361100   -3.84044200
 H                  1.32115800    1.37172100   -4.59485700
 H                 -0.82149100    0.22960900   -5.04443000
 H                 -2.01923700    2.46168000   -3.27609200
 H                 -2.92931900    1.06406200   -3.91596100
 H                 -2.29730700    3.26834800   -7.77464600
 H                 -3.90935700    3.57386900   -7.12695200
 H                 -3.65852300    2.21579600   -8.26507700

