105

 C                 -2.34547200   -1.97430600    0.87401700
 C                 -1.66407100   -0.77723100    0.80226800
 C                 -0.53939100   -0.56294700    1.66668800
 C                 -0.23935500   -1.50820500    2.62205900
 H                 -3.17059900   -2.17524700    0.19369000
 C                  0.36872200    0.62423900    1.57709900
 C                  0.31955200    1.54365100    2.59771000
 C                  1.32414300    0.79621700    0.51158000
 C                  2.16102900    1.88894000    0.55019600
 H                  2.91794700    2.03096600   -0.21448100
 P                 -2.03978300    0.38012300   -0.58230500
 P                  1.29212400   -0.36342100   -0.94066000
 C                  2.88280000   -0.03286400   -1.80127300
 C                  3.90051300   -0.98786800   -1.92713700
 C                  3.00709400    1.18236800   -2.49138600
 C                  5.01954200   -0.72493400   -2.70890600
 H                  3.81701100   -1.94178300   -1.41717800
 C                  4.13026300    1.45197000   -3.26144600
 H                  2.20745000    1.91597200   -2.41844200
 C                  5.14087900    0.49554600   -3.37420900
 H                  5.81481800   -1.45629600   -2.81609800
 H                  4.22001900    2.39964100   -3.78828400
 C                  6.33673700    0.77236800   -4.20672600
 C                  1.62830500   -1.95506200   -0.06615000
 C                  0.83390100   -3.06586300   -0.34665400
 C                  2.58844700   -2.03057600    0.95712800
 C                  0.96688000   -4.23134700    0.40680300
 H                  0.08418100   -3.00376500   -1.12838500
 C                  2.71997000   -3.18736400    1.70905600
 H                  3.20496800   -1.16247800    1.18000000
 C                  1.89404800   -4.28591400    1.44221000
 H                  0.31654500   -5.08258300    0.21675500
 H                  3.43613700   -3.25869100    2.52228900
 C                  1.95619000   -5.48938700    2.30820400
 C                 -1.92870900    2.04615500    0.20727200
 C                 -2.66159600    2.34785300    1.36520900
 C                 -1.04131800    2.99006200   -0.30850400
 C                 -2.47676700    3.55695400    2.01654600
 H                 -3.35582600    1.62103400    1.77565300
 C                 -0.85476600    4.20656500    0.34489400
 H                 -0.46735200    2.74904200   -1.19864500
 C                 -1.55928600    4.48437300    1.51228900
 H                 -3.01566600    3.79908300    2.92761400
 H                 -0.13395700    4.92728000   -0.03517900
 C                 -1.28781700    5.73922000    2.25692300
 C                 -3.85820500    0.22329600   -0.83942400
 C                 -4.77896900   -0.04391700    0.18653700
 C                 -4.32391400    0.44786800   -2.13825700
 C                 -6.13840200   -0.07977300   -0.08424000
 H                 -4.42854300   -0.24974400    1.19363200
 C                 -5.68977200    0.42282800   -2.40708500
 H                 -3.60661100    0.63169500   -2.93430400
 C                 -6.59608300    0.15794500   -1.38344000
 H                 -6.86550600   -0.29178300    0.69353300
 H                 -6.05037000    0.60089200   -3.41741700
 C                 -8.05217500    0.11863200   -1.67160100
 H                 -0.49170500    1.36810300   -2.83105500
 C                 -1.61096400   -1.85552100   -2.57691100
 O                 -2.22530900   -2.81769400   -2.71862400
 Rh                -0.68240800   -0.19789900   -2.37253800
 H                 -0.40093900    1.40026400    3.39968700
 H                  0.60790500   -1.33709400    3.28192100
 C                 -1.98783800   -2.98883600    1.79704700
 C                 -2.63279000   -4.25508600    1.81591500
 C                 -0.93367900   -2.73749300    2.71356800
 C                 -2.23496400   -5.22360300    2.70146000
 H                 -3.43736400   -4.44366200    1.11018100
 C                 -0.55416900   -3.75116200    3.63254900
 C                 -1.18517500   -4.96863500    3.62170000
 H                 -2.72521200   -6.19189600    2.70476100
 H                  0.26582300   -3.55819200    4.31976400
 H                 -0.87841700   -5.74522900    4.31548300
 C                  2.85784800    4.06002500    1.53356300
 C                  2.69646800    5.02861700    2.49171600
 C                  1.74951300    4.85630100    3.53316300
 C                  0.98971100    3.71554800    3.59578600
 C                  1.12767100    2.70638000    2.60832700
 C                  2.06728700    2.88048300    1.56113400
 H                  3.58248000    4.18670200    0.73337800
 H                  3.29517200    5.93326500    2.45767300
 H                  1.62221900    5.63493000    4.27852500
 H                  0.25026000    3.58563100    4.38180900
 O                 -8.89700900   -0.11240000   -0.84007400
 H                 -8.32835400    0.32032700   -2.72721400
 O                 -1.80690600    6.02492900    3.31022900
 H                 -0.54530400    6.41379900    1.78226800
 O                  7.25258300   -0.00147700   -4.35209900
 H                  6.34286700    1.76455500   -4.70470900
 O                  2.66418500   -5.58435900    3.28318600
 H                  1.28097800   -6.31719400    2.00747800
 C                  0.24262000   -0.39620300   -4.30005700
 C                 -0.47243500    0.83755400   -4.36589900
 C                  0.24897900    2.12269000   -4.72031900
 O                  0.45115900    2.19357800   -6.13976600
 C                 -0.62524000    2.55572300   -6.86506100
 C                 -0.29796900    2.58563100   -8.33442200
 O                 -1.69868800    2.81515500   -6.38011700
 H                  1.33151100   -0.35752100   -4.27677200
 H                 -0.17082000   -1.26285000   -4.80559600
 H                 -1.48047100    0.81954300   -4.77186900
 H                  1.25454900    2.13521600   -4.29973000
 H                 -0.31080000    3.00516700   -4.39965900
 H                 -0.01294100    1.58320400   -8.66430300
 H                  0.55344300    3.24655500   -8.51309900
 H                 -1.16826700    2.92923300   -8.89101100

