93

 P                 -2.56826300   -0.38957100   -0.16102900
 C                 -2.29424600    1.04428900   -1.28278500
 C                 -3.66777200    0.35207500    1.11499900
 C                 -3.74490200   -1.42522700   -1.12783100
 C                 -3.00833900    2.24027700   -1.19026200
 C                 -2.71705700    3.30418300   -2.04432000
 C                 -1.71612200    3.20230700   -3.00894600
 C                 -1.01434800    1.99597900   -3.10962100
 C                 -1.29518300    0.93792700   -2.25866200
 C                 -3.07240800    1.04188700    2.17770000
 C                 -3.85303000    1.66747200    3.14384000
 C                 -5.24276400    1.60220900    3.06586700
 C                 -5.84442300    0.91295600    2.01705500
 C                 -5.06277700    0.29371000    1.04318700
 C                 -4.42614800   -0.95821100   -2.25516100
 C                 -5.32203000   -1.78776000   -2.92834500
 C                 -5.55225100   -3.08397200   -2.47619000
 C                 -4.88112400   -3.55447400   -1.34856000
 C                 -3.97716800   -2.73236200   -0.68336200
 H                 -3.79048500    2.35345100   -0.44506200
 H                 -3.27418300    4.23303400   -1.94935600
 C                 -1.36903300    4.35708700   -3.91084600
 H                 -0.21698400    1.90020600   -3.84288100
 H                 -0.71533600    0.02102200   -2.32376100
 H                 -1.98832300    1.07774100    2.25435000
 H                 -3.37522600    2.19511100    3.96325800
 H                 -5.85375000    2.08236300    3.82384200
 H                 -6.92663900    0.85505300    1.95305300
 H                 -5.54303800   -0.23513300    0.22529600
 H                 -4.25707300    0.05478100   -2.60927600
 H                 -5.84116600   -1.41743800   -3.80706200
 H                 -6.25049700   -3.72777900   -3.00207800
 H                 -5.05646600   -4.56488600   -0.99195100
 H                 -3.43529600   -3.09495700    0.18786800
 P                  1.35025400   -0.26883600    0.34061800
 C                  2.60848500   -1.10128200   -0.71501400
 C                  2.27026000   -0.06812700    1.92243400
 C                  1.35449100    1.44620300   -0.32568500
 C                  2.23994900   -1.44936700   -2.02305100
 C                  3.12562700   -2.10887800   -2.86484000
 C                  4.40453200   -2.46617900   -2.42334900
 C                  4.76775900   -2.12438400   -1.12155900
 C                  3.88839700   -1.44786000   -0.27664900
 C                  2.96064400    1.09859900    2.26511300
 C                  3.66721300    1.17138000    3.46436700
 C                  3.70883500    0.07571500    4.32252000
 C                  3.03440700   -1.09531400    3.98225500
 C                  2.30897900   -1.16255500    2.79715700
 C                  2.24518500    1.90637400   -1.29834000
 C                  2.16166700    3.21872300   -1.76532300
 C                  1.19988700    4.08531300   -1.25503200
 C                  0.30912200    3.63549300   -0.28015500
 C                  0.38249300    2.32385300    0.17165400
 H                  1.24653900   -1.19162800   -2.38509400
 H                  2.82028800   -2.35889500   -3.87827400
 C                  5.34643300   -3.21883900   -3.32730300
 H                  5.75786000   -2.38751000   -0.75799700
 H                  4.20667300   -1.19177200    0.72933600
 H                  2.94826100    1.95338300    1.59520000
 H                  4.19169400    2.08628400    3.72317400
 H                  4.26591700    0.13387900    5.25260800
 H                  3.06545600   -1.96255600    4.63426300
 H                  1.79065700   -2.08467900    2.54851600
 H                  3.00950600    1.24267300   -1.69176600
 H                  2.85937500    3.56407600   -2.52262500
 H                  1.14109400    5.10848700   -1.61489600
 H                 -0.45492500    4.29968200    0.11173300
 H                 -0.33202000    1.96342800    0.90852300
 Rh                -0.71437900   -1.54946900    0.54668400
 C                 -1.16596400   -1.50714500    2.39177000
 O                 -1.42928200   -1.48124100    3.51080300
 H                 -0.60012700   -1.91711900   -1.04402800
 H                 -0.30885600    4.61450200   -3.81106300
 H                 -1.96044600    5.24425300   -3.67044900
 H                 -1.54642000    4.10583700   -4.96186000
 H                  5.33282700   -2.81052500   -4.34230100
 H                  5.06224300   -4.27475600   -3.39579200
 H                  6.37307200   -3.17463900   -2.95496400
 C                 -0.25275200   -3.48108300   -0.59087800
 C                  0.39201000   -3.43049900    0.66910400
 C                 -0.10646700   -4.26745900    1.81644600
 O                  0.53372300   -5.56393400    1.81620800
 C                  1.77392200   -5.58571200    2.32760100
 C                  2.36430300   -6.97045500    2.26074900
 O                  2.33550900   -4.61399100    2.77685500
 H                 -1.18841900   -4.02469000   -0.70075600
 H                  0.36340300   -3.46282900   -1.48699800
 H                  1.47110400   -3.28115400    0.66525000
 H                 -1.17448700   -4.47439700    1.71673400
 H                  0.08796200   -3.80749800    2.78746100
 H                  2.46532000   -7.27102500    1.21449000
 H                  1.69586700   -7.68472400    2.74702200
 H                  3.33972800   -6.97167200    2.74458800

