129

 C                  2.52450900   -1.87643100   -0.92006900
 C                  1.77127700   -0.72647000   -0.81161300
 C                  0.66470000   -0.53523400   -1.70572000
 C                  0.43360800   -1.46403300   -2.69580800
 H                  3.34363600   -2.05366900   -0.22638600
 C                 -0.30652100    0.60569400   -1.63673700
 C                 -0.27136100    1.53265200   -2.65025600
 C                 -1.33620000    0.68911600   -0.63152500
 C                 -2.27416900    1.69149900   -0.73487000
 H                 -3.08711000    1.75457200   -0.01794100
 P                  2.04552200    0.39691500    0.62851000
 P                 -1.30472500   -0.49314000    0.80430700
 C                 -2.92681000   -0.21326600    1.60631300
 C                 -3.92997900   -1.18057000    1.69195500
 C                 -3.12948300    0.98048100    2.31002900
 C                 -5.08542000   -0.96647200    2.43549300
 H                 -3.80703000   -2.13064500    1.18051400
 C                 -4.28119700    1.21950600    3.04270800
 H                 -2.35733200    1.74759700    2.27981200
 C                 -5.29782900    0.24409800    3.12149400
 H                 -5.82340300   -1.75802000    2.47968900
 H                 -4.37934900    2.16266900    3.56682100
 N                 -6.45726000    0.47369200    3.84457700
 C                 -1.53946100   -2.06814400   -0.10251200
 C                 -0.72932300   -3.16915900    0.18129000
 C                 -2.42625700   -2.17608500   -1.18104800
 C                 -0.77602700   -4.32657300   -0.58273600
 H                 -0.02245300   -3.10879100    1.00279400
 C                 -2.48362000   -3.31995800   -1.96208600
 H                 -3.06803200   -1.33410500   -1.43395300
 C                 -1.64174800   -4.42221400   -1.68959800
 H                 -0.10211300   -5.13912300   -0.33935100
 H                 -3.17847300   -3.35314400   -2.79316100
 N                 -1.65775900   -5.54548400   -2.48482800
 C                  1.84722900    2.06206600   -0.09971100
 C                  2.57816100    2.47535100   -1.21853900
 C                  0.86095700    2.92449200    0.38214600
 C                  2.31492700    3.67733200   -1.85543000
 H                  3.35679900    1.83629500   -1.62584300
 C                  0.58378700    4.13329200   -0.23672200
 H                  0.27029400    2.62142000    1.24269400
 C                  1.29287300    4.53265200   -1.38729000
 H                  2.89936300    3.94758500   -2.72699300
 H                 -0.21219700    4.75182600    0.15972100
 N                  0.99300600    5.70910100   -2.03467300
 C                  3.84008600    0.27180600    0.95945700
 C                  4.82802900    0.15483900   -0.02593000
 C                  4.26400400    0.37472000    2.28782400
 C                  6.17657300    0.14467200    0.29472700
 H                  4.54498300    0.04253200   -1.06934100
 C                  5.60920800    0.37624100    2.62678400
 H                  3.51521200    0.45410700    3.07295300
 C                  6.60300800    0.25382000    1.63572100
 H                  6.90065800    0.04674600   -0.50491700
 H                  5.88110000    0.46648900    3.67115200
 N                  7.94442600    0.22788900    1.96334600
 H                  0.34133100    1.20596800    2.84595300
 C                  1.62068900   -1.94041700    2.48511900
 O                  2.27775400   -2.87898300    2.61186700
 Rh                 0.62329400   -0.32941600    2.32337600
 H                  0.50941800    1.45969000   -3.40372000
 H                 -0.40853100   -1.31686400   -3.36768600
 C                  2.25725900   -2.86591400   -1.89964900
 C                  3.00132900   -4.07301400   -1.98140400
 C                  1.19962000   -2.64648100   -2.81946900
 C                  2.70431000   -5.01195300   -2.93648500
 H                  3.80612600   -4.23943500   -1.27025200
 C                  0.91412200   -3.63257200   -3.79994500
 C                  1.65000600   -4.78774100   -3.85953200
 H                  3.27691700   -5.93284800   -2.99144600
 H                  0.09595100   -3.45546300   -4.49412400
 H                  1.42389200   -5.54120800   -4.60864500
 C                 -3.19154800    3.71171200   -1.85584300
 C                 -3.11730000    4.64562500   -2.85993000
 C                 -2.07558800    4.58212000   -3.81937000
 C                 -1.14028300    3.57958300   -3.75642100
 C                 -1.20254400    2.59711800   -2.73525900
 C                 -2.23424800    2.66753000   -1.76565400
 H                 -3.98603000    3.75679400   -1.11525700
 H                 -3.85533700    5.43958300   -2.92171400
 H                 -2.02226100    5.33046300   -4.60465300
 H                 -0.34083700    3.51672900   -4.49095600
 C                  8.34025500    0.54400100    3.31955500
 H                  8.01517700    1.54799600    3.62934400
 H                  7.92366700   -0.18214300    4.02582700
 H                  9.42708600    0.49311200    3.39381500
 C                  8.92789100    0.32752000    0.90655600
 H                  8.86280200   -0.53083100    0.22869300
 H                  8.81245100    1.24433700    0.30974100
 H                  9.92530100    0.32564700    1.34750900
 C                 -0.13352300    6.49792100   -1.58364000
 H                 -0.25057000    7.35970200   -2.24197800
 H                 -1.06856000    5.92191900   -1.59891800
 H                  0.02980400    6.87025100   -0.56470500
 C                  1.61918500    6.00437900   -3.30268300
 H                  1.21902800    6.94251000   -3.68859000
 H                  2.70502300    6.11974100   -3.19660800
 H                  1.43152500    5.21746300   -4.04736900
 C                 -7.33468100   -0.64665300    4.11272400
 H                 -6.83142500   -1.45824100    4.65986000
 H                 -8.18190600   -0.29994600    4.70580600
 H                 -7.73101700   -1.05871100    3.17912900
 C                 -6.48624900    1.59364000    4.76274700
 H                 -7.44795700    1.60576000    5.27715900
 H                 -5.68557600    1.54455600    5.51615500
 H                 -6.38925700    2.54100700    4.22239200
 C                 -2.45033000   -5.55858000   -3.69156000
 H                 -2.18419400   -4.72736900   -4.35959600
 H                 -2.27443800   -6.49304000   -4.22541300
 H                 -3.52515300   -5.48730600   -3.47735500
 C                 -0.79461700   -6.66056400   -2.16410200
 H                 -1.01693900   -7.05967000   -1.16630000
 H                 -0.95745500   -7.45753500   -2.89086900
 H                  0.26597600   -6.37590000   -2.19276500
 C                 -0.40480100   -0.67946500    4.17167300
 C                  0.25023200    0.57815000    4.34962400
 C                 -0.55437000    1.80408500    4.72681500
 O                 -0.86977800    1.77212900    6.13200500
 C                  0.12072500    2.13354700    6.96466500
 C                 -0.32134000    2.02609100    8.40198900
 O                  1.21288300    2.49193100    6.59800700
 H                 -1.49111200   -0.68293700    4.08172000
 H                  0.01564900   -1.55559800    4.65518700
 H                  1.23031400    0.58066200    4.81974900
 H                 -1.52546500    1.80137600    4.23267000
 H                 -0.01470100    2.72970400    4.51083100
 H                 -0.55103300    0.98265900    8.63350600
 H                 -1.23324000    2.60751500    8.55689500
 H                  0.47406900    2.38628900    9.05252300

