129

 C                  2.33312800   -1.73251500   -1.07678500
 C                  1.43362700   -0.72109800   -0.82662400
 C                  0.27752600   -0.59094500   -1.67349600
 C                  0.11643500   -1.45772800   -2.72830000
 H                  3.22497600   -1.82801900   -0.46301500
 C                 -0.72910600    0.51342500   -1.53527600
 C                 -0.72208500    1.46673500   -2.52803500
 C                 -1.70087400    0.61185000   -0.47769500
 C                 -2.58022100    1.67070000   -0.47926200
 H                 -3.33378400    1.75177700    0.29984500
 P                  1.63316700    0.41573100    0.61634900
 P                 -1.69451600   -0.60396000    0.92623300
 C                 -3.37598000   -0.45994000    1.64737400
 C                 -4.40817400   -1.37366500    1.41766900
 C                 -3.63762100    0.58553500    2.54264300
 C                 -5.64975300   -1.23916200    2.02563700
 H                 -4.24357400   -2.22841400    0.77033300
 C                 -4.87719700    0.74759200    3.14125300
 H                 -2.84243000    1.28557000    2.78642100
 C                 -5.92551200   -0.16131900    2.88836000
 H                 -6.40492600   -1.98933200    1.82566000
 H                 -5.01887800    1.57425700    3.82667000
 N                 -7.17109500   -0.00251400    3.47000600
 C                 -1.73219100   -2.16555600   -0.01869100
 C                 -0.78330000   -3.16286100    0.21493000
 C                 -2.59405600   -2.33493200   -1.11026100
 C                 -0.68500500   -4.28037000   -0.59930200
 H                 -0.07457600   -3.05065000    1.02839200
 C                 -2.51677500   -3.44653900   -1.93376200
 H                 -3.32309300   -1.56115400   -1.34415700
 C                 -1.54240000   -4.44462800   -1.70581900
 H                  0.08995100   -5.00796800   -0.39225800
 H                 -3.19920500   -3.52700000   -2.77170200
 N                 -1.42010800   -5.52784900   -2.54279700
 C                  1.63354500    2.02644800   -0.25376200
 C                  2.32819800    2.23325300   -1.45156500
 C                  0.79460300    3.04971700    0.19211000
 C                  2.17137300    3.39622800   -2.18985500
 H                  2.98484300    1.45258300   -1.83134600
 C                  0.62658000    4.22391300   -0.52718600
 H                  0.22338300    2.90366200    1.10555000
 C                  1.29552400    4.41585000   -1.75237900
 H                  2.72074100    3.50679300   -3.11747400
 H                 -0.06388000    4.97130200   -0.15544600
 N                  1.09009400    5.55063200   -2.50301200
 C                  3.36503000    0.19268300    1.15538600
 C                  4.30615800    1.22368800    1.11060300
 C                  3.68864300   -0.93775000    1.92046700
 C                  5.48862500    1.16157100    1.83678000
 H                  4.09406400    2.12517600    0.54348700
 C                  4.87381600   -1.02479300    2.63077500
 H                  2.96707300   -1.74733100    2.01251000
 C                  5.79164200    0.04809600    2.64221200
 H                  6.15689500    2.01276000    1.80467600
 H                  5.05500900   -1.90920500    3.22854900
 N                  6.93109200    0.00774700    3.42706700
 H                 -0.61597200    1.40023400    2.35981200
 C                  0.36418900   -1.82620000    3.10987400
 O                  0.58894100   -2.84275300    3.60529500
 Rh                 0.04223400   -0.09414000    2.39958100
 H                  0.01529400    1.38986600   -3.32330300
 H                 -0.75186400   -1.34775600   -3.37353800
 C                  2.14874900   -2.66289100   -2.13348800
 C                  3.05849700   -3.72522200   -2.37669200
 C                  1.01947800   -2.51975600   -2.98013500
 C                  2.85135700   -4.60140300   -3.41320200
 H                  3.92391800   -3.83001900   -1.72752200
 C                  0.82528600   -3.44030700   -4.04194600
 C                  1.72140600   -4.45692900   -4.25736200
 H                  3.55433800   -5.40922300   -3.59219400
 H                 -0.04522000   -3.31964400   -4.68262000
 H                  1.56703000   -5.15796800   -5.07248200
 C                 -3.41945300    3.80301600   -1.44640200
 C                 -3.34670700    4.76953100   -2.41808800
 C                 -2.39633100    4.66189900   -3.46552800
 C                 -1.54020100    3.59140600   -3.51347600
 C                 -1.59704400    2.57865700   -2.52093800
 C                 -2.54506400    2.68471700   -1.47192500
 H                 -4.14676500    3.87928200   -0.64222400
 H                 -4.01925100    5.62144000   -2.39060900
 H                 -2.34661800    5.43558800   -4.22628500
 H                 -0.80302800    3.50133600   -4.30795000
 C                  6.94815800   -0.93942900    4.52840400
 H                  6.08967900   -0.79994700    5.19982400
 H                  6.94876300   -1.96786800    4.15486000
 H                  7.86890800   -0.79928800    5.09682300
 C                  7.63384600    1.25787500    3.64842100
 H                  8.03062900    1.64672700    2.70575300
 H                  6.98566400    2.01763900    4.10748100
 H                  8.48316800    1.07084900    4.30754000
 C                  0.18564300    6.57167400   -2.02246300
 H                  0.15312600    7.38748000   -2.74575900
 H                 -0.83380500    6.18338100   -1.89375400
 H                  0.52363000    6.98199100   -1.06215400
 C                  1.69412400    5.66553300   -3.80966900
 H                  1.36526500    6.59496200   -4.27551100
 H                  2.79064200    5.68319100   -3.75345700
 H                  1.40368800    4.83259200   -4.46528700
 C                 -8.11785200   -1.09528100    3.39084200
 H                 -7.73307000   -2.02251800    3.84128800
 H                 -9.03339100   -0.81026600    3.91065500
 H                 -8.38004800   -1.30509800    2.34871500
 C                 -7.31753500    0.95266900    4.54838000
 H                 -8.34942200    0.93422700    4.90118200
 H                 -6.65303400    0.73711400    5.39854200
 H                 -7.10571400    1.96823700    4.19814600
 C                 -2.23023100   -5.60663900   -3.73596200
 H                 -2.07783100   -4.73823000   -4.39249500
 H                 -1.96117500   -6.50509400   -4.29200900
 H                 -3.29960400   -5.66458400   -3.49542300
 C                 -0.36579800   -6.49220800   -2.31160000
 H                 -0.48833500   -6.98774200   -1.34032100
 H                 -0.40666700   -7.25643400   -3.08871200
 H                  0.62675400   -6.02322400   -2.34113400
 C                 -0.21799300    1.49293000    3.98197900
 C                  1.00065700    0.77221200    4.13566100
 C                  2.31400600    1.47017900    3.93524900
 O                  2.63810300    2.21890600    5.13717700
 C                  3.86985600    2.09844900    5.64469400
 C                  4.01319800    2.94315200    6.88765600
 O                  4.75113800    1.41118900    5.18139900
 H                 -0.15007100    2.55879200    3.76545700
 H                 -1.08623600    1.21953500    4.57325000
 H                  1.01988700    0.00027000    4.90279700
 H                  2.25180000    2.19943100    3.11869800
 H                  3.13190700    0.77891100    3.73447100
 H                  3.26808700    2.63943500    7.62704100
 H                  3.82628400    3.99186700    6.64333200
 H                  5.01687400    2.82480500    7.29330500

