105

 C                 -2.70175000   -1.47275900    1.20780300
 C                 -1.77640000   -0.51222800    0.86968400
 C                 -0.57223000   -0.39556800    1.65353000
 C                 -0.39723900   -1.23298800    2.73175500
 H                 -3.62676100   -1.56046400    0.64523800
 C                  0.50954100    0.62537300    1.43217000
 C                  0.61374000    1.62671200    2.37000800
 C                  1.48109700    0.55455200    0.37014400
 C                  2.48806800    1.49165200    0.33189300
 H                  3.25811900    1.43432200   -0.43120400
 P                 -1.99674200    0.51679800   -0.65736800
 P                  1.28410000   -0.71851500   -0.96307700
 C                  2.90488200   -0.71160100   -1.82082200
 C                  3.78999900   -1.79389700   -1.82707300
 C                  3.22057500    0.38483400   -2.63512300
 C                  4.94535900   -1.77445200   -2.60034800
 H                  3.57369400   -2.67364000   -1.22925900
 C                  4.37735100    0.42355500   -3.39753700
 H                  2.53789200    1.23121500   -2.66131300
 C                  5.26030700   -0.66623700   -3.39470100
 H                  5.61691700   -2.62916300   -2.58797500
 H                  4.59898800    1.29393000   -4.01015300
 N                  6.44553500   -0.62212900   -4.12574500
 C                  1.36572200   -2.22705500    0.07881600
 C                  0.35891100   -3.19286200    0.00789400
 C                  2.33611600   -2.35935500    1.08095600
 C                  0.29834500   -4.23813300    0.91917300
 H                 -0.41377900   -3.10499600   -0.74844700
 C                  2.28919800   -3.40318300    1.99308100
 H                  3.12244900   -1.61200900    1.16840700
 C                  1.25107100   -4.34584400    1.93897700
 H                 -0.51357800   -4.95925000    0.86877600
 H                  3.04334600   -3.48153900    2.77260200
 N                  1.18111200   -5.38869300    2.85995500
 C                 -1.69863200    2.17755600    0.05147400
 C                 -2.35096700    2.55989000    1.23256500
 C                 -0.73257300    3.03747800   -0.47250100
 C                 -2.05920600    3.75945300    1.85992000
 H                 -3.08871500    1.89519800    1.67778400
 C                 -0.41959200    4.23612700    0.15653500
 H                 -0.19058700    2.74527500   -1.36812800
 C                 -1.07776500    4.61444600    1.33311500
 H                 -2.56769300    4.03303400    2.78110800
 H                  0.36240600    4.87449900   -0.24702600
 N                 -0.72296300    5.77216100    2.01338600
 C                 -3.81034500    0.52210600   -0.97688600
 C                 -4.61015800    1.65978300   -0.82085900
 C                 -4.42197200   -0.62347400   -1.50829700
 C                 -5.95963200    1.64863200   -1.15185600
 H                 -4.17805200    2.58368300   -0.45356400
 C                 -5.77155600   -0.65125000   -1.82140700
 H                 -3.83432600   -1.51667600   -1.69340600
 C                 -6.56607500    0.49093700   -1.64992400
 H                 -6.55264200    2.55068800   -1.02486900
 H                 -6.21517200   -1.55923500   -2.22140100
 N                 -7.92933300    0.45789400   -1.92803300
 H                 -0.27330300    1.21167200   -2.81402100
 C                 -1.57785700   -1.97184700   -2.61841900
 O                 -2.08997600   -2.98169100   -2.83895000
 Rh                -0.64867900   -0.33084300   -2.37876200
 H                 -0.11834100    1.67319000    3.17277000
 H                  0.51027400   -1.14112100    3.32356200
 C                 -2.49845900   -2.37775600    2.28208400
 C                 -3.42262500   -3.41125000    2.58666200
 C                 -1.32299600   -2.25180400    3.06397300
 C                 -3.17839800   -4.28585000    3.61544600
 H                 -4.32280300   -3.50157000    1.98438300
 C                 -1.09792700   -3.16216500    4.12886400
 C                 -2.00237500   -4.15944600    4.39698600
 H                 -3.88737800   -5.07697100    3.83825600
 H                 -0.19082100   -3.05821800    4.71974900
 H                 -1.82576100   -4.85208500    5.21488000
 C                  3.58189100    3.55099600    1.18467700
 C                  3.61348500    4.58583800    2.08566700
 C                  2.64030300    4.67033000    3.11136300
 C                  1.66394200    3.71247600    3.22018900
 C                  1.61076300    2.63198600    2.30349700
 C                  2.57411800    2.55549200    1.26626100
 H                  4.32274000    3.48109700    0.39228000
 H                  4.38459700    5.34681100    2.01413200
 H                  2.66667000    5.50101400    3.80962600
 H                  0.90352400    3.78084800    3.99345200
 H                 -8.34094200    1.35860200   -2.13516400
 H                 -8.20648200   -0.24267600   -2.60332400
 H                 -1.45932400    6.19818300    2.55995200
 H                 -0.20309400    6.44942700    1.47173800
 H                  6.42274100   -0.00753100   -4.92916900
 H                  6.82746800   -1.52847700   -4.36324400
 H                  1.68215700   -5.21399900    3.72212100
 H                  0.23486000   -5.69890300    3.04771600
 C                  0.20942300   -0.55572500   -4.32479600
 C                 -0.37997800    0.74945700   -4.33890900
 C                  0.46549800    1.95920100   -4.68190600
 O                  0.68340200    2.02316800   -6.10221300
 C                 -0.33204100    2.52157800   -6.83004200
 C                  0.00271300    2.50288000   -8.29942400
 O                 -1.36533900    2.92329000   -6.35543800
 H                  1.29692300   -0.62826900   -4.33101700
 H                 -0.30008900   -1.35303400   -4.85740400
 H                 -1.39379300    0.84683200   -4.71862000
 H                  1.46640900    1.87378100   -4.25875600
 H                 -0.00634600    2.89015500   -4.35692200
 H                  0.12861100    1.46820200   -8.62919000
 H                  0.94733500    3.02307300   -8.47434400
 H                 -0.80192900    2.97704800   -8.85909200

