105

 C                 -2.50703200   -1.33177100    0.97165000
 C                 -1.50120500   -0.43144900    0.70534500
 C                 -0.37360300   -0.36055300    1.59814400
 C                 -0.35029800   -1.16365100    2.71399000
 H                 -3.37428700   -1.38735800    0.31960000
 C                  0.76425600    0.60269500    1.42158700
 C                  0.82979900    1.65257800    2.30939300
 C                  1.79160800    0.46753000    0.42160700
 C                  2.80411300    1.39766500    0.37693300
 H                  3.60009600    1.30067900   -0.35646900
 P                 -1.52676000    0.62156100   -0.81643400
 P                  1.66891100   -0.84003000   -0.88766600
 C                  3.37175400   -0.97660300   -1.56324100
 C                  4.25041300   -2.02187300   -1.26063300
 C                  3.79930600   -0.02160300   -2.49753400
 C                  5.50825800   -2.09936700   -1.84581400
 H                  3.94908900   -2.80607800   -0.57478300
 C                  5.06021000   -0.07807600   -3.07008600
 H                  3.12247100    0.77810100   -2.78653100
 C                  5.93778900   -1.12506400   -2.75372500
 H                  6.16831000   -2.92661000   -1.59793000
 H                  5.36859100    0.68261900   -3.78274600
 N                  7.21848000   -1.16759300   -3.29653400
 C                  1.47530700   -2.32694100    0.15718000
 C                  0.40083700   -3.19793300   -0.04056100
 C                  2.29607100   -2.53485400    1.27421300
 C                  0.14417000   -4.23492700    0.84481000
 H                 -0.27186500   -3.04055900   -0.87736600
 C                  2.05469700   -3.57415600    2.15946100
 H                  3.11765900   -1.84940700    1.47339700
 C                  0.95917100   -4.42978300    1.96637100
 H                 -0.71547700   -4.88199600    0.69118000
 H                  2.69654700   -3.71339700    3.02600000
 N                  0.69702300   -5.46790600    2.85521600
 C                 -1.42954600    2.27352800   -0.02344900
 C                 -2.19899000    2.59830400    1.10205300
 C                 -0.44986200    3.18069500   -0.43364800
 C                 -1.99475300    3.78166400    1.79443200
 H                 -2.95162100    1.89705600    1.45723200
 C                 -0.23011300    4.36640600    0.25659200
 H                  0.18225500    2.92937900   -1.28243200
 C                 -0.99400700    4.67854400    1.38746600
 H                 -2.58802700    4.00870500    2.67687800
 H                  0.56756200    5.03780700   -0.05211300
 N                 -0.71990700    5.81300100    2.14608900
 C                 -3.26525500    0.50578500   -1.39113900
 C                 -4.18559800    1.55432900   -1.31219700
 C                 -3.64674900   -0.64241800   -2.10341400
 C                 -5.43454200    1.46432400   -1.91752100
 H                 -3.92098200    2.47242200   -0.79747900
 C                 -4.89582800   -0.74983800   -2.69165800
 H                 -2.93653100   -1.45689500   -2.22494200
 C                 -5.80961500    0.31254400   -2.61772800
 H                 -6.12759600    2.29932600   -1.85313000
 H                 -5.16158400   -1.64879100   -3.24117500
 N                 -7.07304800    0.19986800   -3.19148900
 H                  0.92423800    1.21106300   -2.46132700
 C                 -0.42299200   -1.90506000   -3.09585200
 O                 -0.73088000   -2.92596700   -3.53232800
 Rh                 0.07084300   -0.18456600   -2.45363300
 H                  0.04851900    1.75646500    3.05874000
 H                  0.49774400   -1.09826300    3.39161300
 C                 -2.45959200   -2.20925800    2.08605400
 C                 -3.46625100   -3.18059100    2.32487600
 C                 -1.36457900   -2.11681700    2.98280500
 C                 -3.38106900   -4.02630800    3.40269300
 H                 -4.30300400   -3.24563400    1.63432400
 C                 -1.30481700   -2.99506000    4.09519000
 C                 -2.28873500   -3.93082800    4.30063100
 H                 -4.15405400   -4.76852400    3.57569800
 H                 -0.46058700   -2.91587100    4.77643800
 H                 -2.23789800   -4.59815300    5.15613100
 C                  3.84844800    3.51450200    1.14985200
 C                  3.82734000    4.60749500    1.97892900
 C                  2.80586200    4.74834900    2.95126900
 C                  1.83613900    3.78699700    3.08182400
 C                  1.83506200    2.64784000    2.23611000
 C                  2.84559300    2.51490700    1.25032300
 H                  4.62533200    3.40193200    0.39800700
 H                  4.59293500    5.37226200    1.89097100
 H                  2.79158100    5.62436700    3.59229200
 H                  1.03756300    3.90064600    3.80968300
 H                 -7.51247100    1.08325600   -3.41610500
 H                 -7.12178900   -0.44462100   -3.97036100
 H                 -1.51325200    6.20026800    2.64012600
 H                 -0.18713000    6.52640100    1.66605800
 H                  7.32096600   -0.68755000   -4.18112100
 H                  7.63892500   -2.08746300   -3.31981400
 H                  1.09447000   -5.33348000    3.77661900
 H                 -0.28569300   -5.70656600    2.91980000
 C                  0.63470900    1.25191600   -4.09895100
 C                 -0.68178800    0.72990500   -4.25854900
 C                 -1.85219100    1.66329100   -4.12852400
 O                 -2.01073800    2.47377300   -5.32012300
 C                 -2.63217700    1.87919800   -6.34835000
 C                 -2.71667500    2.80714300   -7.53532500
 O                 -3.06116000    0.75101700   -6.32191900
 H                  0.73967400    2.32687600   -3.95215300
 H                  1.46385100    0.80146300   -4.63588400
 H                 -0.82177200   -0.06375500   -4.98852200
 H                 -1.68875200    2.39011900   -3.32669700
 H                 -2.78570200    1.12681500   -3.95183200
 H                 -1.70817200    3.03761000   -7.88889000
 H                 -3.18670500    3.74861300   -7.24158600
 H                 -3.28788600    2.32799500   -8.32905600

