105

 C                 -2.11765200   -1.96878500    0.73935900
 C                 -1.39452400   -0.76577200    0.68410100
 C                 -0.34989000   -0.52141200    1.57981200
 C                 -0.11284100   -1.46278600    2.60771900
 C                 -0.84803700   -2.63515700    2.69145500
 C                 -1.82858000   -2.89842600    1.72955800
 H                 -2.88220600   -2.16649200   -0.00098200
 H                 -0.66169600   -3.38839500    3.44643500
 O                 -2.44544900   -4.10383400    1.84422700
 C                  0.55086800    0.66210500    1.46097100
 C                  0.41894000    1.70878600    2.40414200
 C                  1.46252700    0.81890300    0.41356900
 C                  1.11104300    2.90006500    2.25831900
 C                  2.12788200    2.04530300    0.23266800
 C                  1.93886800    3.07450100    1.14378400
 H                  1.00207400    3.72838100    2.94671700
 H                  2.77322600    2.17532800   -0.62727100
 O                  2.51784100    4.30155200    1.04122900
 P                 -1.70429500    0.36191200   -0.74761300
 P                  1.62593900   -0.45437800   -0.91745800
 C                  3.38573400   -0.35056500   -1.45231500
 C                  4.44384100    0.17123300   -0.70029800
 C                  3.69082800   -0.95842900   -2.67995100
 C                  5.75111300    0.12387100   -1.17464300
 H                  4.25655100    0.62384900    0.26903900
 C                  4.98965700   -1.01195400   -3.16499400
 H                  2.90251600   -1.41025600   -3.27591600
 C                  6.02578600   -0.46097600   -2.41159000
 H                  6.56158700    0.53738500   -0.57772700
 H                  5.20153400   -1.46702300   -4.12617800
 O                  7.28349600   -0.52178000   -2.92628300
 C                  1.71861400   -2.03665200    0.02167500
 C                  0.91407500   -3.11499000   -0.34272900
 C                  2.62138600   -2.20292500    1.08092800
 C                  0.97983800   -4.32434700    0.34580800
 H                  0.21226500   -3.00584400   -1.16389900
 C                  2.69805500   -3.40035900    1.77294200
 H                  3.26173400   -1.37727700    1.37989800
 C                  1.85894100   -4.46025400    1.41611400
 H                  0.32686800   -5.14881800    0.06734500
 H                  3.39232000   -3.53775300    2.59582600
 O                  1.94129300   -5.59611000    2.16224400
 C                 -1.76018500    2.02317300    0.04215500
 C                 -2.48242800    2.22881400    1.22669100
 C                 -1.10014900    3.11213500   -0.52506600
 C                 -2.53770000    3.47586300    1.82619900
 H                 -2.97784300    1.39454900    1.71352900
 C                 -1.13765600    4.36920800    0.07298400
 H                 -0.52710600    2.97521700   -1.43660600
 C                 -1.84638900    4.54877300    1.25727300
 H                 -3.09312800    3.63848600    2.74417500
 H                 -0.59189800    5.20065700   -0.36770800
 O                 -1.89066000    5.73715800    1.91765800
 C                 -3.48146000    0.08919800   -1.14363500
 C                 -4.48108700   -0.11591400   -0.17919900
 C                 -3.86796800    0.16608600   -2.48331500
 C                 -5.81285400   -0.24642000   -0.53902600
 H                 -4.21442600   -0.20396100    0.86971700
 C                 -5.20334900    0.04720600   -2.85783500
 H                 -3.10494800    0.31745200   -3.24315800
 C                 -6.17831800   -0.16148500   -1.88558300
 H                 -6.58677500   -0.41378300    0.20231900
 H                 -5.48381200    0.10786900   -3.90693500
 O                 -7.49650400   -0.29675800   -2.18263400
 H                  0.11623800    1.51172900   -2.56061100
 O                  0.89258000   -1.15224700    3.45934600
 O                 -0.45181400    1.47449100    3.41534000
 Rh                -0.20149200   -0.08076000   -2.49105000
 C                 -1.11554900   -1.70388400   -2.93593800
 O                 -1.72810800   -2.66134000   -3.12937900
 C                  1.14846400   -2.04928000    4.51628900
 H                  0.27347800   -2.14637200    5.17058000
 H                  1.43146000   -3.03920100    4.13847600
 H                  1.97900000   -1.62260700    5.07903100
 C                 -0.56904700    2.46316900    4.41307800
 H                 -1.29088900    2.07932100    5.13437700
 H                  0.39275400    2.63435400    4.91161800
 H                 -0.93508000    3.40971600    3.99679600
 H                 -7.61647000   -0.22147200   -3.14012400
 H                 -1.35454500    6.38506800    1.43838200
 H                  7.90237300   -0.12355100   -2.29806000
 H                  1.30243700   -6.24021700    1.82477800
 C                  3.34113700    4.53087500   -0.07969900
 H                  3.70856100    5.55270300    0.01591200
 H                  4.19104200    3.83752200   -0.10180100
 H                  2.77644600    4.42961000   -1.01533300
 C                 -3.40758600   -4.42813100    0.86359300
 H                 -2.96362400   -4.43988200   -0.13971200
 H                 -3.77291400   -5.42386600    1.11464400
 H                 -4.24429100   -3.71889800    0.87423900
 C                  0.19214200    1.37122300   -4.16240000
 C                  0.91103400    0.14020600   -4.29764400
 C                  0.53696300   -0.86078400   -5.35279300
 O                  1.18856500   -0.56177200   -6.61150500
 C                  2.47802400   -0.91750800   -6.69183900
 C                  3.06673200   -0.53119700   -8.02441800
 O                  3.08317900   -1.47317700   -5.80428000
 H                 -0.74829900    1.50119400   -4.69333900
 H                  0.75765800    2.29676400   -4.07308500
 H                  1.98218600    0.19783200   -4.12105400
 H                 -0.53184500   -0.82357700   -5.57668800
 H                  0.81984900   -1.87638900   -5.06566700
 H                  3.05433500    0.55743600   -8.12437400
 H                  2.46093100   -0.94454700   -8.83406200
 H                  4.08962900   -0.89888900   -8.08834200

