105

 C                 -2.36520200   -1.86231600    0.99678200
 C                 -1.47579400   -0.81393100    0.71382200
 C                 -0.40027000   -0.54046700    1.56479900
 C                 -0.26525400   -1.31135500    2.74283700
 C                 -1.14074700   -2.34870300    3.02958800
 C                 -2.18205400   -2.62960600    2.14025800
 H                 -3.18896200   -2.05888300    0.32345700
 H                 -1.04253800   -2.96831700    3.91188200
 O                 -2.97381100   -3.68017200    2.48784400
 C                  0.60145600    0.53901900    1.31348400
 C                  0.55102000    1.68603900    2.14190600
 C                  1.58572700    0.48595600    0.32109100
 C                  1.40574400    2.76015800    1.94517800
 C                  2.46422000    1.56241900    0.12867500
 C                  2.35507200    2.69672900    0.92184600
 H                  1.36315700    3.65875300    2.54714100
 H                  3.23074000    1.50249100   -0.62944500
 O                  3.14062000    3.79712100    0.78395400
 P                 -1.63137900    0.09379500   -0.89303900
 P                  1.65381600   -0.94302800   -0.86441200
 C                  3.35929900   -0.86768900   -1.55358900
 C                  4.36741200   -1.77778100   -1.22981400
 C                  3.64608900    0.11027200   -2.52135100
 C                  5.62195800   -1.70338100   -1.83176400
 H                  4.18225700   -2.56872900   -0.51118300
 C                  4.89367000    0.20510200   -3.11661100
 H                  2.87836200    0.81484500   -2.83219600
 C                  5.89167000   -0.70878500   -2.76892100
 H                  6.39118300   -2.42700500   -1.57091100
 H                  5.09299200    0.96442700   -3.86539000
 O                  7.09744600   -0.58706200   -3.38428800
 C                  1.70794700   -2.35393900    0.29936900
 C                  0.82300800   -3.42316100    0.15723500
 C                  2.56639700   -2.33589100    1.40837400
 C                  0.78548900   -4.44948200    1.09525500
 H                  0.12484300   -3.43782000   -0.67268000
 C                  2.55111300   -3.36181300    2.33981400
 H                  3.23643200   -1.49231100    1.55715100
 C                  1.64044800   -4.41120700    2.19447500
 H                  0.06509800   -5.25782100    0.99197800
 H                  3.20718300   -3.35325700    3.20422000
 O                  1.61826400   -5.35369600    3.17541800
 C                 -1.65823800    1.83439100   -0.31251000
 C                 -2.33535800    2.23210000    0.84919200
 C                 -0.92058100    2.79152900   -1.01187800
 C                 -2.29213000    3.54652600    1.28811000
 H                 -2.87465100    1.49354900    1.43749200
 C                 -0.85243400    4.10973800   -0.57149100
 H                 -0.36387800    2.49126500   -1.89607700
 C                 -1.53249000    4.48512100    0.58574400
 H                 -2.81377100    3.86229300    2.18590600
 H                 -0.25097500    4.83797100   -1.11090200
 O                 -1.47943700    5.74612500    1.09328300
 C                 -3.37936600   -0.22485100   -1.38328900
 C                 -4.46728900    0.58355400   -1.02828500
 C                 -3.63539800   -1.35690700   -2.16712100
 C                 -5.76130900    0.26647400   -1.42008800
 H                 -4.30810200    1.48599300   -0.44828300
 C                 -4.92828100   -1.69558900   -2.55105300
 H                 -2.80344400   -1.97995100   -2.48440000
 C                 -5.99703600   -0.88091600   -2.17758000
 H                 -6.60238100    0.89699100   -1.15233400
 H                 -5.10301200   -2.58159900   -3.15762000
 O                 -7.28202600   -1.14892100   -2.52998900
 H                  0.69445800    0.70508500   -2.76875400
 O                  0.77492100   -0.97802600    3.54528700
 O                 -0.39744900    1.66646500    3.11032500
 Rh                -0.01299700   -0.74856900   -2.47903300
 C                 -0.22986800   -2.57207900   -2.95895300
 O                 -0.36582000   -3.65609500   -3.33216600
 C                  0.92362800   -1.69395800    4.74959600
 H                  0.04432900   -1.56917300    5.39340700
 H                  1.08817800   -2.76270500    4.56319700
 H                  1.79985300   -1.27307200    5.24368300
 C                 -0.44490300    2.76114600    3.99573800
 H                 -1.25424900    2.54836300    4.69480600
 H                  0.49843600    2.86397100    4.54587900
 H                 -0.65798300    3.69670200    3.46390400
 H                 -7.30204600   -1.95024900   -3.07230800
 H                 -0.90108100    6.28703500    0.53664500
 H                  7.68555100   -1.28921000   -3.07160400
 H                  0.92656400   -6.00098400    2.97580900
 C                  4.08298100    3.78783800   -0.26721300
 H                  4.58187900    4.75640000   -0.23489200
 H                  4.82463400    2.99122600   -0.13382700
 H                  3.59343100    3.65793600   -1.24052800
 C                 -4.03915700   -3.99774500    1.61981800
 H                 -3.67353400   -4.25954300    0.61894600
 H                 -4.54347200   -4.85778700    2.06066400
 H                 -4.74636900   -3.16424300    1.53263500
 C                 -1.02737500   -0.08846200   -4.24170500
 C                  0.27194700    0.51156700   -4.31124800
 C                  1.35351700   -0.12785200   -5.15305900
 O                  1.62478700    0.66634200   -6.33006300
 C                  2.40624600    1.73389800   -6.12651800
 C                  2.65976000    2.47844200   -7.41137100
 O                  2.84695700    2.05021300   -5.04380500
 H                 -1.23151300   -0.92526800   -4.90541600
 H                 -1.88958800    0.54272300   -4.03987500
 H                  0.33379000    1.60001200   -4.29958600
 H                  1.01497900   -1.09658100   -5.52639300
 H                  2.28986200   -0.25946700   -4.61176900
 H                  1.70831700    2.78309600   -7.85409700
 H                  3.15918300    1.81827400   -8.12495500
 H                  3.27924700    3.35072400   -7.20930500

