117

 C                  2.17827300    1.92136800    0.63717800
 C                  1.47371800    0.70406200    0.68083000
 C                  0.45876100    0.50376400    1.61704700
 C                  0.24591900    1.50658000    2.59699800
 C                  0.95942600    2.69364500    2.57949900
 C                  1.89554500    2.91424400    1.56375200
 H                  2.91909000    2.08023200   -0.13666500
 H                  0.78579400    3.48801500    3.29471600
 O                  2.47337300    4.14523100    1.56587200
 C                 -0.48195600   -0.65550500    1.61232100
 C                 -0.38176100   -1.60871300    2.64967500
 C                 -1.49654000   -0.80422300    0.65952000
 C                 -1.24733100   -2.69126500    2.72015200
 C                 -2.37793200   -1.89484000    0.73052300
 C                 -2.23496800   -2.83420500    1.74371700
 H                 -1.17383600   -3.44907900    3.49037500
 H                 -3.16933600   -1.99328600    0.00131400
 O                 -3.00737600   -3.95168400    1.86101600
 P                  1.75875600   -0.47048600   -0.71943400
 P                 -1.56219600    0.34971100   -0.79816100
 C                 -3.18807200   -0.01796600   -1.56038800
 C                 -4.25755200    0.87419100   -1.57368800
 C                 -3.31361000   -1.20607500   -2.30471000
 C                 -5.42790900    0.59799500   -2.28396200
 H                 -4.18463500    1.81389300   -1.03519400
 C                 -4.47329400   -1.50417200   -2.99644800
 H                 -2.47723800   -1.90265300   -2.33735100
 C                 -5.54081200   -0.59595400   -2.99384200
 H                 -6.23163600    1.32438600   -2.27840400
 H                 -4.57597400   -2.42029700   -3.56876300
 O                 -6.62977900   -0.96478100   -3.71465000
 C                 -1.81577700    1.95130300    0.05379400
 C                 -1.06316900    3.05613100   -0.33715300
 C                 -2.66159400    2.07593800    1.16753900
 C                 -1.09776900    4.25041700    0.38123700
 H                 -0.40480000    2.97129200   -1.19663600
 C                 -2.71623600    3.25825600    1.88372000
 H                 -3.25106200    1.22290900    1.49546900
 C                 -1.89782000    4.33646600    1.51926100
 H                 -0.46417700    5.07386500    0.07384900
 H                 -3.34836500    3.36248700    2.75997800
 O                 -1.92687000    5.40800700    2.35436000
 C                  1.65255000   -2.12576500    0.06430300
 C                  2.46103300   -2.46564700    1.15863100
 C                  0.69736200   -3.04536000   -0.36163100
 C                  2.28106500   -3.66195200    1.82975700
 H                  3.21946800   -1.77596100    1.51444800
 C                  0.49455800   -4.24824800    0.31035000
 H                  0.06236200   -2.79686000   -1.20682100
 C                  1.26345100   -4.53936000    1.43664200
 H                  2.88796000   -3.92511000    2.69020400
 H                 -0.29259500   -4.91585200   -0.02036400
 O                  1.07946900   -5.62733000    2.22809400
 C                  3.55330500   -0.29564800   -1.06412600
 C                  4.52907100   -0.05348300   -0.08231200
 C                  3.97371400   -0.45843600   -2.38319200
 C                  5.87048600    0.01330500   -0.41389200
 H                  4.23257900    0.11735300    0.94888000
 C                  5.32312800   -0.40401300   -2.73237200
 H                  3.22484400   -0.61977500   -3.15565800
 C                  6.27688800   -0.16738500   -1.74286800
 H                  6.63095200    0.20867800    0.33470500
 H                  5.60919200   -0.53407800   -3.76918800
 O                  7.61166300   -0.08340300   -1.96579900
 H                 -0.05186800   -1.39910800   -2.68745100
 O                 -0.71438800    1.23521100    3.51309400
 O                  0.61955700   -1.40075400    3.53777100
 Rh                 0.30007100    0.16312600   -2.41378300
 C                  1.32281700    1.74551200   -2.67361700
 O                  2.02170200    2.65598200   -2.80037400
 C                 -0.92423200    2.18306900    4.53503600
 H                 -1.71908000    1.77803900    5.16188800
 H                 -0.01664100    2.32028200    5.13569400
 H                 -1.23865900    3.15117900    4.12619300
 C                  0.75997100   -2.33247600    4.58563900
 H                  1.62166400   -2.00456800    5.16751400
 H                 -0.13107600   -2.34420000    5.22538700
 H                  0.94153100   -3.34283900    4.19806200
 C                  8.06204500   -0.25085200   -3.29200600
 H                  7.79809100   -1.24201300   -3.67971900
 H                  7.64548100    0.51788500   -3.95382400
 H                  9.14670700   -0.15158100   -3.25818300
 C                 -0.06122700   -6.42128900    1.97162600
 H                 -0.09166600   -7.17052500    2.76272000
 H                 -0.97674400   -5.81624300    1.99670100
 H                  0.01466600   -6.92540500    1.00066300
 C                 -7.70082600   -0.04980300   -3.78543800
 H                 -8.12773100    0.14199200   -2.79348100
 H                 -7.38243300    0.90024300   -4.23066300
 H                 -8.45512500   -0.51471900   -4.41992300
 C                 -0.98094400    6.42989000    2.11582400
 H                 -1.17729100    6.94114500    1.16592700
 H                 -1.08858700    7.13996500    2.93567000
 H                  0.03941100    6.02594700    2.10404800
 C                 -3.99983100   -4.15300800    0.87850700
 H                 -3.55994500   -4.21730500   -0.12495900
 H                 -4.48586600   -5.09669000    1.12624300
 H                 -4.74163800   -3.34591600    0.88833000
 C                  3.36644100    4.43307000    0.50908900
 H                  2.87326000    4.33061700   -0.46514500
 H                  3.68594000    5.46487400    0.65505400
 H                  4.24178800    3.77291500    0.53722600
 C                 -0.40123800   -0.87768300   -4.29415300
 C                 -0.91947600    0.43871000   -4.17025500
 C                 -0.40970200    1.52560400   -5.07596300
 O                 -1.06150500    1.47028900   -6.36628600
 C                 -2.30020600    1.98508000   -6.41728500
 C                 -2.88857200    1.83241800   -7.79777600
 O                 -2.86093300    2.49501200   -5.47815900
 H                  0.46727200   -1.05310300   -4.92418800
 H                 -1.08540700   -1.72070300   -4.25063400
 H                 -1.96971500    0.54650500   -3.90607200
 H                  0.65057900    1.38980200   -5.30038500
 H                 -0.57870400    2.51837500   -4.65263600
 H                 -3.01344200    0.76973300   -8.02247400
 H                 -2.20860700    2.25048600   -8.54351800
 H                 -3.85329300    2.33594900   -7.83719400

