101

 C                  1.95239000    2.31266100    0.20600500
 C                  1.40901700    1.04345400    0.46948000
 C                  0.42479000    0.87030300    1.44307100
 C                  0.06695800    1.99158800    2.23397200
 C                  0.62767400    3.23866600    2.00967900
 C                  1.55224000    3.40290500    0.97051400
 H                  2.67063900    2.43648100   -0.59514000
 H                  0.35421800    4.11426300    2.58450700
 O                  2.00798000    4.66320800    0.79436000
 C                 -0.32863300   -0.39756200    1.67200900
 C                 -0.07537900   -1.12312000    2.85692700
 C                 -1.31966200   -0.86634000    0.80228800
 C                 -0.77260000   -2.28565000    3.15241100
 C                 -2.03818900   -2.03292200    1.10080500
 C                 -1.75541300   -2.73854100    2.26712600
 H                 -0.58624000   -2.86891500    4.04496400
 H                 -2.82597000   -2.36942900    0.44307100
 O                 -2.38517600   -3.87896800    2.63456700
 P                  1.81928300   -0.30849500   -0.71242300
 P                 -1.53147200   -0.00949400   -0.82545300
 C                 -3.07021300   -0.71719000   -1.53582300
 C                 -4.14713100    0.08584500   -1.91203400
 C                 -3.03184800   -2.05756800   -1.95035900
 C                 -5.17483000   -0.46172800   -2.67756100
 H                 -4.18463100    1.13706200   -1.64934600
 C                 -4.08201800   -2.57778900   -2.69109000
 H                 -2.17424200   -2.68517400   -1.72070900
 C                 -5.16781000   -1.79351500   -3.07088300
 Cl                -6.50141300    0.54791900   -3.16316600
 Cl                -4.02772900   -4.24712600   -3.18770100
 H                 -5.97422500   -2.20540600   -3.66553800
 C                 -2.05630700    1.65926000   -0.24593000
 C                 -1.45513000    2.77977100   -0.81618800
 C                 -2.97469500    1.80573700    0.79845300
 C                 -1.76282300    4.04250300   -0.32096200
 H                 -0.72861000    2.66380500   -1.61421600
 C                 -3.27964500    3.08183400    1.25138900
 H                 -3.42976800    0.93839700    1.26764700
 C                 -2.67556800    4.21585000    0.71206500
 Cl                -0.95711200    5.43461000   -0.98264600
 Cl                -4.43290200    3.27772400    2.54390700
 H                 -2.91034400    5.20448000    1.08944100
 C                  1.95241000   -1.80919400    0.35876100
 C                  2.83166200   -1.83711900    1.44367400
 C                  1.13796700   -2.90933000    0.09496300
 C                  2.88307600   -2.96945900    2.24609400
 H                  3.46482800   -0.99050900    1.68291500
 C                  1.18978300   -4.01358000    0.93602200
 H                  0.44440300   -2.88823500   -0.73898600
 C                  2.06105500   -4.06839700    2.01761500
 Cl                 4.00606000   -3.01741300    3.57885900
 Cl                 0.11865700   -5.35402000    0.64264600
 H                  2.09919800   -4.93926800    2.66146200
 C                  3.59352500   -0.01919400   -1.12972000
 C                  4.51803400    0.54767300   -0.24632500
 C                  4.00699200   -0.43989100   -2.39498700
 C                  5.84338400    0.67832300   -0.64275100
 H                  4.21402300    0.91605000    0.72816800
 C                  5.34418200   -0.30801700   -2.75571000
 H                  3.28363300   -0.85207800   -3.09376000
 C                  6.27913200    0.25118600   -1.89317600
 Cl                 6.99048400    1.40428700    0.44659600
 Cl                 5.86093500   -0.83674600   -4.32952000
 H                  7.31582600    0.36089900   -2.18865200
 H                  0.21624700   -1.81248000   -2.51832700
 O                 -0.87030500    1.75671000    3.18086000
 O                  0.90267700   -0.62025200    3.64529600
 Rh                 0.29157300   -0.19118800   -2.43747900
 C                  1.10534800    1.43902700   -3.03637400
 O                  1.70189800    2.37078500   -3.35599800
 C                 -1.21357900    2.82362900    4.03935800
 H                 -0.33956300    3.16757700    4.60499100
 H                 -1.63851900    3.66435200    3.47814800
 H                 -1.96710000    2.43070700    4.72113400
 C                  1.14175800   -1.26627400    4.87773800
 H                  1.45481100   -2.30602100    4.72691700
 H                  1.95080600   -0.71463700    5.35561200
 H                  0.24780200   -1.24219400    5.51202700
 C                 -3.33440900   -4.41776800    1.73789400
 H                 -3.67664900   -5.34996100    2.18611600
 H                 -4.18703100   -3.74084800    1.60716100
 H                 -2.88085200   -4.62501900    0.76107600
 C                  2.83837100    4.90236000   -0.32464400
 H                  3.78726900    4.35892400   -0.23767500
 H                  2.33582300    4.61344600   -1.25530100
 H                  3.03372100    5.97407200   -0.33026000
 C                 -0.28643200   -1.57559300   -4.13605100
 C                 -1.03766700   -0.37120200   -4.11725300
 C                 -0.85734300    0.69800900   -5.16111100
 O                 -1.76694700    0.47431800   -6.25856200
 C                 -3.05047500    0.79237100   -6.00959000
 C                 -3.92491500    0.49045500   -7.19816700
 O                 -3.43739600    1.25285000   -4.96191900
 H                  0.57320400   -1.66602800   -4.79519900
 H                 -0.79642500   -2.51718300   -3.94780100
 H                 -2.06609000   -0.43998100   -3.77552300
 H                  0.14094100    0.66939200   -5.60444900
 H                 -1.05842400    1.69273600   -4.75697100
 H                 -3.89870400   -0.58265300   -7.40545600
 H                 -3.54460600    1.00728100   -8.08234700
 H                 -4.94492000    0.80502500   -6.98259900

