101

 C                  2.08272300    2.40942500    0.41506000
 C                  1.47113800    1.14786000    0.52234300
 C                  0.47094300    0.92166100    1.46775200
 C                  0.17991400    1.94878200    2.39942200
 C                  0.81592000    3.17782500    2.33348400
 C                  1.74577200    3.41622400    1.31331800
 H                  2.81528600    2.58821500   -0.36209400
 H                  0.59751900    3.98759800    3.01795300
 O                  2.27598300    4.66050600    1.29548500
 C                 -0.35412700   -0.31744800    1.51647700
 C                 -0.16964800   -1.20791800    2.59788100
 C                 -1.33714600   -0.61380600    0.56635900
 C                 -0.92342000   -2.36655300    2.71222700
 C                 -2.11138400   -1.77706800    0.68295500
 C                 -1.89268900   -2.64980300    1.74575800
 H                 -0.79042400   -3.07447700    3.52023800
 H                 -2.89722600   -1.98461100   -0.02682700
 O                 -2.58091100   -3.79981600    1.93351200
 P                  1.84625400   -0.10694600   -0.78034700
 P                 -1.51626400    0.49735900   -0.91287300
 C                 -3.13880900    0.00586000   -1.64816600
 C                 -4.19611300    0.90786900   -1.76811200
 C                 -3.25001300   -1.25641100   -2.24907100
 C                 -5.33550500    0.54158800   -2.48357400
 H                 -4.14498000    1.89851800   -1.33128900
 C                 -4.40073200   -1.59313700   -2.94442300
 H                 -2.42969700   -1.96749600   -2.20858000
 C                 -5.46009400   -0.70283100   -3.08345000
 Cl                -6.63568700    1.68530300   -2.63834700
 Cl                -4.49535000   -3.15356800   -3.71183800
 H                 -6.33629400   -0.96193900   -3.66462900
 C                 -1.92826900    2.08130600   -0.06836200
 C                 -1.29689000    3.25794600   -0.46398500
 C                 -2.82731600    2.09009500    1.00361400
 C                 -1.55740300    4.43613500    0.22911100
 H                 -0.58504200    3.26068300   -1.28029700
 C                 -3.08474000    3.28641100    1.65724900
 H                 -3.30696000    1.17480300    1.33795100
 C                 -2.45124300    4.47239400    1.29167400
 Cl                -0.71617000    5.88922900   -0.22040800
 Cl                -4.21231900    3.30900200    2.98494900
 H                 -2.64961800    5.39627800    1.82266300
 C                  1.93902800   -1.70202800    0.16296000
 C                  2.78000300   -1.90522600    1.25939100
 C                  1.09215100   -2.72813800   -0.25885200
 C                  2.76125400   -3.13217800    1.91087000
 H                  3.43655700   -1.12442500    1.62438000
 C                  1.07225300   -3.93147800    0.43423000
 H                  0.42521000   -2.56900600   -1.10135800
 C                  1.90582500   -4.15901800    1.52270100
 Cl                 3.83611800   -3.39793200    3.25901200
 Cl                -0.04339200   -5.17596000   -0.05459700
 H                  1.89115600   -5.10490600    2.05143400
 C                  3.63811500    0.22007400   -1.10684400
 C                  4.55882600    0.59004600   -0.11831700
 C                  4.06904700    0.07166700   -2.42515900
 C                  5.88998100    0.78236600   -0.46307400
 H                  4.24416100    0.76883800    0.90445000
 C                  5.41232200    0.26177100   -2.73866300
 H                  3.35684800   -0.17203500   -3.20521800
 C                  6.34118900    0.61587200   -1.76988600
 Cl                 7.02990000    1.25655200    0.76461300
 Cl                 5.93935900    0.06862600   -4.38513800
 H                  7.38318700    0.77086400   -2.02350600
 H                 -0.48011100   -1.20733800   -2.74894300
 O                 -0.77148800    1.65094000    3.31543700
 O                  0.80062300   -0.86052400    3.47351100
 Rh                 0.20621000    0.27729700   -2.52531800
 C                  0.66035700    2.07426000   -3.00892100
 O                  1.02129300    3.11818800   -3.32647400
 C                 -1.01912700    2.60100500    4.32978300
 H                 -0.11047300    2.79821800    4.91072000
 H                 -1.39459800    3.54256700    3.91084900
 H                 -1.78427400    2.16468600    4.97105600
 C                  0.97324600   -1.67746000    4.61206100
 H                  1.24610400   -2.70078400    4.32903300
 H                  1.78991900   -1.23371200    5.18068700
 H                  0.06166300   -1.69739000    5.22098100
 C                 -3.50839800   -4.17606400    0.93668100
 H                 -3.89917800   -5.14669600    1.24016200
 H                 -4.33295800   -3.45651900    0.86713200
 H                 -3.02025600   -4.26648000   -0.04135300
 C                  3.12432000    4.99041200    0.21474700
 H                  4.03474500    4.37863400    0.22294200
 H                  2.60662900    4.86277800   -0.74360700
 H                  3.39038100    6.03812800    0.35011700
 C                  0.98278700   -0.46474800   -4.36484500
 C                 -0.32989100   -1.04164900   -4.25657400
 C                 -1.50434300   -0.40448800   -4.96357500
 O                 -1.88541300   -1.27472400   -6.04396800
 C                 -3.18963100   -1.27817000   -6.37998300
 C                 -3.46331600   -2.30143400   -7.45034800
 O                 -4.01767500   -0.56301400   -5.87179900
 H                  1.11829400    0.33591700   -5.08768300
 H                  1.83163300   -1.13849100   -4.28004700
 H                 -0.39439700   -2.13248900   -4.25904600
 H                 -1.21687000    0.57214300   -5.36927500
 H                 -2.36905700   -0.26110600   -4.31741800
 H                 -3.28437900   -3.30073700   -7.04386900
 H                 -2.78269000   -2.15707500   -8.29229000
 H                 -4.49857900   -2.21429000   -7.77608200

