93

 C                 -1.41942200   -2.38725000    1.28249000
 C                 -1.19443300   -1.02939200    1.00702900
 C                 -0.32246900   -0.28650300    1.81357100
 C                  0.24267200   -0.90302400    2.95230800
 C                 -0.01147800   -2.24229300    3.23976400
 C                 -0.82849700   -2.98103200    2.38730100
 H                 -2.04832300   -2.98180100    0.62719000
 H                  0.43690400   -2.72133600    4.10154200
 H                 -1.00170300   -4.03254300    2.59221800
 C                  0.10061700    1.12065000    1.52970400
 C                 -0.39449900    2.13622700    2.36878100
 C                  1.01840300    1.45231500    0.51865800
 C                  0.00597800    3.46155800    2.19962200
 C                  1.42899000    2.78266300    0.36677100
 C                  0.92175800    3.77110100    1.19971500
 H                 -0.38103100    4.24678700    2.83728600
 H                  2.15867300    3.05136700   -0.38718900
 H                  1.24431700    4.79947300    1.07144400
 P                 -1.82115700   -0.34597800   -0.58465100
 P                  1.52615500    0.13061000   -0.67264700
 C                  2.90078600    0.86078800   -1.64658500
 C                  4.14372400    0.23330500   -1.73823000
 C                  2.58649200    1.90144200   -2.53380900
 C                  5.05747600    0.66003500   -2.69954800
 H                  4.40067200   -0.60409900   -1.09949000
 C                  3.52485000    2.31339400   -3.46806900
 H                  1.60395900    2.36625900   -2.51976300
 C                  4.77172000    1.70244700   -3.57108000
 Cl                 6.59406800   -0.13898800   -2.82226500
 Cl                 3.12297900    3.60248100   -4.56822000
 H                  5.49022300    2.02150700   -4.31646900
 C                  2.39370600   -1.01700000    0.48026200
 C                  2.11253500   -2.38004800    0.40389900
 C                  3.25575400   -0.52725300    1.46647700
 C                  2.68490400   -3.24324900    1.33269300
 H                  1.42879500   -2.75698800   -0.35064400
 C                  3.82831100   -1.41843200    2.36310000
 H                  3.46217800    0.53567400    1.54957900
 C                  3.54656000   -2.78217000    2.32056500
 Cl                 2.28405500   -4.93491700    1.28703900
 Cl                 4.90943600   -0.82078900    3.59293900
 H                  3.98921100   -3.46421000    3.03746500
 C                 -2.37436600    1.36003900   -0.13176200
 C                 -3.29323200    1.55692000    0.90155100
 C                 -1.84077800    2.45658300   -0.80727300
 C                 -3.66721300    2.85045900    1.24030400
 H                 -3.70964700    0.72423200    1.45650400
 C                 -2.21175100    3.73958300   -0.42408000
 H                 -1.11671400    2.30997000   -1.60192500
 C                 -3.12898700    3.96032500    0.59718600
 Cl                -4.84105800    3.09366300    2.50636600
 Cl                -1.49438300    5.10805400   -1.22394500
 H                 -3.41979300    4.96548400    0.87965200
 C                 -3.44885500   -1.17921100   -0.83219800
 C                 -4.28994100   -1.57812900    0.21153000
 C                 -3.85176200   -1.35582500   -2.15715300
 C                 -5.52494600   -2.13959200   -0.08902600
 H                 -3.98537100   -1.48655900    1.24909900
 C                 -5.09925300   -1.91054800   -2.42412400
 H                 -3.18700700   -1.07309100   -2.96924100
 C                 -5.95141200   -2.31061600   -1.40235400
 Cl                -6.56806300   -2.65006200    1.20702300
 Cl                -5.60367200   -2.12394000   -4.07448400
 H                 -6.91651200   -2.75220500   -1.62074300
 H                 -0.46549700    0.75196600   -2.83187400
 O                  1.05288900   -0.11579900    3.69913200
 O                 -1.28147100    1.73222700    3.30952800
 Rh                -0.19405800   -0.71077800   -2.17928400
 C                 -0.56979900   -2.59289200   -2.13544200
 O                 -0.90428100   -3.69291000   -2.10466100
 C                  1.58397100   -0.66182800    4.88761500
 H                  2.22183100   -1.52870300    4.67746300
 H                  2.18870500    0.12570100    5.33606200
 H                  0.78312300   -0.95582700    5.57658300
 C                 -1.73224300    2.69622300    4.23720800
 H                 -2.26534900    3.51281200    3.73640900
 H                 -2.42137600    2.17595200    4.90176800
 H                 -0.89499900    3.10563400    4.81502100
 C                  0.14852800    0.08226500   -4.27604300
 C                  1.14151500   -0.84302900   -3.86006000
 C                  1.24585700   -2.21815200   -4.46312400
 O                  2.12098400   -2.18658500   -5.60985500
 C                  3.43313800   -2.09882100   -5.32483500
 C                  4.25823100   -2.03066700   -6.58307500
 O                  3.87621700   -2.07168300   -4.20143600
 H                 -0.67770800   -0.25560100   -4.89647300
 H                  0.43246300    1.11765500   -4.44837600
 H                  2.11375300   -0.43634500   -3.59853000
 H                  0.28433100   -2.56904600   -4.84552000
 H                  1.65139700   -2.94081700   -3.75146400
 H                  3.99282700   -1.13002400   -7.14310300
 H                  4.04087500   -2.89168200   -7.21945100
 H                  5.31447200   -2.00940400   -6.31893400

