93

 C                 -1.66084500   -2.22443400    1.72822400
 C                 -1.12529700   -1.07617200    1.13114700
 C                 -0.21500900   -0.27555400    1.84107600
 C                  0.10187500   -0.62236200    3.17086700
 C                 -0.43747100   -1.76487800    3.76051400
 C                 -1.30967000   -2.56339800    3.02723200
 H                 -2.36065400   -2.84934700    1.18500700
 H                 -0.18019700   -2.04158700    4.77553900
 H                 -1.72461600   -3.45715500    3.48220800
 C                  0.41023600    0.96695600    1.28491300
 C                 -0.03426300    2.19608900    1.81840700
 C                  1.41223600    0.98248800    0.29891600
 C                  0.47209900    3.40732100    1.35131100
 C                  1.91900200    2.20421100   -0.16124100
 C                  1.44348100    3.40022500    0.35620100
 H                  0.11586800    4.34969800    1.74881600
 H                  2.69371600    2.23151900   -0.91688300
 H                  1.83771900    4.34102100   -0.01406800
 P                 -1.46417600   -0.68501200   -0.64202500
 P                  1.95571800   -0.60476800   -0.48722500
 C                  3.61992600   -0.24175600   -1.21066300
 C                  4.79223200   -0.81958100   -0.72035100
 C                  3.67090500    0.53808600   -2.37543900
 C                  5.99685700   -0.59810900   -1.38343700
 H                  4.78951900   -1.45189100    0.15887900
 C                  4.89105300    0.74525600   -3.00490300
 H                  2.77078400    0.97336000   -2.80459600
 C                  6.07174600    0.18476200   -2.52595500
 Cl                 7.45026700   -1.32613100   -0.76234900
 Cl                 4.95839000    1.71041200   -4.45345500
 H                  7.01446600    0.34595100   -3.03498000
 C                  2.38181100   -1.57223500    1.02405400
 C                  1.86084700   -2.85237500    1.20918100
 C                  3.17173100   -0.98481100    2.01755900
 C                  2.13184300   -3.52948400    2.39348600
 H                  1.21650200   -3.30408400    0.46336200
 C                  3.45014500   -1.70001500    3.17364300
 H                  3.55463500    0.02513900    1.90223700
 C                  2.92984300   -2.97320900    3.38687800
 Cl                 1.43136000   -5.09805300    2.66097100
 Cl                 4.46144400   -0.98382400    4.39833300
 H                  3.14094800   -3.51573200    4.30122700
 C                 -2.05316600    1.05762200   -0.47890700
 C                 -2.94570000    1.43470700    0.52946700
 C                 -1.52381700    2.02019400   -1.34045500
 C                 -3.31913300    2.76737400    0.64068900
 H                 -3.32989900    0.70469100    1.23618600
 C                 -1.88994800    3.35206600   -1.17877300
 H                 -0.79648300    1.74516000   -2.09913800
 C                 -2.79303400    3.74618400   -0.19728500
 Cl                -4.46737400    3.23344600    1.86701000
 Cl                -1.18245700    4.56350100   -2.20607100
 H                 -3.07902100    4.78598400   -0.08809100
 C                 -3.01970100   -1.61317900   -1.00974100
 C                 -4.29072200   -1.03653700   -1.05390400
 C                 -2.86937300   -2.96727000   -1.33922000
 C                 -5.38793000   -1.82196200   -1.39770900
 H                 -4.44531200    0.01332400   -0.83640900
 C                 -3.98623800   -3.72775200   -1.65857000
 H                 -1.88106800   -3.41866000   -1.36067800
 C                 -5.26158500   -3.17215100   -1.69557600
 Cl                -6.96765600   -1.09246400   -1.45266400
 Cl                -3.79135700   -5.41216400   -2.04765700
 H                 -6.12505200   -3.77050400   -1.96062800
 H                  0.59310800    0.13103300   -2.63463300
 O                  0.96707200    0.20749100    3.80366900
 O                 -0.98712300    2.10812200    2.77846800
 Rh                 0.42878400   -1.37765200   -2.02238900
 C                  0.89053300   -3.21912900   -2.01529400
 O                  1.21415400   -4.32015400   -2.10583300
 C                  1.19742700   -0.01515400    5.17785100
 H                  1.67329100   -0.98808200    5.35134500
 H                  1.87558500    0.77391100    5.50139300
 H                  0.26080300    0.03932000    5.74565300
 C                 -1.34762200    3.29561200    3.45021000
 H                 -1.80416700    4.02047400    2.76555200
 H                 -2.08233000    3.00572100    4.20087200
 H                 -0.47565300    3.75060300    3.93536500
 C                 -0.67635000   -1.67579700   -3.86652300
 C                  0.13425900   -0.54178700   -4.11388500
 C                  1.41174900   -0.63720000   -4.92675400
 O                  1.37846600    0.27184500   -6.04077300
 C                  1.51917400    1.56480200   -5.70739300
 C                  1.58801100    2.44517500   -6.92449000
 O                  1.59664300    1.95186100   -4.56319200
 H                 -0.38982800   -2.62572800   -4.30961400
 H                 -1.74447700   -1.54530900   -3.71482100
 H                 -0.36697800    0.41892400   -4.20655000
 H                  1.51066200   -1.63291400   -5.36382900
 H                  2.30289400   -0.41879600   -4.33857200
 H                  0.79911200    2.18036300   -7.63108900
 H                  2.54957000    2.28433800   -7.42092700
 H                  1.50278700    3.48754100   -6.62172900

