109

 C                 -2.42254100   -1.82101000    0.75488300
 C                 -1.57458300   -0.74330400    0.63399600
 C                 -0.47990400   -0.61077400    1.56182500
 C                 -0.34039700   -1.54292500    2.56493700
 H                 -3.26581800   -1.93528400    0.08029900
 C                  0.51158800    0.51565500    1.55281300
 C                  0.41927800    1.43543400    2.57145400
 C                  1.56829000    0.64758100    0.58471300
 C                  2.42858300    1.71830500    0.67975600
 H                  3.24827700    1.82831400   -0.02389400
 P                 -1.71374400    0.39988000   -0.81937900
 P                  1.66202800   -0.55597000   -0.81659900
 C                  3.34287500   -0.28786200   -1.50706000
 C                  3.54665700    0.86247900   -2.28627900
 C                  4.37954200   -1.22083400   -1.39922700
 C                  4.76358600    1.09685900   -2.91084900
 H                  2.73441800    1.57725600   -2.40172300
 C                  5.59595900   -0.99666200   -2.03520000
 H                  4.23883800   -2.12934300   -0.82364100
 C                  5.79350300    0.16148400   -2.78422800
 H                  4.91652700    1.99063600   -3.50559600
 H                  6.40679100   -1.71379900   -1.96063700
 C                  7.11528500    0.35196800   -3.43807700
 C                  1.83857800   -2.11963500    0.14762900
 C                  1.04479100   -3.21660500   -0.18907700
 C                  2.63880000   -2.17695800    1.29772300
 C                  1.00984000   -4.34387400    0.62828900
 H                  0.41879300   -3.17567400   -1.07337200
 C                  2.60108500   -3.29332900    2.12103600
 H                  3.25591800   -1.32331100    1.56850400
 C                  1.77168300   -4.37005600    1.79399500
 H                  0.36274900   -5.17996800    0.38634900
 H                  3.18430600   -3.34091900    3.03525900
 C                  1.67638200   -5.49550500    2.76188400
 C                 -1.61549500    2.03403400    0.03023000
 C                 -2.36100700    2.25928300    1.19781900
 C                 -0.74202200    3.02134600   -0.42115700
 C                 -2.21264100    3.44004800    1.90873400
 H                 -3.03556300    1.48823200    1.56349400
 C                 -0.58657100    4.21021000    0.29054800
 H                 -0.14836300    2.84257100   -1.31230800
 C                 -1.31375900    4.41220900    1.46036700
 H                 -2.76088900    3.61890700    2.82822400
 H                  0.12014300    4.96282100   -0.04159100
 C                 -1.10992400    5.61531400    2.31193600
 C                 -3.49879800    0.33764900   -1.31314000
 C                 -4.37164800    1.41556200   -1.12389200
 C                 -3.97579500   -0.79380800   -1.99439400
 C                 -5.68885100    1.35468800   -1.57116100
 H                 -4.03126100    2.32005900   -0.63475600
 C                 -5.29259900   -0.86657500   -2.42352600
 H                 -3.31374000   -1.62650100   -2.20192600
 C                 -6.15554600    0.20948600   -2.21133900
 H                 -6.35416300    2.19779500   -1.42115800
 H                 -5.66592200   -1.74521500   -2.93917200
 C                 -7.55555200    0.08787400   -2.69909900
 H                  0.28283600    1.30874000   -2.57296000
 C                 -0.93728300   -1.94997300   -2.75929400
 O                 -1.38669400   -2.99177400   -2.96001700
 Rh                -0.13370100   -0.25470700   -2.41580800
 H                 -0.36956800    1.32180900    3.31144300
 H                  0.47767300   -1.43152600    3.27244900
 C                 -2.23373500   -2.82684600    1.73817800
 C                 -3.05666100   -3.98243900    1.80453200
 C                 -1.17565100   -2.68060800    2.66987100
 C                 -2.81670200   -4.95262000    2.74340000
 H                 -3.86886300   -4.08966600    1.09053400
 C                 -0.95504500   -3.69260800    3.64085100
 C                 -1.75232100   -4.80797200    3.66928000
 H                 -3.44133200   -5.83937000    2.78046100
 H                 -0.12696000   -3.58329800    4.33715700
 H                 -1.57043300   -5.58624900    4.40408200
 C                  3.10296500    3.87720200    1.70715100
 C                  2.89940400    4.84771500    2.65451200
 C                  1.87565800    4.69951400    3.62418400
 C                  1.08246100    3.58033600    3.62915600
 C                  1.26356300    2.56951000    2.64955600
 C                  2.28093100    2.71957000    1.67369800
 H                  3.88587900    3.98538900    0.96109200
 H                  3.52284100    5.73615800    2.66542400
 H                  1.71779100    5.47792100    4.36457400
 H                  0.28359700    3.47128600    4.35830900
 O                 -8.00513600   -0.88330500   -3.25768400
 O                 -8.29479700    1.18674800   -2.45261500
 H                 -9.18145700    1.00229500   -2.80831400
 O                 -1.59762500    5.76912500    3.40671200
 O                 -0.30613100    6.53289000    1.74432500
 H                 -0.22047100    7.25449600    2.39112100
 O                  8.04338800   -0.41472200   -3.35025500
 O                  7.18715400    1.49197100   -4.15453300
 H                  8.08180200    1.51350700   -4.53628000
 O                  2.14761400   -5.48310900    3.87505200
 O                  0.99008700   -6.54816300    2.28171000
 H                  0.97112400   -7.20814900    2.99619800
 C                  0.48703800    1.00544000   -4.19802600
 C                  1.00040000   -0.31939600   -4.25256900
 C                  0.43520600   -1.27891700   -5.26682700
 O                  1.00325400   -1.03744900   -6.57154300
 C                  2.24291800   -1.52164300   -6.76472500
 C                  2.73175800   -1.20951700   -8.15599300
 O                  2.86735600   -2.12302800   -5.92592400
 H                 -0.41616900    1.24839400   -4.75204400
 H                  1.18135700    1.83835800   -4.11269000
 H                  2.06213100   -0.46155200   -4.06044400
 H                 -0.63788500   -1.12523500   -5.40056400
 H                  0.63378300   -2.31831100   -4.99635700
 H                  2.76753000   -0.12616300   -8.29693300
 H                  2.03561100   -1.61554900   -8.89382000
 H                  3.72286200   -1.63843900   -8.29473800

