91

 P                 -2.26612800   -0.38999800    0.05365500
 C                 -1.89708900    1.38198600   -0.34382200
 C                 -3.59503100   -0.23275400    1.31176300
 C                 -3.20445900   -0.85764900   -1.46738600
 C                 -0.86091400    1.62288800   -1.25276000
 C                 -0.48059100    2.91739700   -1.58528300
 C                 -1.14151300    4.01184600   -1.01578400
 C                 -2.18149600    3.78778900   -0.12745200
 C                 -2.55779400    2.48117400    0.20815900
 C                 -4.87497600   -0.75805300    1.12013500
 C                 -5.82645300   -0.67458200    2.13605400
 C                 -5.51277700   -0.05771600    3.34285800
 C                 -4.23847300    0.47402300    3.53789000
 C                 -3.28181400    0.37836800    2.53380500
 C                 -3.14761100   -2.16528500   -1.95684800
 C                 -3.87276600   -2.53749000   -3.08758200
 C                 -4.66899700   -1.60164300   -3.73985100
 C                 -4.74203500   -0.29594700   -3.25536000
 C                 -4.01640700    0.07392700   -2.12759000
 H                 -0.31841600    0.78468700   -1.68793200
 C                  0.66112300    3.12493500   -2.50820000
 H                 -0.81775000    5.01345900   -1.28263200
 H                 -2.70920200    4.62437700    0.32057800
 H                 -3.36734400    2.33009100    0.91505300
 H                 -5.13310500   -1.23616000    0.17997500
 H                 -6.81639100   -1.09127500    1.97771200
 H                 -6.25715100    0.00936600    4.13016300
 H                 -3.98242400    0.96235400    4.47274600
 H                 -2.29527400    0.80724300    2.69956600
 H                 -2.53647200   -2.90760900   -1.45813100
 H                 -3.80035700   -3.55893800   -3.44762300
 H                 -5.23197000   -1.88501500   -4.62388200
 H                 -5.36291700    0.43835300   -3.75929100
 H                 -4.07893900    1.09455000   -1.76002300
 P                  1.66623300   -0.71464600    0.15297900
 C                  1.74796200    1.09869800    0.52216300
 C                  2.38346000   -0.78780600   -1.54969600
 C                  3.05353100   -1.36424600    1.17188500
 C                  0.82443000    1.60656900    1.43567700
 C                  0.76481000    2.97488400    1.70308900
 C                  1.63505500    3.85492800    1.05937400
 C                  2.56919200    3.36052500    0.15621300
 C                  2.62299800    1.99269500   -0.10896700
 C                  3.75157000   -0.63880400   -1.81846000
 C                  4.22486500   -0.65998100   -3.12692900
 C                  3.33950700   -0.83271000   -4.19005000
 C                  1.98099700   -0.99709600   -3.93794400
 C                  1.50969700   -0.98239200   -2.62575700
 C                  3.34944000   -0.80336300    2.41855700
 C                  4.30160700   -1.38796700    3.24960100
 C                  4.97040800   -2.54177400    2.84955600
 C                  4.68021500   -3.11101900    1.61171700
 C                  3.72642600   -2.52969800    0.78131000
 H                  0.10869400    0.94599000    1.91910800
 C                 -0.27156200    3.49940700    2.62173800
 H                  1.56477200    4.92298000    1.25232500
 H                  3.23640400    4.03740700   -0.36705800
 H                  3.33873200    1.62855100   -0.83937100
 H                  4.45106800   -0.51364200   -0.99591500
 H                  5.28712300   -0.54197000   -3.31712500
 H                  3.71063200   -0.84777700   -5.20992800
 H                  1.28570200   -1.14603600   -4.75823700
 H                  0.45061100   -1.13912200   -2.43034200
 H                  2.83484500    0.09671500    2.74396600
 H                  4.52140900   -0.93683100    4.21220100
 H                  5.71298300   -2.99542400    3.49809500
 H                  5.19644600   -4.01022500    1.28973900
 H                  3.51508900   -2.97848700   -0.18703100
 Rh                -0.48669300   -1.76919300    0.66560000
 C                 -0.71985300   -1.58717000    2.54180900
 O                 -0.83830800   -1.52135200    3.68236200
 H                 -0.56690000   -2.35805800   -0.85831400
 O                  1.08398400    4.21118100   -2.83047600
 H                  1.12675400    2.19034800   -2.89008400
 O                 -1.09009300    2.81595800    3.19358600
 H                 -0.26312100    4.60105100    2.75817200
 C                  0.29929500   -3.78659200    0.91705600
 C                 -0.39510800   -3.83769600   -0.31766500
 C                  0.33968200   -4.14593000   -1.60775700
 O                  0.38631100   -5.56406000   -1.82050400
 C                 -0.75171300   -6.10411500   -2.29433400
 C                 -0.60965800   -7.59147800   -2.47633100
 O                 -1.74705700   -5.46206700   -2.53294200
 H                  1.38660100   -3.83473200    0.92020800
 H                 -0.18197200   -4.19961500    1.79729100
 H                 -1.41087300   -4.22453400   -0.30610100
 H                  1.38063200   -3.81736200   -1.54868800
 H                 -0.14026300   -3.68532600   -2.47582400
 H                 -0.42202300   -8.05932600   -1.50632600
 H                  0.24697900   -7.80765800   -3.11894900
 H                 -1.52333700   -7.99108000   -2.91311900

