91

 P                 -2.00066300   -0.56017700   -0.46171900
 C                 -1.85156700    1.28384900   -0.53770200
 C                 -3.22357600   -0.81447900    0.88468600
 C                 -3.01974300   -0.77860500   -1.98892300
 C                 -0.83965500    1.79142000   -1.36057800
 C                 -0.65800400    3.16048400   -1.51529800
 C                 -1.48738800    4.06021700   -0.83590100
 C                 -2.49501100    3.57037500   -0.01946900
 C                 -2.67899900    2.19038500    0.12738100
 C                 -4.34270400   -1.64008300    0.73536400
 C                 -5.15987900   -1.92601000    1.82778700
 C                 -4.87419400   -1.38683000    3.07845100
 C                 -3.76069800   -0.56352400    3.23666800
 C                 -2.93490000   -0.28847600    2.15211100
 C                 -2.49473800   -1.50661700   -3.05757700
 C                 -3.21276200   -1.64668700   -4.24595600
 C                 -4.46488600   -1.05654400   -4.37232300
 C                 -4.99579500   -0.31808000   -3.31345000
 C                 -4.27631600   -0.17566400   -2.13329100
 H                 -0.16552200    1.10228100   -1.86871600
 C                  0.45194600    3.65614900   -2.36290200
 H                 -1.31595200    5.12509200   -0.96200500
 H                 -3.14772600    4.25400400    0.51498900
 H                 -3.46844600    1.82815700    0.77908700
 H                 -4.58004600   -2.06630400   -0.23546600
 H                 -6.02273700   -2.57164600    1.69618300
 H                 -5.51343100   -1.60906500    3.92701000
 H                 -3.52544100   -0.13478600    4.20558500
 H                 -2.07149900    0.35806300    2.29831400
 H                 -1.51223000   -1.95890700   -2.95654300
 H                 -2.79176800   -2.21722900   -5.06799200
 H                 -5.02779100   -1.16522300   -5.29411900
 H                 -5.96958400    0.15144600   -3.41239900
 H                 -4.69058700    0.40661200   -1.31355000
 P                  1.97077000   -0.56825800   -0.00750700
 C                  1.81155500    1.22167200    0.42686800
 C                  2.97210000   -0.46793900   -1.55355300
 C                  3.21770400   -1.12754900    1.23023700
 C                  0.82903300    1.56715800    1.35485600
 C                  0.60995500    2.90156200    1.69394500
 C                  1.38050000    3.90981000    1.11187100
 C                  2.36845300    3.57791100    0.19208700
 C                  2.57822400    2.24128200   -0.15140100
 C                  4.37077200   -0.46406900   -1.55253600
 C                  5.07764800   -0.32004400   -2.74547600
 C                  4.39826300   -0.16878700   -3.95087100
 C                  3.00501300   -0.17530500   -3.96345500
 C                  2.29898100   -0.33322700   -2.77452900
 C                  4.06766700   -0.25074700    1.91246700
 C                  5.00796500   -0.74160100    2.81581900
 C                  5.11242700   -2.11144300    3.04251700
 C                  4.26949400   -2.99172000    2.36791300
 C                  3.32328600   -2.50163100    1.47298100
 H                  0.19653500    0.80376700    1.80234400
 C                 -0.48764000    3.25248800    2.62514400
 H                  1.18800200    4.95043500    1.36263200
 H                  2.95616400    4.35641100   -0.28322800
 H                  3.34034400    1.99383100   -0.88589000
 H                  4.91301400   -0.57392500   -0.61802500
 H                  6.16312100   -0.32506400   -2.72937600
 H                  4.95121400   -0.05349600   -4.87774100
 H                  2.46654600   -0.06803300   -4.90003300
 H                  1.21263800   -0.37160900   -2.79203800
 H                  3.99504300    0.81988000    1.74332600
 H                  5.65648400   -0.05060300    3.34540700
 H                  5.84275400   -2.49140000    3.75002600
 H                  4.33789700   -4.05977700    2.54891800
 H                  2.64161100   -3.18158100    0.96670500
 Rh                 0.02878400   -1.84030200   -0.04174900
 C                 -0.07688600   -1.95612700    1.85261600
 O                 -0.13692700   -2.02787800    2.99562400
 H                  0.28921300   -2.07068400   -1.64953900
 O                  0.71238800    4.82555300   -2.52740400
 H                  1.05805000    2.85991000   -2.84732000
 O                 -1.23500400    2.44912800    3.13498900
 H                 -0.59830700    4.33725200    2.83261800
 C                  0.19140700   -3.66856600   -1.41671100
 C                 -0.55492600   -3.93481900   -0.24549700
 C                 -2.03773300   -4.16408600   -0.32395200
 O                 -2.35349700   -5.52266800   -0.70751600
 C                 -2.19820400   -6.44631000    0.25536900
 C                 -2.56022000   -7.81963700   -0.25092900
 O                 -1.81734000   -6.19522800    1.37233100
 H                 -0.32952900   -3.70776800   -2.37287100
 H                  1.23606200   -3.95924500   -1.47290800
 H                 -0.05421300   -4.44673800    0.57161100
 H                 -2.48732700   -3.55173400   -1.11022700
 H                 -2.52397800   -3.94989500    0.63131600
 H                 -1.90239900   -8.08871200   -1.08142500
 H                 -3.58539800   -7.81796500   -0.62895800
 H                 -2.45646000   -8.54140300    0.55768500

