113

 C                  2.31099100   -1.70500200   -0.71904200
 C                  1.55513400   -0.55195900   -0.71371300
 C                  0.55993200   -0.36987100   -1.73355900
 C                  0.44788200   -1.30946100   -2.73494000
 H                  3.04093000   -1.87826200    0.06901000
 C                 -0.44031900    0.74731900   -1.76697000
 C                 -0.34421300    1.68760800   -2.76350600
 C                 -1.56483800    0.78100600   -0.86660300
 C                 -2.52386200    1.75259300   -1.03701200
 H                 -3.40280800    1.76880100   -0.39857900
 P                  1.68492600    0.58149200    0.74046500
 P                 -1.61212600   -0.41242300    0.54227300
 C                 -3.24254900   -0.19951800    1.33932200
 C                 -4.01637400   -1.32047800    1.64082700
 C                 -3.52686900    0.99785500    2.02091100
 C                 -5.00521100   -1.28047200    2.62217000
 H                 -3.81085700   -2.26594300    1.14816200
 C                 -4.52049500    1.05767100    2.98324100
 H                 -2.91741100    1.88069900    1.83648900
 C                 -5.23507300   -0.09847300    3.32390300
 H                 -5.54073100   -2.18909100    2.86712300
 H                 -4.72395100    1.97195800    3.53134800
 O                 -6.10495800    0.01983100    4.35892500
 C                 -1.74823900   -1.99712300   -0.36785800
 C                 -0.91877200   -3.05735400   -0.01248600
 C                 -2.57749300   -2.14163900   -1.49191400
 C                 -0.88815500   -4.23854300   -0.75470100
 H                 -0.26110900   -2.95129000    0.84609000
 C                 -2.55304400   -3.30260900   -2.24361000
 H                 -3.22879700   -1.32269000   -1.78905200
 C                 -1.69603800   -4.35438100   -1.88480400
 H                 -0.20759300   -5.03056400   -0.46510500
 H                 -3.17811300   -3.42583200   -3.12200600
 O                 -1.71681100   -5.43463000   -2.70369100
 C                  1.55663000    2.23540300   -0.04517900
 C                  2.41284600    2.60772800   -1.09317700
 C                  0.52559400    3.10373600    0.30045700
 C                  2.21722700    3.78635900   -1.78898800
 H                  3.23006300    1.95674800   -1.38821100
 C                  0.31272700    4.29641200   -0.38884100
 H                 -0.15444900    2.82807700    1.10086500
 C                  1.14941900    4.63036400   -1.45336800
 H                  2.86437700    4.07574300   -2.61043500
 H                 -0.52063200    4.92982800   -0.10920600
 O                  1.00379600    5.73389400   -2.22422000
 C                  3.45204600    0.48015000    1.22405100
 C                  4.52039200    0.32666600    0.32423600
 C                  3.74928500    0.62019300    2.57911800
 C                  5.83016000    0.32409900    0.76830800
 H                  4.32569800    0.17523000   -0.73367600
 C                  5.06482100    0.62843000    3.04215700
 H                  2.92966700    0.71554500    3.28809600
 C                  6.11146200    0.48062300    2.13231200
 H                  6.66112900    0.19633000    0.08283400
 H                  5.25360400    0.73767600    4.10332800
 O                  7.42452300    0.46415800    2.46692300
 H                 -0.36575600    1.39206700    2.47882600
 C                  1.16141200   -1.68834000    2.68177600
 O                  1.86473900   -2.57486400    2.90232200
 Rh                 0.11344700   -0.14385800    2.29783100
 H                  0.50245100    1.65153100   -3.44497700
 H                 -0.31211700   -1.17147500   -3.50034300
 C                  2.15942700   -2.70511600   -1.71152200
 C                  2.90082900   -3.91629200   -1.68375700
 C                  1.22275600   -2.49311200   -2.75585700
 C                  2.71611900   -4.86692500   -2.65515200
 H                  3.61309100   -4.07516000   -0.87843700
 C                  1.05070500   -3.49244700   -3.74934900
 C                  1.78287100   -4.65089100   -3.70220200
 H                  3.28665000   -5.79030300   -2.62867200
 H                  0.31827600   -3.32919900   -4.53539500
 H                  1.64531800   -5.41313200   -4.46332100
 C                 -3.38664700    3.77505300   -2.19348100
 C                 -3.24808100    4.73023100   -3.16993100
 C                 -2.12660400    4.70873500   -4.03642000
 C                 -1.17168200    3.73089800   -3.90867600
 C                 -1.29925900    2.72524300   -2.91619800
 C                 -2.41595700    2.75088000   -2.04145700
 H                 -4.24311200    3.78681300   -1.52424800
 H                 -3.99765800    5.50756600   -3.28201100
 H                 -2.02267200    5.47495600   -4.79862200
 H                 -0.30163600    3.71596600   -4.55971600
 C                  7.75108900    0.60531400    3.83217200
 H                  7.32544600   -0.21003600    4.42913500
 H                  8.83862400    0.56713400    3.88854800
 H                  7.39848100    1.56502900    4.22833500
 C                 -0.05788100    6.60957200   -1.90666500
 H                  0.06792800    7.03191200   -0.90227400
 H                 -0.01854100    7.41064600   -2.64500400
 H                 -1.02575900    6.09913000   -1.97286200
 C                 -6.66866600   -1.17879000    4.85650400
 H                 -7.35592900   -1.62712500    4.12873400
 H                 -5.88147300   -1.89857900    5.11095100
 H                 -7.22752900   -0.90003500    5.75046200
 C                 -0.92462200   -6.54272200   -2.33300800
 H                 -1.09254700   -7.30253300   -3.09652000
 H                  0.13889700   -6.27826200   -2.30472900
 H                 -1.22806700   -6.93414600   -1.35442600
 C                 -0.79573400    0.90014800    4.07836000
 C                 -1.24441400   -0.44067400    3.94256900
 C                 -0.83695800   -1.46948900    4.95802700
 O                 -1.65219000   -1.31579600    6.14853300
 C                 -2.91296000   -1.75716400    6.06555200
 C                 -3.72490200   -1.35008400    7.26967300
 O                 -3.36066900   -2.37473000    5.12617000
 H                  0.00326800    1.13088200    4.77886200
 H                 -1.51060300    1.70791700    3.94647800
 H                 -2.25803300   -0.59414700    3.58286900
 H                  0.18682000   -1.31947800    5.30734300
 H                 -0.96217600   -2.48836400    4.58433000
 H                 -4.27001000   -0.43552800    7.01169300
 H                 -3.09004600   -1.14974200    8.13257100
 H                 -4.45213000   -2.13098200    7.49589800

