87

 P                 -2.33640000   -0.41423100   -0.55713500
 C                 -3.06942400   -0.48905100    1.13280600
 C                 -0.94262100   -1.60505000   -0.40789800
 C                 -3.61314100   -1.36505300   -1.49080900
 C                 -3.16301100    0.67178400    1.90043800
 C                 -3.72448500    0.62937000    3.17781900
 C                 -4.18768500   -0.57412700    3.69556700
 C                 -4.09391000   -1.74181200    2.93554800
 C                 -3.54223400   -1.69840500    1.66171500
 C                 -0.30127600   -1.82692100    0.81438400
 C                  0.88857300   -2.54996800    0.88173300
 C                  1.42838000   -3.08024300   -0.28217300
 C                  0.79349600   -2.90610700   -1.50896900
 C                 -0.37425300   -2.15633900   -1.56482200
 C                 -4.74654300   -0.63802100   -1.88087500
 C                 -5.77835200   -1.25074100   -2.58403400
 C                 -5.68682200   -2.60004500   -2.92076600
 C                 -4.56865100   -3.33294500   -2.53409000
 C                 -3.53963600   -2.72275400   -1.81825100
 H                 -2.79370400    1.61265800    1.50246600
 H                 -3.79027200    1.54192300    3.76185700
 H                 -4.62510500   -0.60772100    4.68875100
 H                 -4.45798200   -2.68318400    3.33545400
 H                 -3.47953300   -2.60728700    1.06784300
 H                 -0.72550600   -1.42118700    1.72861100
 H                  1.39356400   -2.69760700    1.83008300
 Br                 3.07298700   -4.00719900   -0.21528000
 H                  1.22370900   -3.33263200   -2.40881500
 H                 -0.84606500   -1.99310700   -2.53086800
 H                 -4.81613200    0.41634800   -1.61946500
 H                 -6.65085300   -0.67355900   -2.87397900
 H                 -6.48546000   -3.07808900   -3.47907200
 H                 -4.49619200   -4.38728600   -2.78309400
 H                 -2.68192800   -3.31315300   -1.50984400
 P                  0.26067200    2.30434000   -0.15082000
 C                  0.95621400    3.98326000   -0.47740400
 C                  1.79448900    1.27662700   -0.20099600
 C                 -0.09003100    2.37505900    1.65406300
 C                  0.79584900    4.51637400   -1.75906500
 C                  1.35205800    5.75063700   -2.08750100
 C                  2.06176700    6.47095500   -1.13137600
 C                  2.21543400    5.95369300    0.15365400
 C                  1.66957300    4.71585500    0.47853600
 C                  2.82979200    1.47611700    0.72367800
 C                  4.00230300    0.73678700    0.65773100
 C                  4.15046700   -0.21254000   -0.35151700
 C                  3.14390300   -0.43070200   -1.28051400
 C                  1.96923600    0.31732400   -1.19687300
 C                 -0.81027200    3.46188600    2.16687800
 C                 -1.22744100    3.47019100    3.49470600
 C                 -0.93412600    2.39180800    4.32838000
 C                 -0.22202100    1.30668900    3.82651100
 C                  0.19759300    1.29782600    2.49794100
 H                  0.21791100    3.95788200   -2.49133100
 H                  1.22188900    6.15135500   -3.08788800
 H                  2.48868200    7.43686900   -1.38268700
 H                  2.75962200    6.51639500    0.90587600
 H                  1.78162200    4.33139200    1.48862200
 H                  2.71992700    2.21113400    1.51561500
 H                  4.79937400    0.89425200    1.37527700
 Br                 5.75738200   -1.20337200   -0.45496000
 H                  3.27042900   -1.17998000   -2.05467300
 H                  1.17705000    0.14458800   -1.91853400
 H                 -1.04349400    4.30856900    1.52562000
 H                 -1.78065500    4.32222400    3.87777600
 H                 -1.26157600    2.39777900    5.36343400
 H                  0.00690300    0.46119600    4.46810300
 H                  0.75522600    0.44752300    2.11572100
 Rh                -1.60164600    1.77830000   -1.43709200
 C                 -2.63680100    3.15609300   -0.66003500
 O                 -3.26769400    4.01474300   -0.22504100
 H                 -0.61571300    0.92972000   -2.43384400
 C                 -2.75227800    1.98032800   -3.29889000
 C                 -1.49713600    1.50768500   -3.72836000
 C                 -1.42911000    0.12283800   -4.33805500
 O                 -1.89889100    0.14637400   -5.69292400
 C                 -1.03252700    0.64060500   -6.59820500
 C                 -1.63046100    0.62235000   -7.98005700
 O                  0.06989500    1.03980400   -6.31573600
 H                 -3.60072700    1.30121900   -3.34462700
 H                 -2.98448300    3.03549200   -3.39896100
 H                 -0.76666400    2.20751900   -4.12406300
 H                 -2.11439100   -0.55001100   -3.81448800
 H                 -0.41288000   -0.28161800   -4.32456900
 H                 -2.51895100    1.25877700   -8.00050100
 H                 -1.94506800   -0.39222400   -8.23566100
 H                 -0.89453100    0.98344000   -8.69652000

