91

 P                 -2.03540400    0.45866100    0.87665300
 C                 -1.49083800    2.22404000    0.82380100
 C                 -3.10183100    0.42421000    2.37853200
 C                 -3.29252700    0.47778000   -0.47510500
 C                 -2.25432800    3.22826700    0.21479100
 C                 -1.76201600    4.53007100    0.16196400
 C                 -0.52109000    4.84514100    0.71306400
 C                  0.22583200    3.84310400    1.32245200
 C                 -0.26259700    2.53577600    1.39519500
 C                 -3.53108000    1.58430900    3.03020700
 C                 -4.36604400    1.49793200    4.14218300
 C                 -4.79110100    0.25616200    4.60631800
 C                 -4.37286700   -0.90461700    3.95933400
 C                 -3.52610800   -0.82096600    2.85807200
 C                 -4.65038500    0.22577300   -0.27726700
 C                 -5.54302300    0.29562300   -1.34971400
 C                 -5.09297400    0.64487800   -2.61835600
 C                 -3.73584500    0.90614000   -2.82081300
 C                 -2.84315100    0.80378300   -1.76210300
 H                 -3.21815900    2.99999400   -0.23273500
 O                 -2.45129900    5.54449800   -0.42936500
 H                 -0.15003700    5.86337100    0.65118400
 O                  1.46843200    4.08995400    1.82096800
 H                  0.36870000    1.76810300    1.83132300
 H                 -3.20889500    2.55790500    2.67371400
 H                 -4.68363900    2.40552700    4.64621700
 H                 -5.44135900    0.19224700    5.47327500
 H                 -4.69468400   -1.87691200    4.31925600
 H                 -3.18335300   -1.72555100    2.36053900
 H                 -5.02166800   -0.01499900    0.71435600
 H                 -6.59647000    0.09283900   -1.18251600
 H                 -5.79349100    0.72033000   -3.44488600
 H                 -3.36686900    1.19804500   -3.80048200
 H                 -1.78964600    1.01542900   -1.92416200
 P                  1.73892800   -0.37252900    0.03127900
 C                  1.63461900    1.14155600   -1.00199600
 C                  2.77195100   -1.51531300   -0.98492800
 C                  2.96701600    0.10674100    1.31527400
 C                  2.18282200    2.36632700   -0.63852000
 C                  1.79419200    3.50577800   -1.34724800
 C                  0.93469900    3.43728200   -2.43687600
 C                  0.43641400    2.18984700   -2.82479200
 C                  0.77488900    1.05319500   -2.09796000
 C                  3.04481000   -1.33650200   -2.34421800
 C                  3.76396500   -2.29948900   -3.05279500
 C                  4.22654800   -3.44552200   -2.41397900
 C                  3.97176300   -3.62627400   -1.05487400
 C                  3.24766300   -2.67174700   -0.34924600
 C                  4.30957000    0.33776400    0.98541500
 C                  5.21398000    0.74362000    1.95968700
 C                  4.78936900    0.92305400    3.27660900
 C                  3.46055100    0.69292200    3.61445300
 C                  2.55415900    0.28327600    2.63690500
 H                  2.81777900    2.47963100    0.23299000
 O                  2.26393400    4.70979900   -0.88056800
 H                  0.61932000    4.32761600   -2.97362200
 O                 -0.41351600    2.13061900   -3.87959600
 H                  0.32174200    0.10452500   -2.36410300
 H                  2.70330100   -0.44101900   -2.85421500
 H                  3.96913300   -2.14357700   -4.10762900
 H                  4.78744700   -4.19170500   -2.96792500
 H                  4.33646100   -4.51219200   -0.54399900
 H                  3.05138800   -2.81694100    0.71181800
 H                  4.64169600    0.20111800   -0.04075400
 H                  6.25125600    0.92132600    1.69298500
 H                  5.49692700    1.24034000    4.03639600
 H                  3.12365400    0.82886200    4.63707400
 H                  1.51846000    0.09556400    2.90500800
 Rh                -0.48335100   -1.24961200    0.68570000
 C                 -0.38751600   -1.62444600    2.54269400
 O                 -0.35179300   -1.86437700    3.66682100
 H                 -0.91329900   -1.20086100   -0.89363200
 H                 -3.26778700    5.18750600   -0.80727500
 H                  1.91293100    4.70400200    1.21076900
 H                  1.90468700    5.41900200   -1.43368500
 H                 -0.63759000    1.19478500   -4.04648600
 C                 -0.14418900   -3.33480600    0.14236900
 C                 -1.00972700   -2.87073500   -0.87302600
 C                 -0.55851700   -2.93081800   -2.32370600
 O                 -1.68844100   -2.71435000   -3.18667600
 C                 -1.78236300   -1.61127000   -3.92522800
 C                 -3.02449400   -1.64166700   -4.77278700
 O                 -0.96274300   -0.71549600   -3.92342600
 H                  0.88379900   -3.57582400   -0.12007500
 H                 -0.56831800   -3.91311900    0.95634400
 H                 -2.07706000   -3.04743600   -0.76270000
 H                 -0.22646800   -3.94597300   -2.55730600
 H                  0.24604500   -2.22976700   -2.55991500
 H                 -3.90140000   -1.60485500   -4.12096500
 H                 -3.05877800   -2.57512600   -5.33908300
 H                 -3.02924000   -0.78679800   -5.44763200

