91

 P                 -1.84812000    0.52171900    0.21804400
 C                 -1.42699100    2.26083300    0.66656600
 C                 -2.89953600    0.04188400    1.65314700
 C                 -3.10219800    0.77794200   -1.10898100
 C                 -2.01495900    3.38271200    0.07457700
 C                 -1.58319200    4.65775300    0.44330300
 C                 -0.57916200    4.82651300    1.39304500
 C                  0.00963400    3.70097600    1.96384400
 C                 -0.42653100    2.42259300    1.62119000
 C                 -3.66710000    0.97872900    2.35732400
 C                 -4.48671600    0.57159400    3.40502700
 C                 -4.55501600   -0.77618300    3.75808500
 C                 -3.79532800   -1.71341200    3.06526700
 C                 -2.96371700   -1.30520600    2.02351200
 C                 -4.46602400    0.51728900   -0.95390400
 C                 -5.33357600    0.62050100   -2.04135000
 C                 -4.85401600    1.00030100   -3.29108500
 C                 -3.49743900    1.28326700   -3.45241300
 C                 -2.62988000    1.16356100   -2.37220900
 H                 -2.79723400    3.27349000   -0.67216300
 O                 -2.10711500    5.78736600   -0.10790600
 H                 -0.25121800    5.82783200    1.65437700
 O                  1.05888900    3.80380300    2.82519700
 H                  0.08295000    1.56819900    2.05522400
 H                 -3.61938600    2.02964900    2.08343200
 H                 -5.07244700    1.30725000    3.94783100
 H                 -5.19666700   -1.09109800    4.57538700
 H                 -3.83767900   -2.76526500    3.32968500
 H                 -2.36778200   -2.04659300    1.49824100
 H                 -4.85298600    0.21560900    0.01502600
 H                 -6.38850200    0.40133700   -1.90777200
 H                 -5.53087700    1.07606400   -4.13622100
 H                 -3.11730200    1.58656600   -4.42360200
 H                 -1.56796900    1.37110600   -2.49590200
 P                  1.96227300    0.05190200   -0.35802800
 C                  1.92180200    1.84676200   -0.77903300
 C                  3.12488400   -0.60307000   -1.63060200
 C                  2.99758700    0.03611800    1.16067700
 C                  2.38386300    2.82786600    0.09012000
 C                  2.15341800    4.17025400   -0.22307800
 C                  1.52707300    4.54478400   -1.40166700
 C                  1.10146300    3.54922100   -2.28309600
 C                  1.28741800    2.20753500   -1.97426700
 C                  3.98399800    0.20982000   -2.37710400
 C                  4.85181800   -0.35298200   -3.31139100
 C                  4.87538400   -1.73165300   -3.50399200
 C                  4.02668700   -2.54937700   -2.76043300
 C                  3.15226100   -1.98785400   -1.83456200
 C                  4.38793400    0.19214200    1.11358900
 C                  5.12980300    0.24101200    2.28945500
 C                  4.49210900    0.13931600    3.52477700
 C                  3.11086400   -0.01790100    3.58111400
 C                  2.36859500   -0.07442100    2.40386600
 H                  2.84647100    2.58474400    1.04059900
 O                  2.52823000    5.09985100    0.71316300
 H                  1.31984500    5.58456500   -1.63786100
 O                  0.48281900    3.95998500   -3.42275700
 H                  0.92155500    1.43695600   -2.65111400
 H                  3.97567900    1.28622700   -2.22915600
 H                  5.51123200    0.28880600   -3.88769200
 H                  5.55126800   -2.16790100   -4.23295300
 H                  4.04023500   -3.62516600   -2.90607200
 H                  2.47369500   -2.61818000   -1.26336000
 H                  4.89223200    0.27425200    0.15492800
 H                  6.20792200    0.35864300    2.24106900
 H                  5.07304500    0.17906600    4.44093400
 H                  2.60697000   -0.10151400    4.53847700
 H                  1.29218200   -0.21130000    2.45110500
 Rh                -0.07854300   -1.03764900   -0.39887200
 C                  0.25113800   -2.18138600    1.08415200
 O                  0.46092700   -2.89187200    1.96258100
 H                 -0.13188000   -0.45396100   -1.93539600
 H                 -2.76507900    5.53431300   -0.77110000
 H                  1.61115100    4.54879200    2.53288600
 H                  2.34099900    5.98470300    0.36632200
 H                  0.24312700    3.18158700   -3.94577400
 C                 -0.51971400   -1.93011700   -2.44928200
 C                 -1.26425100   -2.56578000   -1.42201100
 C                 -2.77261400   -2.48202500   -1.42452100
 O                 -3.35114000   -3.76377800   -1.74942700
 C                 -3.39109000   -4.63549200   -0.72978400
 C                 -4.01407800   -5.94023900   -1.15404700
 O                 -2.97642700   -4.39214000    0.37913900
 H                 -1.08284900   -1.40921500   -3.22471400
 H                  0.42451500   -2.34514100   -2.78995400
 H                 -0.87079900   -3.49126400   -1.00964900
 H                 -3.12839600   -1.80231300   -2.20300000
 H                 -3.18729700   -2.16918900   -0.46466200
 H                 -3.41849000   -6.38648900   -1.95457000
 H                 -5.01686200   -5.76076100   -1.54919400
 H                 -4.05851100   -6.61417200   -0.30005500

