107

 P                  2.17748000   -1.03926400   -0.18144400
 C                  2.22756900    0.73497200   -0.69758000
 C                  3.46457900   -1.68591800   -1.34262100
 C                  3.05002300   -1.01321800    1.43537500
 C                  1.10022200    1.28650200   -1.30078500
 C                  1.08421700    2.62070500   -1.73486500
 C                  2.23651600    3.39124500   -1.56241900
 C                  3.37384000    2.84648700   -0.96826400
 C                  3.37397100    1.52528000   -0.53683100
 C                  4.83681500   -1.63352900   -1.07283800
 C                  5.76080400   -2.07489700   -2.01667400
 C                  5.32936300   -2.56148800   -3.24790700
 C                  3.96716600   -2.60311100   -3.53258700
 C                  3.04326900   -2.17290900   -2.58409700
 C                  2.89484400    0.05806200    2.31944600
 C                  3.41076100   -0.00967800    3.61176500
 C                  4.08810800   -1.14876500    4.03578400
 C                  4.23872900   -2.22632600    3.16475700
 C                  3.71603200   -2.16289300    1.87746400
 H                  0.20387500    0.67622100   -1.38937300
 C                 -0.14273000    3.20170100   -2.32950300
 H                  2.24716800    4.42134800   -1.90647400
 H                  4.26357800    3.45674400   -0.84676900
 H                  4.26176000    1.10642000   -0.07013800
 H                  5.19023800   -1.25462200   -0.11840500
 H                  6.82151900   -2.03483400   -1.78832500
 H                  6.05150800   -2.90481800   -3.98203500
 H                  3.62103400   -2.97525100   -4.49200500
 H                  1.98138100   -2.20714500   -2.80859300
 H                  2.35977100    0.95035900    2.00823500
 H                  3.27518000    0.83134800    4.28495200
 H                  4.48869400   -1.20235500    5.04309500
 H                  4.75486600   -3.12364400    3.49155300
 H                  3.81693300   -3.01650200    1.21073000
 P                 -1.98462700   -0.99681100    0.11064800
 C                 -2.17650200    0.83191000    0.16975700
 C                 -3.01017300   -1.52490900    1.55102400
 C                 -3.05584100   -1.45223100   -1.31567700
 C                 -1.22988400    1.54869200    0.90644000
 C                 -1.33400900    2.93395800    1.06964100
 C                 -2.40946700    3.59871800    0.47045600
 C                 -3.34843800    2.89868200   -0.27838600
 C                 -3.23799200    1.51917400   -0.42899700
 C                 -2.90491100   -2.84922300    1.99736600
 C                 -3.69994500   -3.31223200    3.04224700
 C                 -4.59028700   -2.44989000    3.67628100
 C                 -4.68967500   -1.12706900    3.25205700
 C                 -3.91222600   -0.66796100    2.19174700
 C                 -2.72861100   -0.92237900   -2.57265200
 C                 -3.41758800   -1.31437200   -3.71397900
 C                 -4.43673100   -2.26363500   -3.62153000
 C                 -4.76378300   -2.80135100   -2.38162200
 C                 -4.08293500   -2.39539200   -1.23241400
 H                 -0.39986900    1.01341600    1.36803800
 C                 -0.30573300    3.68888800    1.82622700
 H                 -2.48057100    4.67967400    0.55556500
 H                 -4.16199700    3.43193900   -0.76027200
 H                 -3.97946500    0.97692700   -1.00837500
 H                 -2.21413500   -3.53967100    1.52378000
 H                 -3.61295600   -4.34864200    3.35245000
 H                 -5.20334100   -2.80570800    4.49867600
 H                 -5.37836000   -0.44718900    3.74450300
 H                 -4.00700600    0.36362600    1.86713100
 H                 -1.92986400   -0.18734200   -2.64690900
 H                 -3.15560900   -0.88622400   -4.67725600
 H                 -4.97029200   -2.57927300   -4.51253200
 H                 -5.55648500   -3.53866100   -2.29977500
 H                 -4.35471500   -2.81980400   -0.26984600
 Rh                 0.17167600   -2.16730700   -0.08255900
 C                  0.45325000   -2.64744000    1.73209500
 O                  0.60763100   -2.91229800    2.83793700
 H                  0.05880200   -1.95872300   -1.71828800
 C                 -0.52034400    4.51936600   -2.04632800
 C                 -0.95345800    2.44063500   -3.17876700
 C                 -2.48203000    4.28815900   -3.43444300
 C                 -2.11815900    2.97418900   -3.72047300
 C                 -1.67650900    5.05980200   -2.59978600
 H                  0.07867900    5.10758800   -1.35566700
 H                 -1.95783400    6.08204500   -2.36484500
 H                 -3.38779100    4.70854500   -3.86036700
 H                 -2.73682000    2.36524400   -4.37313700
 H                 -0.64481400    1.43153800   -3.43827200
 C                  1.04916900    3.37002400    1.68288200
 C                 -0.66014400    4.73682300    2.68315000
 C                  1.66078300    5.10831600    3.23954900
 C                  0.31494900    5.43928200    3.38493200
 C                  2.02496100    4.07129800    2.38378600
 H                  1.33714000    2.58334600    0.99284700
 H                  3.07071600    3.80939700    2.24720700
 H                  2.41950700    5.65710100    3.78863500
 H                  0.02210400    6.24226500    4.05436800
 H                 -1.70980300    4.98309100    2.81802000
 C                 -0.32953700   -3.51805300   -1.88399700
 C                 -0.83777500   -4.02672600   -0.66635900
 C                 -0.18072000   -5.19519600    0.01626000
 O                 -0.75462100   -6.44276400   -0.44194800
 C                 -1.94899000   -6.74700200    0.08609300
 C                 -2.47247700   -8.04738400   -0.46696700
 O                 -2.52423200   -6.05773000    0.89641100
 H                  0.59483300   -3.93128300   -2.28173900
 H                 -1.03979700   -3.17480100   -2.63451700
 H                 -1.91557000   -3.97700200   -0.52723100
 H                 -0.29520500   -5.16352400    1.10178100
 H                  0.87915200   -5.25451500   -0.23966600
 H                 -2.63707300   -7.94340900   -1.54276500
 H                 -3.40708400   -8.30232400    0.03014400
 H                 -1.73409900   -8.83908800   -0.32068000

