105

 P                 -1.58787600    0.07475400    0.96812400
 C                 -2.16062300   -1.18872100   -0.25061100
 C                 -1.35563100    1.56684600   -0.08625800
 C                 -3.19815000    0.40923500    1.80998200
 C                 -1.59223400   -2.46042300   -0.23111800
 C                 -2.02158900   -3.44504100   -1.12326900
 C                 -3.01063900   -3.14410300   -2.04700800
 C                 -3.59864400   -1.87667000   -2.07298300
 C                 -3.18263200   -0.90954600   -1.17171300
 C                 -1.05350100    1.48305000   -1.44770300
 C                 -0.69904900    2.62060200   -2.17394400
 C                 -0.67241600    3.85728500   -1.54579600
 C                 -0.98925400    3.96544900   -0.19076600
 C                 -1.30887600    2.82724200    0.53244900
 C                 -3.56089100   -0.50377500    2.80798600
 C                 -4.75426700   -0.35981500    3.50789500
 C                 -5.58911200    0.71480300    3.22053600
 C                 -5.24660000    1.62941900    2.22753600
 C                 -4.05939000    1.47434000    1.52071400
 H                 -0.79908200   -2.68377600    0.47589700
 H                 -1.57087500   -4.43196000   -1.11258800
 C                 -3.49424100   -4.17350800   -3.03006000
 H                 -4.37989500   -1.65929700   -2.79499300
 H                 -3.64635300    0.07382700   -1.18517500
 H                 -1.09627200    0.52353000   -1.95321300
 H                 -0.45216400    2.54423900   -3.22738200
 C                 -0.30818000    5.10662600   -2.29439300
 H                 -0.96930800    4.93772700    0.29341700
 H                 -1.52879600    2.91706500    1.59301800
 H                 -2.89990100   -1.33823400    3.03354000
 H                 -5.03028900   -1.07064200    4.27882800
 C                 -6.88903900    0.90307400    3.94941700
 H                 -5.91053100    2.46002200    2.00736100
 H                 -3.80925600    2.18675600    0.74087300
 P                  2.09663200   -0.41929900    0.78922300
 C                  3.74461800   -0.96747500    1.41433800
 C                  2.54819000    1.12455800   -0.11687100
 C                  1.79013100   -1.59988300   -0.59040000
 C                  4.02961900   -0.75285000    2.76451500
 C                  5.27368500   -1.09382600    3.28859600
 C                  6.23206600   -1.66494700    2.45958800
 C                  5.95928500   -1.89489800    1.11215700
 C                  4.72039700   -1.54393100    0.59189300
 C                  3.37963900    1.08680600   -1.24639400
 C                  3.72156400    2.25503400   -1.91046800
 C                  3.24311500    3.48011500   -1.44390600
 C                  2.43478400    3.53753600   -0.31716800
 C                  2.08752900    2.35781500    0.34029000
 C                  1.93341700   -2.97412400   -0.35786700
 C                  1.49064000   -3.89929500   -1.29596200
 C                  0.89397100   -3.45603100   -2.47436300
 C                  0.77185100   -2.09538800   -2.73353900
 C                  1.22235800   -1.17283900   -1.79510800
 H                  3.26124300   -0.32720000    3.40488600
 H                  5.49641400   -0.91930300    4.33559200
 C                  7.55756000   -2.10005300    3.01878400
 H                  6.71680000   -2.34175100    0.47631300
 H                  4.50973700   -1.73850400   -0.45577100
 H                  3.75173400    0.13738000   -1.61990900
 H                  4.36464900    2.22361200   -2.78404400
 C                  3.57844900    4.72822400   -2.21212400
 H                  2.07049200    4.49399300    0.04084100
 H                  1.44573000    2.39909100    1.21427900
 H                  2.37733200   -3.32657600    0.56984600
 H                  1.58300900   -4.96284600   -1.10140700
 C                  0.36987500   -4.45154700   -3.47014900
 H                  0.30014700   -1.75950600   -3.65167400
 H                  1.11675100   -0.11148900   -1.99655700
 Rh                 0.39192100   -0.44744200    2.36261500
 C                  0.56335100   -2.31315400    2.63943800
 O                  0.69519700   -3.43594300    2.85080600
 H                  0.57080300    1.16843400    2.53175600
 F                 -3.42065300   -3.71378100   -4.28755000
 F                 -4.78123700   -4.48373000   -2.80853900
 F                 -2.78856200   -5.30688600   -2.96476200
 F                 -7.01205000    0.06451800    4.98538900
 F                 -7.93703300    0.69837700    3.13787700
 F                 -7.00484800    2.15357600    4.42088900
 F                  0.03162000    4.85863200   -3.56151700
 F                  0.72436700    5.73762100   -1.70703600
 F                 -1.32745900    5.97872500   -2.30758900
 F                  7.56518000   -3.41375500    3.28921000
 F                  7.85438500   -1.45853800    4.15581100
 F                  8.55306800   -1.87536700    2.14949000
 F                  4.84171600    4.69534400   -2.66371000
 F                  3.44006900    5.82979900   -1.46785800
 F                  2.78673300    4.86201900   -3.28673700
 F                 -0.00800800   -5.58989500   -2.86898900
 F                  1.28911700   -4.77586800   -4.38906200
 F                 -0.69309900   -3.96652200   -4.12857400
 C                 -0.36634500   -0.25385400    4.41682300
 C                  0.27541500    0.97535600    4.17767500
 C                 -0.57665600    2.22693300    4.12816300
 O                 -0.89928300    2.66339800    5.45296000
 C                  0.09201000    3.30583500    6.10583200
 C                 -0.35272500    3.72701000    7.48009700
 O                  1.18064500    3.50124600    5.62574200
 H                 -1.45302200   -0.26597600    4.46565200
 H                  0.14109600   -1.01329300    5.00233100
 H                  1.28478600    1.13495900    4.54567100
 H                 -1.54080200    2.00325100    3.66183200
 H                 -0.07714600    3.04325600    3.59855600
 H                 -0.61632700    2.84228100    8.06535200
 H                 -1.24593300    4.35182800    7.40601000
 H                  0.45276000    4.27307500    7.96809300