105

 P                 -1.91352700    0.09897700    0.80288300
 C                 -2.29999800   -1.30523300   -0.32544100
 C                 -1.83579300    1.54123600   -0.34178200
 C                 -3.54385200    0.36172800    1.63008800
 C                 -1.60353700   -2.50275900   -0.17652200
 C                 -1.87734200   -3.59261700   -1.00420500
 C                 -2.83861200   -3.47176000   -1.99606100
 C                 -3.54884000   -2.27984300   -2.15643000
 C                 -3.28654700   -1.20698900   -1.31898700
 C                 -1.44738000    1.41635800   -1.67760600
 C                 -1.16738800    2.54643000   -2.44306800
 C                 -1.30366100    3.81006500   -1.88172400
 C                 -1.74275600    3.95445900   -0.56634800
 C                 -1.99542700    2.82489400    0.19902900
 C                 -3.71677100   -0.17165200    2.91001700
 C                 -4.93629600   -0.04775300    3.57099400
 C                 -5.98453400    0.62420200    2.95329400
 C                 -5.82571700    1.16872100    1.68018100
 C                 -4.61018800    1.03566700    1.02137600
 H                 -0.82585900   -2.58680600    0.57519100
 H                 -1.32414500   -4.51930500   -0.89371800
 C                 -3.15958900   -4.62094600   -2.91105500
 H                 -4.30070100   -2.20058200   -2.93560300
 H                 -3.84083600   -0.28161800   -1.44877100
 H                 -1.34613600    0.43170100   -2.12272600
 H                 -0.82736600    2.44354900   -3.46874700
 C                 -0.98165900    5.02523600   -2.70401300
 H                 -1.85501200    4.94523900   -0.13818500
 H                 -2.30415200    2.93919100    1.23610300
 H                 -2.88281800   -0.67676800    3.39122900
 H                 -5.07044400   -0.46868600    4.56146400
 C                 -7.29076900    0.82596900    3.66863900
 H                 -6.65299000    1.68970000    1.20852000
 H                 -4.48962100    1.47422300    0.03490800
 P                  1.80621500    0.15794400    0.80456200
 C                  3.45704500   -0.20536000    1.55570600
 C                  2.15276400    1.62185300   -0.26153200
 C                  1.66629100   -1.18222200   -0.46642600
 C                  3.51661500   -1.21906500    2.52463300
 C                  4.71163200   -1.53319500    3.15796600
 C                  5.86208500   -0.80975100    2.85104700
 C                  5.81655700    0.21773800    1.91661100
 C                  4.61969400    0.51538700    1.26912300
 C                  2.99481200    1.56102100   -1.38481500
 C                  3.21180300    2.68677300   -2.16474600
 C                  2.59104500    3.89187300   -1.82802600
 C                  1.76015500    3.97245000   -0.72014200
 C                  1.54005100    2.83334000    0.05656200
 C                  1.95787300   -2.51251100   -0.14127400
 C                  1.66132800   -3.54308100   -1.02659600
 C                  1.06025900   -3.25614000   -2.24904900
 C                  0.78639800   -1.93873800   -2.60063400
 C                  1.09185300   -0.91177700   -1.71488700
 H                  2.61039000   -1.74426500    2.81623900
 H                  4.74679600   -2.32211200    3.90225400
 C                  7.13455300   -1.10329800    3.59387900
 H                  6.71467900    0.78189200    1.68896300
 H                  4.60233100    1.32286300    0.54563300
 H                  3.47229900    0.62174500   -1.65210200
 H                  3.85691300    2.63788400   -3.03665300
 C                  2.88058200    5.10227100   -2.67205600
 H                  1.27036300    4.90964600   -0.47720600
 H                  0.86847300    2.88153300    0.90952200
 H                  2.41108500   -2.75893200    0.81336800
 H                  1.87629900   -4.57198800   -0.75660200
 C                  0.70213200   -4.36901800   -3.19111600
 H                  0.31372500   -1.71944200   -3.55316300
 H                  0.87439500    0.11274800   -1.99702100
 Rh                -0.10922300    0.08332200    2.28911000
 C                 -0.10939400   -1.74394600    2.84207500
 O                 -0.06183000   -2.84203800    3.17932200
 H                 -0.38889500    1.68947500    2.23995500
 F                 -3.10807500   -4.24425800   -4.19667700
 F                 -4.40341300   -5.07569000   -2.69226600
 F                 -2.31964100   -5.64713700   -2.74776800
 F                 -7.43615900   -0.02103600    4.69464700
 F                 -8.33188200    0.65216100    2.84229000
 F                 -7.38833100    2.07030300    4.16059800
 F                  0.02593100    4.78182600   -3.55492400
 F                 -0.62124900    6.05910400   -1.92869900
 F                 -2.02841400    5.42688500   -3.43715300
 F                  7.27138500   -2.41498800    3.83201700
 F                  7.16090900   -0.48445500    4.78320500
 F                  8.21383200   -0.69627500    2.91189500
 F                  2.72560500    4.83501500   -3.97593100
 F                  4.15109500    5.50442900   -2.50872100
 F                  2.08975900    6.13467900   -2.36399000
 F                  0.44524400   -5.50731100   -2.52832200
 F                  1.68749300   -4.63217600   -4.05964800
 F                 -0.38786800   -4.06430800   -3.91268400
 C                 -0.40388100    1.69235800    3.85428000
 C                  0.59643200    0.75428600    4.22818100
 C                  2.01979800    1.23090900    4.32391300
 O                  2.24210300    1.97260900    5.54174700
 C                  2.39116800    1.22161900    6.64833400
 C                  2.64088200    2.08392200    7.85789900
 O                  2.33169200    0.01639800    6.64937100
 H                 -0.09948800    2.73208600    3.72845700
 H                 -1.42509700    1.57704300    4.20622700
 H                  0.32475100   -0.01852600    4.94230800
 H                  2.24891100    1.93955900    3.52194700
 H                  2.72874800    0.40344300    4.29225900
 H                  1.80696700    2.77682700    7.99507900
 H                  3.54428200    2.67967900    7.70567800
 H                  2.75196900    1.45007700    8.73607800