95

 P                 -2.11463900   -0.70931700    0.13693400
 C                 -1.94870100    1.09165500    0.48850300
 C                 -3.32951300   -1.25173700    1.40602200
 C                 -3.11900500   -0.71382600   -1.40262000
 C                 -2.76585900    2.06287100   -0.09835200
 C                 -2.59711200    3.40917000    0.20688800
 C                 -1.60810300    3.81180500    1.11273200
 C                 -0.78498000    2.84142900    1.70107900
 C                 -0.95557300    1.50140700    1.38607000
 C                 -3.76892200   -2.58177700    1.34833600
 C                 -4.58435000   -3.10003100    2.34535900
 C                 -4.97034100   -2.29411100    3.41725800
 C                 -4.55383900   -0.96898900    3.47265300
 C                 -3.73800700   -0.44390100    2.46841500
 C                 -4.51468000   -0.60677400   -1.38690200
 C                 -5.23386000   -0.57059300   -2.57479300
 C                 -4.56843300   -0.64036100   -3.80649100
 C                 -3.17231100   -0.75392800   -3.82572500
 C                 -2.45984300   -0.79509000   -2.63422800
 H                 -3.53818000    1.77355300   -0.80429000
 H                 -3.23144700    4.15940900   -0.25353200
 C                 -1.43872200    5.19711900    1.44178600
 H                 -0.00677900    3.15143500    2.39068400
 H                 -0.29819300    0.75545100    1.82441400
 H                 -3.43705700   -3.21957100    0.53121000
 H                 -4.88799500   -4.14054800    2.30988300
 H                 -5.58636900   -2.70659000    4.20968100
 H                 -4.85624400   -0.33635800    4.30155700
 H                 -3.41489400    0.59133200    2.52441700
 H                 -5.04159500   -0.55210100   -0.43820900
 H                 -6.31567600   -0.49011100   -2.56032500
 C                 -5.31035000   -0.60307500   -5.03354900
 H                 -2.65649800   -0.82124200   -4.77762400
 H                 -1.37861800   -0.91112200   -2.65746300
 P                  1.71088600   -0.72397100   -0.47450700
 C                  3.09695300   -0.91780500    0.72164200
 C                  1.59908300    1.10537700   -0.65020600
 C                  2.52464400   -1.17935800   -2.06307200
 C                  2.85733200   -0.57776600    2.06203800
 C                  3.82866300   -0.76362700    3.03415900
 C                  5.06947400   -1.32166800    2.69104700
 C                  5.31049300   -1.67428300    1.35860900
 C                  4.33672900   -1.46985900    0.38559800
 C                  2.43962600    2.01809200   -0.00710000
 C                  2.25840200    3.38818200   -0.17490200
 C                  1.23760100    3.87252500   -1.00042100
 C                  0.39582000    2.95918600   -1.65327500
 C                  0.57561800    1.59756700   -1.47171000
 C                  3.32125700   -0.28218300   -2.78417500
 C                  3.95257400   -0.68782800   -3.95651200
 C                  3.80255900   -1.99472600   -4.41704000
 C                  3.01725000   -2.89545300   -3.70283900
 C                  2.37710100   -2.48781000   -2.53439700
 H                  1.89450200   -0.15519600    2.34257000
 H                  3.63655600   -0.48852800    4.06603900
 C                  6.07414300   -1.52806200    3.69336600
 H                  6.26887300   -2.10629500    1.09017400
 H                  4.54822300   -1.74432400   -0.64327600
 H                  3.24707900    1.66412500    0.62648200
 H                  2.91309300    4.09274200    0.32755500
 C                  1.05201400    5.28216800   -1.18514300
 H                 -0.40396600    3.33021200   -2.28562700
 H                 -0.10075800    0.90053800   -1.96190400
 H                  3.44717200    0.73661000   -2.42820200
 H                  4.56292000    0.01827400   -4.51101600
 H                  4.29472600   -2.30818100   -5.33246900
 H                  2.89334600   -3.91385000   -4.05747900
 H                  1.75509200   -3.18579200   -1.98031800
 Rh                -0.21991700   -2.02856600    0.17486700
 C                 -0.80688100   -3.17296300   -1.22002200
 O                 -1.16938300   -3.90037600   -2.03451500
 H                 -0.02792400   -1.46799700    1.70986200
 C                  6.91885400   -1.70036700    4.53703200
 H                  7.66614800   -1.85369400    5.28281500
 C                  0.89310000    6.46619800   -1.35141200
 H                  0.74666700    7.51319300   -1.49299700
 C                 -1.29746300    6.35939600    1.73110100
 H                 -1.16636700    7.38806300    1.98109600
 C                 -5.93443700   -0.57009400   -6.06512000
 H                 -6.48595600   -0.54283800   -6.97798100
 C                  0.95711700   -3.61450000    1.07786100
 C                  0.30390200   -2.99157800    2.17506800
 C                 -0.94848700   -3.58114300    2.76646600
 O                 -0.54152400   -4.41760000    3.86634100
 C                 -1.53466900   -5.09700100    4.46238600
 C                 -1.01062200   -5.93249200    5.60238500
 O                 -2.68846800   -5.03481100    4.11417900
 H                  0.55912200   -4.56176900    0.72221600
 H                  2.03345300   -3.49547700    0.97825300
 H                  0.94149400   -2.49653000    2.90884600
 H                 -1.48606900   -4.18476300    2.02898900
 H                 -1.63924100   -2.82012400    3.14356900
 H                 -0.52851700   -5.28747400    6.34124700
 H                 -0.25614900   -6.63066700    5.23161700
 H                 -1.83509500   -6.47691400    6.05994500