105

 H                  6.70475800   10.63266700    3.52229500
 H                  6.62773600    8.17463900    3.68790400
 H                  8.29428200    3.85975900    4.12099100
 H                 10.05905400    3.23884700    2.50425600
 H                 11.67082800    7.21426400    2.74760200
 H                  9.91021800    7.83418400    4.36568200
 H                  2.58449900    3.69197500    5.82697800
 H                  0.17278900    3.08997800    5.60488300
 H                 -0.91548100    7.02216000    6.94972900
 H                  1.47897200    7.61213600    7.17151100
 H                  3.21141500    9.94350000    3.79646500
 H                  3.10191800    7.56331700    4.42040400
 C                  7.13984300   10.13821200    4.38851000
 C                  7.09579600    8.75155300    4.48279600
 C                  8.97793500    5.88929500    4.35194200
 C                  9.03556700    4.59580700    3.81820600
 C                 10.03299100    4.24443100    2.91215300
 C                 10.98082500    5.18724900    2.52207100
 C                 10.93204600    6.47696800    3.04721800
 C                  9.93917900    6.82730400    3.95875100
 C                  2.18162700    5.68256800    6.51348300
 C                  1.80499500    4.41140600    6.07151700
 C                  0.45671200    4.07950700    5.94951000
 C                 -0.52196800    5.01806300    6.26390400
 C                 -0.15334900    6.28893300    6.70451100
 C                  1.19212800    6.62097200    6.82947200
 C                  4.02996700    7.84204100    6.34983600
 C                  4.15690400   10.56515200    5.62833900
 C                  3.59714500    9.62144800    4.76158700
 C                  3.54133200    8.27908400    5.11068100
 H                  8.67107900    8.37098900    7.46430400
 H                  8.70009800   10.82780400    7.31112100
 H                  4.95925800    8.47868000    8.19062400
 H                  5.09024900   10.84414100    7.54180700
 C                  7.65915000    8.08869700    5.57888600
 C                  8.22739200    8.85713400    6.59974700
 C                  8.24996800   10.24596500    6.50904900
 C                  7.72026600   10.90792800    5.39878700
 C                  4.57649800    8.78366100    7.22247600
 C                  4.64155400   10.12659700    6.85870100
 H                 10.34300600    5.14747900    6.38933300
 H                  9.84980000    4.85954600   10.63994400
 H                 11.20884000    4.50862200    8.61650100
 H                  5.05666900    5.11032900   12.23482700
 H                  2.19140800    5.33619300    9.05619900
 H                  2.74941600    4.85368900   11.41411700
 C                  9.73007500    5.29753100    7.27275400
 C                  8.44793500    5.83449000    7.13899200
 C                  7.70259100    6.00655700    8.30689800
 C                  8.17084900    5.69396500    9.58116400
 C                  9.44646200    5.13668400    9.67169700
 C                 10.21649400    4.93848100    8.52795400
 C                  5.48473100    6.08800400    9.03594600
 C                  5.83745400    5.80796000   10.35480400
 C                  4.82804500    5.35307300   11.20243700
 C                  3.52309400    5.20434600   10.73913100
 C                  3.20549200    5.48545400    9.41285200
 C                  4.19377500    5.92362100    8.52837600
 C                  7.28331000    6.07307100   10.76402000
 O                  6.44124800    6.53913200    8.15666100
 P                  7.62186400    6.24756000    5.54722300
 P                  3.97259700    6.04171400    6.70521400
 C                  7.44159100    7.59230600   11.00347000
 H                  7.17911000    8.15769000   10.10310200
 H                  6.78705500    7.91647300   11.81939000
 H                  8.47882700    7.82512000   11.26657200
 C                  7.66730700    5.32135900   12.03752500
 H                  7.03731700    5.63691000   12.87396000
 H                  7.56615700    4.23916800   11.90931700
 H                  8.70005300    5.54699600   12.31746600
 C                  4.20201400   12.02405600    5.24964500
 C                  7.83202700   12.40813900    5.27410200
 H                 -1.57244100    4.76255400    6.16423000
 H                 11.75402200    4.91911200    1.80869100
 Rh                 5.40572300    4.64191300    5.49722000
 H                  6.11631300    3.56110300    4.51301900
 C                  5.76088400    3.53259500    6.95040000
 O                  5.95625200    2.85795900    7.86228400
 H                  4.96946800   12.53044800    5.84599000
 H                  4.50218500   12.12171800    4.19852400
 C                  2.84815700   12.71108300    5.46018400
 H                  2.07207900   12.22823600    4.85827700
 H                  2.54471600   12.64484400    6.50931900
 H                  2.89188100   13.76744200    5.17964700
 H                  7.08677300   12.77456900    4.55918900
 H                  7.60466500   12.87809600    6.23901500
 C                  9.23192100   12.83409200    4.81705400
 H                  9.30627300   13.92191700    4.72927600
 H                  9.99048500   12.49425800    5.52886800
 H                  9.46708400   12.39219000    3.84412800
 C                  4.61117500    5.35581700    3.57041500
 C                  5.27980300    4.14805200    3.27076300
 C                  4.47879400    2.90139100    2.96783600
 O                  4.10049600    2.87487700    1.58008800
 C                  5.07210300    2.51457700    0.72264900
 C                  4.56628300    2.51837800   -0.69647700
 O                  6.19452700    2.23113100    1.06318600
 H                  3.52387000    5.33856200    3.62968100
 H                  5.05238400    6.30199500    3.27261800
 H                  6.21902200    4.21181000    2.72223400
 H                  3.53878200    2.91188100    3.52178800
 H                  5.03766000    1.99204500    3.19809100
 H                  4.24105100    3.52678400   -0.96499500
 H                  3.70046300    1.85767500   -0.78388700
 H                  5.36156000    2.19098100   -1.36412500

