105

 H                  6.74577400    9.86389600    2.24820100
 H                  6.85002000    7.52872100    3.03056700
 H                  7.95636500    3.62360400    4.64173900
 H                  9.76927900    2.64280600    3.27918800
 H                 11.49563600    6.54369200    2.76884000
 H                  9.67005100    7.52949500    4.10574600
 H                  2.11758900    3.91729700    6.20649300
 H                 -0.33756000    3.59458100    6.10197200
 H                 -0.92102800    7.71288100    7.17432000
 H                  1.52868200    8.02697700    7.31153400
 H                  4.04344000   10.39925600    4.47414900
 H                  3.77369600    7.95362800    4.70988300
 C                  6.96728500    9.65576500    3.29306000
 C                  7.01812900    8.34169000    3.73537700
 C                  8.70706000    5.63640900    4.49629000
 C                  8.74957500    4.25955000    4.25328200
 C                  9.77399200    3.70628600    3.48964700
 C                 10.76671800    4.52566800    2.96090000
 C                 10.72900300    5.89973000    3.18932600
 C                  9.70285500    6.45459800    3.94863000
 C                  1.98489900    5.98822000    6.77884300
 C                  1.44748800    4.74262100    6.43458400
 C                  0.06859900    4.56511500    6.36932000
 C                 -0.78633200    5.63292400    6.63505000
 C                 -0.25871800    6.87692600    6.97113000
 C                  1.12135600    7.05486500    7.04655000
 C                  4.06908400    7.95356400    6.84386300
 C                  4.41085600   10.73725300    6.56721700
 C                  4.11683200    9.93955600    5.45715000
 C                  3.96440400    8.56703900    5.58804900
 H                  7.73919100    8.90752500    7.00493100
 H                  7.64297400   11.23517400    6.20954400
 H                  4.44950700    8.29701200    8.94181300
 H                  4.77203500   10.72591900    8.68517400
 C                  7.31894500    8.04535300    5.07446400
 C                  7.52867700    9.10366200    5.95784000
 C                  7.47395700   10.42270900    5.50557400
 C                  7.20245500   10.72063200    4.17230100
 C                  4.35880100    8.74604700    7.95687700
 C                  4.53351100   10.12193400    7.81222100
 H                 10.05016800    7.21342500    6.51569400
 H                  9.80379600    6.51080200   10.73866700
 H                 11.04495600    7.33144200    8.77623900
 H                  5.04391400    5.73103900   12.46363600
 H                  2.06745900    6.15844700    9.40491100
 H                  2.69745800    6.05666600   11.79535500
 C                  9.49054800    6.85293600    7.37423700
 C                  8.20272300    6.33842400    7.18904600
 C                  7.54136500    5.86972600    8.32179900
 C                  8.07461400    5.90114400    9.61372600
 C                  9.34452700    6.45208500    9.75709500
 C                 10.04981400    6.91932500    8.64544100
 C                  5.37469800    5.55196600    9.11491600
 C                  5.77796900    5.53390800   10.44913500
 C                  4.78648400    5.73142600   11.40935600
 C                  3.45717100    5.92340300   11.03221700
 C                  3.09903800    5.96900900    9.68650500
 C                  4.06988700    5.80789300    8.69501200
 C                  7.25327500    5.24824400   10.72758400
 O                  6.29444800    5.35026700    8.12700300
 P                  7.33318100    6.26887500    5.55273600
 P                  3.81410700    6.13221300    6.89472400
 C                  7.67695800    5.73722400   12.11229300
 H                  7.54140200    6.81847800   12.21609800
 H                  7.09566500    5.23466800   12.89039400
 H                  8.72712600    5.49600500   12.29874500
 C                  7.46739000    3.71987600   10.64018600
 H                  6.86888200    3.21274900   11.40412900
 H                  7.16884200    3.33865400    9.65904100
 H                  8.52375300    3.47925800   10.79839600
 C                  4.56449100   12.23039700    6.42230000
 C                  7.20544000   12.14297000    3.66642100
 H                 -1.86171500    5.49667100    6.57535300
 H                 11.55996000    4.09703900    2.35629200
 Rh                 4.99781400    4.98755200    5.18680500
 H                  3.64435000    5.13593500    4.36828900
 C                  5.10096200    3.23924100    5.99749200
 O                  4.95850900    2.17080900    6.40103300
 H                  5.35943500   12.58631100    7.08895700
 H                  4.87896600   12.46428000    5.39858800
 C                  3.25947400   12.96877900    6.74082900
 H                  2.46012200   12.64047200    6.06958200
 H                  2.93959500   12.76048800    7.76645000
 H                  3.37911000   14.05050700    6.63104200
 H                  6.32361900   12.31302400    3.03567100
 H                  7.12648500   12.83287000    4.51426300
 C                  8.47281000   12.46103900    2.86504000
 H                  8.46186000   13.49211800    2.50012600
 H                  9.36250700   12.32390000    3.48675200
 H                  8.56355300   11.79372600    2.00248000
 C                  4.47279500    5.49007000    3.08404800
 C                  5.54815300    4.53319000    3.20824400
 C                  5.29983400    3.11568100    2.77534100
 O                  5.41456300    2.96913400    1.33929900
 C                  6.65186100    2.75808600    0.86834200
 C                  6.64963800    2.68381100   -0.63801800
 O                  7.63273600    2.64455600    1.56396700
 H                  3.56707300    5.17059400    2.56619700
 H                  4.70347500    6.53580100    2.89314600
 H                  6.55891900    4.88221100    2.99792800
 H                  4.27455200    2.81447300    3.00382500
 H                  5.99997700    2.42276500    3.24742400
 H                  6.33628200    3.64744600   -1.04845000
 H                  5.93115000    1.93245700   -0.97375800
 H                  7.65022000    2.43737900   -0.98987500

