91

 P                  1.89726700    0.37404600   -0.31910700
 C                  3.13700300    0.94879300    0.91869000
 C                  2.72799700    0.77805800   -1.91152800
 C                  2.13788300   -1.46354700   -0.16509000
 C                  2.84251700    2.04347600    1.73330200
 C                  3.77715000    2.51238500    2.65554900
 C                  5.01366900    1.88705400    2.76982700
 C                  5.31667800    0.79057400    1.96220500
 C                  4.38440500    0.32316200    1.04364400
 C                  3.72360900    1.75583200   -1.99038400
 C                  4.17760000    2.20606800   -3.23123900
 C                  3.66595300    1.66490800   -4.40492500
 C                  2.67970100    0.67866200   -4.33800900
 C                  2.20324300    0.25354300   -3.10373600
 C                  1.51179300   -2.16239700    0.88776500
 C                  1.58537300   -3.55362500    0.95876800
 C                  2.29213800   -4.27646600    0.00513400
 C                  2.93217300   -3.59556400   -1.02550600
 C                  2.85209100   -2.20472500   -1.11075800
 H                  1.87592300    2.53029400    1.64773900
 H                  3.53425100    3.36446400    3.28212300
 H                  5.74238100    2.24988600    3.48783500
 H                  6.28058100    0.29917400    2.05037700
 H                  4.62453600   -0.53214600    0.41716600
 H                  4.12916500    2.20462900   -1.08863400
 H                  4.92796300    2.98964000   -3.26392600
 H                  4.02382700    2.01146500   -5.36934300
 H                  2.27037900    0.25259700   -5.24890800
 H                  1.40706300   -0.48801400   -3.06283300
 C                  0.76123500   -1.47556900    1.98149000
 H                  1.07682000   -4.04717400    1.78086500
 H                  2.34753500   -5.35840700    0.06785800
 H                  3.50042600   -4.14277600   -1.77196200
 H                  3.35506200   -1.69709200   -1.92704700
 P                 -2.23416900   -0.09366100   -0.31451500
 C                 -2.09007300   -1.87365300   -0.78008300
 C                 -3.59154700    0.33834800   -1.49664300
 C                 -3.07511400   -0.14375300    1.32753100
 C                 -0.91293000   -2.30991800   -1.38430600
 C                 -0.78620200   -3.62606700   -1.83034200
 C                 -1.84354900   -4.51374900   -1.67274200
 C                 -3.03371500   -4.08208100   -1.08302700
 C                 -3.16017000   -2.76926500   -0.64772600
 C                 -4.94586300    0.37075400   -1.15126600
 C                 -5.91211900    0.67089100   -2.11010200
 C                 -5.54074500    0.92523900   -3.42654800
 C                 -4.19551400    0.87120700   -3.78562700
 C                 -3.22997900    0.58287500   -2.82673800
 C                 -2.91623700   -1.26732400    2.14411600
 C                 -3.42292100   -1.28872800    3.44192400
 C                 -4.11734900   -0.19364500    3.94577300
 C                 -4.27032000    0.93669000    3.15350200
 C                 -3.74069300    0.98075200    1.86249500
 H                 -0.09290100   -1.60920500   -1.50417800
 H                  0.14282100   -3.94939500   -2.29003600
 H                 -1.74915200   -5.54049200   -2.01277000
 H                 -3.86541900   -4.77053200   -0.96992600
 H                 -4.09324000   -2.43450700   -0.20075700
 H                 -5.25690500    0.16162800   -0.13180300
 H                 -6.95851400    0.70278800   -1.82302000
 H                 -6.29506500    1.16091100   -4.17046600
 H                 -3.89686800    1.05660400   -4.81283700
 H                 -2.18214600    0.53344600   -3.11313000
 H                 -2.36923700   -2.13033800    1.78186300
 H                 -3.26204900   -2.16812400    4.05728400
 H                 -4.51877200   -0.21328300    4.95376300
 H                 -4.78331700    1.82079400    3.51838100
 C                 -3.87369000    2.27749100    1.12996600
 Rh                -0.37665400    1.30143600   -0.30392600
 C                 -0.60812900    1.81412700    1.49552400
 O                 -0.75077800    2.11829500    2.59428400
 H                 -0.30500200    1.01404800   -1.92774100
 O                  0.02003700   -2.06817800    2.73425400
 H                  0.93211900   -0.39280900    2.10650500
 O                 -4.53791600    3.19975900    1.54655000
 H                 -3.30401800    2.37889700    0.18892400
 C                 -0.29039800    2.61119800   -2.20867100
 C                 -0.14034100    3.38392800   -1.04114800
 C                  1.19593800    3.98477100   -0.71759800
 O                  1.44193900    5.08344500   -1.62508800
 C                  2.72931000    5.40940600   -1.81464800
 C                  2.86133400    6.50787500   -2.83868800
 O                  3.65352600    4.87580700   -1.24805900
 H                  0.58194700    2.47080400   -2.84851200
 H                 -1.24630900    2.61733400   -2.72492600
 H                 -1.01100600    3.92572500   -0.68059900
 H                  2.00496000    3.26432100   -0.83957300
 H                  1.23260900    4.37659600    0.30428900
 H                  2.21341300    7.34679100   -2.57574500
 H                  2.53765500    6.13221800   -3.81340600
 H                  3.90012000    6.83024000   -2.89169900

