97

 H                  4.29100700   -4.13469800    2.68910200
 H                  2.26953300   -3.11622000    1.68000600
 H                  2.22363300    1.60264000    2.25618100
 H                  2.71869400    3.99818800    1.90628300
 H                  2.26416700    3.47412800   -2.33261800
 H                  1.85105700    1.05780000   -1.99741900
 H                 -2.31409900    1.27517200   -2.32211000
 H                 -1.69686700    3.53865500   -3.10417300
 H                 -0.32815300    4.54371500    0.84113400
 H                 -0.88803400    2.24687400    1.61618000
 H                 -5.90919600   -1.37132100    3.17243300
 H                 -3.61436300   -1.59534600    2.25684100
 C                  4.31314100   -3.11150500    2.33017300
 C                  3.18703400   -2.53670400    1.75945900
 C                  2.03435300    1.15147100    0.15091700
 C                  2.25202500    2.00273400    1.24515900
 C                  2.52252500    3.34945900    1.05893600
 C                  2.53516700    3.87832700   -0.23802600
 C                  2.27028900    3.05183600   -1.33298400
 C                  2.03038300    1.69468900   -1.13666000
 C                 -1.64579500    1.61122000   -0.29590300
 C                 -1.87101000    1.98065900   -1.62545800
 C                 -1.53248600    3.25264900   -2.07070400
 C                 -0.97804700    4.17454600   -1.17822600
 C                 -0.76324200    3.82143600    0.15832200
 C                 -1.08487700    2.54064200    0.58745400
 C                 -3.72276900    0.21633700    1.09275000
 C                 -6.29927200    0.47859500    2.13976900
 C                 -5.51400900   -0.62400600    2.49293700
 C                 -4.23111900   -0.74624900    1.97463200
 H                  4.43365200    0.55010600    1.05200800
 H                  6.42938400   -0.45243500    2.10922100
 H                 -4.14505800    2.06036000    0.05216700
 H                 -6.41760300    2.29864800    0.99690400
 C                  3.21071100   -1.21233900    1.29911700
 C                  4.38700900   -0.46944800    1.42076700
 C                  5.51685800   -1.03019100    2.00880600
 C                  5.48171700   -2.35138800    2.46241300
 C                 -4.52101100    1.30873800    0.73929900
 C                 -5.80095300    1.44718700    1.26365300
 H                  3.91373300   -2.16679000   -0.84967800
 H                  2.03729300   -3.43609200   -4.47847900
 H                  3.98551900   -3.40268500   -2.96895700
 H                 -3.02752400   -3.06803100   -4.37953400
 H                 -4.59728800   -1.34508100   -0.77945400
 H                 -4.90304600   -2.68703900   -2.83203400
 C                  3.05095700   -2.14442500   -1.50547300
 C                  1.90215200   -1.43426900   -1.13436400
 C                  0.84568100   -1.43094300   -2.04282500
 C                  0.84376200   -2.13754400   -3.24627300
 C                  1.99101200   -2.86214400   -3.55910700
 C                  3.09094500   -2.84947100   -2.70373500
 C                 -1.46572200   -1.22058200   -2.03767100
 C                 -1.60538900   -1.94417600   -3.21773000
 C                 -2.86569800   -2.48150500   -3.48127500
 C                 -3.92911000   -2.26642900   -2.60592300
 C                 -3.75803300   -1.51099600   -1.44748600
 C                 -2.50263400   -0.98293300   -1.14051400
 C                 -0.38962500   -2.00863500   -4.13741800
 O                 -0.24881100   -0.67144600   -1.70629800
 P                  1.65609200   -0.61417600    0.51005100
 P                 -2.04491800   -0.05837200    0.37692400
 C                 -0.49262100   -3.14939700   -5.14852900
 H                  0.37366100   -3.15057100   -5.81568100
 H                 -0.55496900   -4.12250100   -4.65164800
 H                 -1.37612400   -3.02050900   -5.77984700
 C                 -0.29638900   -0.66320700   -4.89385300
 H                  0.59007600   -0.65323500   -5.53613600
 H                 -1.18548600   -0.51935400   -5.51637800
 H                 -0.22511000    0.17551500   -4.19322900
 C                 -7.62653500    0.61632400    2.67996100
 C                  6.65357000   -2.93245700    3.06283900
 C                 -0.60618600    5.48200200   -1.65086100
 C                  2.81342100    5.27700600   -0.42945100
 Rh                -0.52741200   -0.98112800    1.92747600
 H                 -1.61313200   -0.39154300    2.90785700
 C                 -0.90122800   -2.87985600    1.68780600
 O                 -1.30150600   -3.95472500    1.70050600
 N                 -8.69397800    0.72621100    3.11199800
 N                  7.59839300   -3.39758600    3.54159600
 N                 -0.30572700    6.52640900   -2.04787100
 N                  3.04747000    6.40200400   -0.56400800
 C                 -0.51780000    0.11750100    3.86116000
 C                  0.29041300   -1.07568900    3.90953600
 C                  1.76118600   -0.91548100    4.16307300
 O                  2.00005600   -0.49818000    5.52586000
 C                  1.97029200   -1.48031500    6.44543300
 C                  2.23707800   -0.93602100    7.82486100
 O                  1.75903500   -2.63817500    6.18099900
 H                 -0.01410300    1.07407300    3.72096000
 H                 -1.36746900    0.20677700    4.53859100
 H                 -0.12990300   -1.91905700    4.45402500
 H                  2.19656200   -0.11541100    3.55974000
 H                  2.31101700   -1.84022800    3.99098300
 H                  1.47913000   -0.19087100    8.07944900
 H                  3.20976800   -0.43841400    7.84447100
 H                  2.21748600   -1.75270900    8.54458000
