97

 H                  5.69073100   -3.09294700    2.98347700
 H                  3.36916500   -2.60991800    2.19110900
 H                  2.84188000    1.39302900    2.00983400
 H                  2.78114800    3.85659600    1.77690600
 H                  1.67238000    3.43920200   -2.35239800
 H                  1.74675000    0.97947400   -2.13220500
 H                 -1.99888500    1.27479400   -2.27215800
 H                 -1.76992100    3.53367000   -3.24536800
 H                 -0.69290100    5.10555700    0.60264400
 H                 -0.86448100    2.83183900    1.57660400
 H                 -4.47184900   -1.36581900    4.13137800
 H                 -2.60802100   -1.50210600    2.53273300
 C                  5.50965500   -2.33098200    2.23312900
 C                  4.21911600   -2.06192500    1.78906500
 C                  2.27819900    1.01364900   -0.03942800
 C                  2.57679900    1.83807600    1.05462600
 C                  2.55104400    3.21865700    0.93020800
 C                  2.21636100    3.79257200   -0.30169000
 C                  1.93048100    2.98275900   -1.40255000
 C                  1.96627100    1.59857800   -1.26925700
 C                 -1.45502800    1.89164200   -0.27540000
 C                 -1.69729600    2.10222900   -1.63712900
 C                 -1.57649400    3.37178400   -2.18998200
 C                 -1.22373700    4.45599600   -1.38019400
 C                 -0.97822600    4.26047400   -0.01574100
 C                 -1.07631000    2.98335100    0.52002500
 C                 -3.03410300    0.39600700    1.58867100
 C                 -5.18169100    0.53157600    3.37606100
 C                 -4.32833200   -0.57669000    3.40169700
 C                 -3.26752900   -0.63796300    2.50776800
 H                  4.90800600    0.40958100   -0.44898600
 H                  7.21119200   -0.06066300    0.34504700
 H                 -3.75033300    2.29824400    0.85696100
 H                 -5.64755200    2.41147000    2.43615000
 C                  3.99481300   -1.07867500    0.82126300
 C                  5.07704000   -0.35760700    0.30200200
 C                  6.36814000   -0.61612200    0.74138800
 C                  6.58309400   -1.60559700    1.70904000
 C                 -3.90518400    1.49140500    1.56633900
 C                 -4.97358300    1.56152400    2.45272900
 H                  4.26237800   -2.38684400   -1.37775300
 H                  1.80592000   -3.68377100   -4.63562200
 H                  3.95932400   -3.70239500   -3.44413500
 H                 -3.15308300   -3.07493000   -3.83043900
 H                 -4.19795700   -1.01325900   -0.22208000
 H                 -4.81162100   -2.48876500   -2.10851800
 C                  3.31988100   -2.33904300   -1.91336100
 C                  2.27458800   -1.55622900   -1.41721900
 C                  1.07733200   -1.53817600   -2.13879100
 C                  0.86775700   -2.28832000   -3.29405100
 C                  1.92722100   -3.07444000   -3.74662800
 C                  3.14506800   -3.08984000   -3.07224400
 C                 -1.21784900   -1.20432800   -1.80040200
 C                 -1.54510700   -1.97831300   -2.91222400
 C                 -2.85514800   -2.45011700   -2.99542200
 C                 -3.79613100   -2.11683900   -2.02394900
 C                 -3.45031400   -1.28929900   -0.95905300
 C                 -2.14157100   -0.82031000   -0.82550700
 C                 -0.48003100   -2.14633800   -3.99268200
 O                  0.07102000   -0.73991700   -1.64341700
 P                  2.26871400   -0.80198100    0.25662000
 P                 -1.52427700    0.24073200    0.54226700
 C                 -0.77626700   -3.32671900   -4.91693400
 H                 -0.01797000   -3.40028500   -5.70115900
 H                 -0.80493800   -4.27098000   -4.36452900
 H                 -1.73563000   -3.18507700   -5.42168900
 C                 -0.44985100   -0.84367200   -4.82540400
 H                  0.32860800   -0.90352600   -5.59298900
 H                 -1.41736800   -0.68635900   -5.31325000
 H                 -0.23995100    0.02209200   -4.18792500
 C                 -6.27470700    0.61778100    4.30867100
 C                  7.92091300   -1.87487700    2.16826800
 C                 -1.11798100    5.76824000   -1.96147300
 C                  2.12056900    5.22347300   -0.41504000
 Rh                 0.60270800   -1.64445500    1.65739800
 H                 -0.48507300   -2.19906300    2.72484200
 C                  0.21591600   -3.10095900    0.56063200
 O                 -0.00746300   -3.99568300   -0.12392000
 N                 -7.15226800    0.68986800    5.05926600
 N                  8.99595400   -2.09162600    2.53619600
 N                 -1.04859300    6.81377900   -2.45186600
 N                  2.01566900    6.37400700   -0.48412700
 C                  1.03178200   -0.25987400    3.30895500
 C                  0.01075000   -1.10861200    3.78869000
 C                  0.26879200   -2.12096900    4.88932800
 O                 -0.17537800   -1.58567900    6.14460200
 C                 -1.51122800   -1.58774500    6.31866200
 C                 -1.88659700   -1.03410000    7.66570800
 O                 -2.28752600   -1.98724800    5.48234200
 H                  2.05045500   -0.40496000    3.66565800
 H                  0.77321700    0.74862100    3.00000700
 H                 -0.99571300   -0.69600300    3.82338800
 H                  1.33906500   -2.30227600    5.00559200
 H                 -0.24918900   -3.06503500    4.71272900
 H                 -1.50944300   -0.01274700    7.76024700
 H                 -1.42142900   -1.63234700    8.45296400
 H                 -2.96996000   -1.04621200    7.77262700

