113

 H                 -0.71203300    4.69366400    1.29807200
 H                 -1.40849200    2.35323300    1.66941000
 H                 -3.08164300    2.05092100   -0.74223100
 H                 -5.52767100    2.23792000   -0.61440300
 H                 -5.68958300   -1.42120600    1.63291400
 H                 -3.26101100   -1.64538800    1.45269300
 H                  5.01863600   -0.02729100    1.90700200
 H                  6.71500500   -0.67472100    3.58184300
 H                  3.99215600   -3.55666900    5.23400300
 H                  2.27918800   -2.88533700    3.57440500
 H                  2.33174800    3.87202300    1.65961200
 H                  1.72637200    1.58740300    2.36295900
 C                 -0.48347800    3.93907800    0.55110100
 C                 -0.86981300    2.62026200    0.76134500
 C                 -2.98563400    0.19322000    0.35421700
 C                 -3.64769500    1.28748100   -0.21699400
 C                 -5.03046300    1.39629000   -0.14033400
 C                 -5.79561700    0.41943200    0.50999800
 C                 -5.13380500   -0.67556700    1.07473200
 C                 -3.74948800   -0.78914600    0.99318600
 C                  3.53280400   -1.41256300    2.63013700
 C                  4.78877200   -0.79757500    2.63774400
 C                  5.74643100   -1.16508900    3.58004500
 C                  5.46396700   -2.15805100    4.51492100
 C                  4.21857000   -2.78173600    4.50828200
 C                  3.25545000   -2.40754400    3.57451100
 C                  2.79447900    0.62666400    0.76078700
 C                  3.47486900    3.23738600   -0.05111700
 C                  2.71333700    3.02110600    1.10345500
 C                  2.36599400    1.73661300    1.49538800
 H                  0.30443300    1.24409800   -2.11591300
 H                  1.03280400    3.57425100   -2.46065400
 H                  3.93867600   -0.01279100   -0.95364000
 H                  4.52686900    2.26933800   -1.66054400
 C                 -0.60573300    1.63361400   -0.19951700
 C                  0.08672300    1.99025900   -1.35771700
 C                  0.49141300    3.30996700   -1.55692900
 C                  0.20297100    4.28878200   -0.61174700
 C                  3.57964700    0.83449900   -0.37571200
 C                  3.91012500    2.12488100   -0.77782400
 H                 -3.29530500   -0.89695400   -1.84046800
 H                 -0.97192000   -3.05009200   -4.72397400
 H                 -3.14811800   -2.23445000   -3.90172300
 H                  3.54713700   -4.49320700   -3.00332600
 H                  4.36050500   -3.23200700    1.01627300
 H                  4.80642200   -4.73164100   -0.90041800
 C                 -2.32518000   -1.22767500   -2.19498100
 C                 -1.17211200   -0.91068400   -1.46831400
 C                  0.04046500   -1.36805500   -1.98093000
 C                  0.16200900   -2.13353300   -3.14069300
 C                 -1.01157000   -2.44684200   -3.82299200
 C                 -2.24219700   -1.98901800   -3.35736200
 C                  2.12847600   -2.01970200   -1.20715300
 C                  2.36259800   -2.83354500   -2.31239300
 C                  3.33620100   -3.82308400   -2.17634200
 C                  4.04888000   -3.95970100   -0.98644300
 C                  3.79993300   -3.11531000    0.09395500
 C                  2.81464700   -2.13061900   -0.00046400
 C                  1.57316300   -2.51775500   -3.57928100
 O                  1.17368800   -1.03259100   -1.27564100
 P                 -1.17113600   -0.07672000    0.18381200
 P                  2.26017800   -1.02486700    1.35727700
 C                  2.22250400   -1.28536800   -4.24997600
 H                  2.24550800   -0.43372700   -3.56213600
 H                  3.25071000   -1.51735900   -4.54706200
 H                  1.65304200   -0.99751600   -5.13979400
 C                  1.57358900   -3.68477000   -4.56485000
 H                  2.59573500   -3.92613500   -4.87023200
 H                  1.11731700   -4.57878200   -4.12832500
 H                  1.02538700   -3.41908200   -5.47314800
 C                  3.75439300    4.61657400   -0.51560000
 H                  0.52719400    5.31280300   -0.77320500
 H                  6.21209300   -2.44379100    5.24791100
 C                 -7.27011600    0.54713800    0.60201000
 Rh                 0.03125400   -1.23815900    2.12611100
 H                  0.72484700   -1.01590100    3.54276800
 C                 -0.18830600   -3.14022700    1.84079900
 O                 -0.25216400   -4.28763400    1.81267700
 C                  3.74681500    4.92351100   -1.88209600
 C                  3.99907600    5.64900200    0.39775400
 C                  4.21290200    7.24207000   -1.40290500
 C                  4.22656600    6.94916500   -0.04116600
 C                  3.97366900    6.22348900   -2.32232400
 H                  3.53852100    4.13715700   -2.60224000
 H                  3.95532600    6.44281500   -3.38540700
 H                  4.38820700    8.25692800   -1.74533000
 H                  4.42172000    7.73467700    0.68229900
 H                  4.03269800    5.42323700    1.45969600
 C                 -8.09253800   -0.58217800    0.51176500
 C                 -7.87119900    1.79862300    0.78134600
 C                -10.06202400    0.78775600    0.77277300
 C                 -9.25438800    1.91854200    0.86573500
 C                 -9.47560100   -0.46327700    0.59619900
 H                 -7.64153600   -1.55735200    0.35309400
 H                -10.09726600   -1.34974500    0.51715600
 H                -11.14144800    0.88064000    0.83879700
 H                 -9.70182600    2.89666500    1.01319600
 H                 -7.24515500    2.68061900    0.88173000
 C                 -0.45079700   -0.09230700    3.98440300
 C                 -1.55652600   -0.85898200    3.46499300
 C                 -2.02861100   -2.05612200    4.24313000
 O                 -2.94601500   -1.67591700    5.29613700
 C                 -4.23641300   -1.59330300    4.94427200
 C                 -5.08638700   -1.13375100    6.10089500
 O                 -4.65453000   -1.85413900    3.84059200
 H                 -0.08955500   -0.33303500    4.98568800
 H                 -0.39491300    0.97261400    3.77410300
 H                 -2.35529100   -0.30185900    2.97996300
 H                 -1.19247600   -2.53488700    4.75931000
 H                 -2.52773600   -2.78662800    3.60300700
 H                 -4.79789700   -0.11692500    6.38040900
 H                 -4.91620100   -1.77610300    6.96793900
 H                 -6.13548600   -1.15529300    5.81015600

