97

 H                 -0.27439300   -4.12139100    3.95173900
 H                 -0.38332200   -3.59389800    1.54282300
 H                 -2.47114400   -2.41705600   -2.50575200
 H                 -4.36781700   -3.84378200   -3.19879900
 H                 -5.54147400   -4.27006200    0.91208000
 H                 -3.65335900   -2.83846500    1.60577100
 H                  3.30133900   -1.06951200   -2.86917800
 H                  5.62428500   -1.36934800   -3.72435900
 H                  7.13799900   -0.89964400    0.26849300
 H                  4.83283700   -0.59546100    1.11146500
 H                  3.20001600   -3.95067700    3.12602600
 H                  3.08251000   -3.04376200    0.83515000
 C                 -0.72674700   -3.18996300    3.62487600
 C                 -0.78612900   -2.89097600    2.26869700
 C                 -2.92938500   -2.53153400   -0.40358100
 C                 -3.14572900   -2.82430000   -1.75612000
 C                 -4.21643900   -3.62383700   -2.14678300
 C                 -5.07826100   -4.14894300   -1.18694900
 C                 -4.87034100   -3.86480900    0.16095800
 C                 -3.80433300   -3.05863800    0.55283900
 C                  3.91927700   -0.81059800   -0.83185900
 C                  4.15309000   -1.03059900   -2.19254500
 C                  5.45301400   -1.19795100   -2.66621800
 C                  6.52702000   -1.15240900   -1.78188700
 C                  6.30189500   -0.93451500   -0.42299400
 C                  5.00474800   -0.76372500    0.05148600
 C                  2.23437700   -1.15356000    1.44108500
 C                  2.36437400   -2.18658200    4.03984600
 C                  2.80043700   -2.95449700    2.96201500
 C                  2.72749800   -2.44487200    1.67017500
 H                 -2.32620000    0.13320800    2.44790800
 H                 -2.17312300   -0.37604300    4.85581100
 H                  1.39215800    0.60307500    2.37153300
 H                  1.49151000   -0.31684700    4.65084600
 C                 -1.37246300   -1.69909800    1.82484800
 C                 -1.86258000   -0.79457700    2.77081300
 C                 -1.78367900   -1.08576200    4.13200400
 C                 -1.22705400   -2.28667300    4.56128600
 C                  1.78781300   -0.39557200    2.52583200
 C                  1.85028700   -0.91315000    3.81779700
 H                 -4.28699400   -0.38305800   -0.48636000
 C                 -3.87752300    4.18311100   -0.25781400
 H                 -5.12106300    1.96517000   -0.58741000
 C                  1.83124900    5.56357700   -0.06154500
 H                  4.19631300    1.70034500   -0.51447000
 H                  3.89254900    4.14782000   -0.45157400
 C                 -3.60470500    0.44946900   -0.34792800
 C                 -2.25872900    0.20941500   -0.08367800
 C                 -1.41995000    1.32070300    0.08678100
 C                 -1.82946600    2.64354300   -0.02677700
 C                 -3.21145000    2.84260800   -0.24999200
 C                 -4.07083100    1.75535300   -0.41654500
 C                  0.86993200    1.89069900    0.11046500
 C                  0.62695300    3.25885700    0.03662000
 C                  1.77527100    4.07488700   -0.13234600
 C                  3.03330400    3.49720800   -0.31435200
 C                  3.21404700    2.11981100   -0.32679200
 C                  2.12329600    1.28880700   -0.10752200
 C                 -0.81507200    3.78968500    0.13946600
 O                 -0.12554300    1.00866800    0.41359100
 P                 -1.48763800   -1.46076000    0.00298600
 P                  2.18172600   -0.54907400   -0.29359800
 C                 -1.00312800    4.36031900    1.56725600
 H                 -0.31219900    5.18408000    1.74574200
 H                 -2.02409500    4.72398300    1.71254300
 H                 -0.82409300    3.56966400    2.30349900
 C                 -1.04763000    4.84041600   -0.99124700
 H                 -1.82774700    4.50615600   -1.67797700
 H                 -1.31674100    5.81733500   -0.58593600
 H                 -0.15018500    4.97599900   -1.59521900
 H                  2.41532500   -2.58444500    5.04889900
 H                 -1.17603500   -2.51642500    5.62131100
 H                  7.53965000   -1.28925600   -2.14840900
 H                 -5.90872200   -4.77987500   -1.48803600
 Rh                 0.56199200   -1.42756100   -1.73609400
 H                 -0.27359700   -2.19922000   -2.89242000
 C                  0.24969100    0.19376300   -2.59913300
 O                  0.07453300    1.21890200   -3.09356000
 O                 -5.04223300    4.33093300   -0.54984400
 H                 -3.27649100    5.05381000    0.04884100
 O                  0.96374400    6.32197200    0.30079600
 H                  2.82431600    5.96503000   -0.35013700
 C                  1.26878400   -3.48343300   -1.36892200
 C                  0.53106700   -3.55393800   -2.57174500
 C                  1.25611100   -3.69025400   -3.89220300
 O                  1.54181600   -5.07308500   -4.16389300
 C                  0.50063900   -5.80217300   -4.60655600
 C                  0.91259100   -7.22757200   -4.86594700
 O                 -0.60847800   -5.35467700   -4.76559100
 H                  2.35576200   -3.47846300   -1.43689200
 H                  0.85653200   -3.91202200   -0.46071800
 H                 -0.43375400   -4.05953600   -2.54504700
 H                  2.22969700   -3.20007000   -3.84158500
 H                  0.67396600   -3.28062700   -4.72021700
 H                  1.26551600   -7.68046800   -3.93584100
 H                  1.73957100   -7.25114000   -5.57962100
 H                  0.06129500   -7.78428800   -5.25417100

