91

 P                  1.88458800   -0.06754300   -0.13170700
 C                  2.56255200    1.49911300    0.56583100
 C                  3.34714000   -0.75060800   -1.01449500
 C                  1.79364300   -1.12811500    1.37079700
 C                  3.93952600    1.74974900    0.65461700
 C                  4.40281700    2.92839400    1.22417300
 C                  3.49535800    3.86976100    1.71500800
 C                  2.12469400    3.62862500    1.63032000
 C                  1.66102400    2.45108700    1.05479400
 C                  3.60866100   -0.26654800   -2.30269200
 C                  4.71195200   -0.72178100   -3.01665900
 C                  5.55790000   -1.67874900   -2.45732800
 C                  5.30112300   -2.16870500   -1.18036200
 C                  4.20342500   -1.70351500   -0.45683700
 C                  2.35354600   -0.77166200    2.60058200
 C                  2.19668500   -1.60095000    3.71044600
 C                  1.48403800   -2.79142300    3.60205200
 C                  0.93730000   -3.16269700    2.37463800
 C                  1.09136300   -2.33456000    1.26888700
 H                  4.64780400    1.01794300    0.27784800
 H                  5.46490100    3.14042800    1.29990700
 C                  3.99046300    5.12873900    2.32403000
 H                  1.42070400    4.36768700    2.00559900
 H                  0.59203300    2.27501000    0.96962400
 H                  2.93489300    0.46861000   -2.73835300
 H                  4.90773800   -0.33579000   -4.01224700
 H                  6.41362900   -2.04223600   -3.01754000
 H                  5.95676400   -2.91407500   -0.74106200
 H                  4.01546300   -2.08456100    0.54275500
 H                  2.90777800    0.15686900    2.70107500
 H                  2.62938700   -1.30984100    4.66278600
 H                  1.35078200   -3.42772800    4.47146200
 H                  0.37590300   -4.08793000    2.28406500
 H                  0.64642000   -2.60698500    0.31452400
 P                 -2.00953200   -0.65179700   -0.30856100
 C                 -3.44144500    0.51435700   -0.43777200
 C                 -2.00153900   -1.01880300    1.49656900
 C                 -2.73543600   -2.17714000   -1.03530700
 C                 -3.43351700    1.46951500   -1.45863000
 C                 -4.51180200    2.33657800   -1.61910200
 C                 -5.60096100    2.26040100   -0.75447400
 C                 -5.61545500    1.31093300    0.27205900
 C                 -4.54474400    0.44356900    0.42659800
 C                 -1.19348200   -0.21048400    2.30324000
 C                 -1.12025200   -0.41838800    3.67615600
 C                 -1.84985800   -1.45086300    4.26177100
 C                 -2.66037400   -2.26050500    3.47076700
 C                 -2.74104200   -2.04375700    2.09644100
 C                 -2.15890800   -3.42079600   -0.73291400
 C                 -2.52630700   -4.56355100   -1.43207700
 C                 -3.47240600   -4.48446900   -2.45437800
 C                 -4.06392300   -3.26132200   -2.74986100
 C                 -3.70200800   -2.11331800   -2.04293400
 H                 -2.57795200    1.53009500   -2.12486400
 H                 -4.50257800    3.07900300   -2.41394400
 C                 -6.74550900    3.18868200   -0.92172900
 H                 -6.47563000    1.27303000    0.93346200
 H                 -4.55698300   -0.29093800    1.22635300
 H                 -0.59881700    0.57341100    1.84073900
 H                 -0.47748200    0.21113200    4.28360600
 H                 -1.78394500   -1.62547000    5.33129800
 H                 -3.23566400   -3.06302200    3.92228600
 H                 -3.37966400   -2.67963700    1.48998000
 H                 -1.40773300   -3.48757400    0.05116900
 H                 -2.05588200   -5.51391900   -1.20174200
 H                 -3.73012200   -5.37103000   -3.02346200
 H                 -4.80728500   -3.19179900   -3.53810300
 H                 -4.16979100   -1.16351800   -2.28810000
 Rh                 0.02568700    0.05726200   -1.48753100
 C                  0.01552100    1.94381600   -1.64329300
 O                  0.01211500    3.08743600   -1.76937500
 H                  0.35981300   -1.53112900   -1.76872000
 O                  5.15975700    5.40775300    2.44341900
 H                  3.19918800    5.82236200    2.67751200
 O                 -7.72736200    3.18733100   -0.21767500
 H                 -6.64614200    3.90947900   -1.76030700
 C                 -0.75627000   -0.20613700   -3.51315200
 C                  0.19101600   -1.24967000   -3.36709700
 C                 -0.26321400   -2.68508800   -3.50848000
 O                 -0.29895200   -2.95933600   -4.91861700
 C                 -0.69930900   -4.19932900   -5.24645000
 C                 -0.73242500   -4.37771500   -6.74259100
 O                 -0.99008700   -5.04277100   -4.43412700
 H                 -1.80854700   -0.48352500   -3.57117500
 H                 -0.47654400    0.68469100   -4.06611200
 H                  1.20727000   -1.07927900   -3.71731100
 H                 -1.26325700   -2.82919000   -3.09507100
 H                  0.41817800   -3.39555900   -3.02942600
 H                  0.25406900   -4.16734500   -7.16275800
 H                 -1.43673400   -3.66660300   -7.18180300
 H                 -1.03289500   -5.39738800   -6.97815200

