91

 P                  1.41525100   -0.22144800   -0.54023600
 C                  1.48184000    1.41042300    0.34310000
 C                  3.01696900   -0.13437700   -1.43849600
 C                  1.77831600   -1.43803700    0.80364200
 C                  2.69065700    1.97707000    0.78543500
 C                  2.69971000    3.19070200    1.45591100
 C                  1.49896600    3.87005800    1.68727400
 C                  0.29793900    3.33356700    1.23213000
 C                  0.29418400    2.11573000    0.55576100
 C                  3.26598400    0.98874300   -2.24074000
 C                  4.38557900    1.03147600   -3.06371800
 C                  5.25814800   -0.05605700   -3.11336200
 C                  5.01573500   -1.17325100   -2.32147900
 C                  3.90676300   -1.20890200   -1.47780900
 C                  2.52813900   -1.14650000    1.94805400
 C                  2.73247600   -2.11788800    2.92493800
 C                  2.19598200   -3.39439200    2.76925000
 C                  1.45503900   -3.69754700    1.63049700
 C                  1.24438900   -2.72302800    0.65893400
 H                  3.62860100    1.46688700    0.58415500
 H                  3.62554500    3.63699200    1.80590000
 C                  1.50808100    5.16873700    2.40470200
 H                 -0.63662400    3.86687200    1.39414700
 H                 -0.64133200    1.71728100    0.17736500
 H                  2.57538700    1.82969400   -2.22407100
 H                  4.56992700    1.90848800   -3.67670300
 H                  6.12021200   -0.03317000   -3.77221700
 H                  5.67751200   -2.03108800   -2.37220000
 H                  3.72329500   -2.08975600   -0.86837900
 H                  2.94442100   -0.15505000    2.09319500
 H                  3.31121200   -1.87452500    3.81093200
 H                  2.35212700   -4.14771600    3.53533800
 H                  1.02419700   -4.68599100    1.50508100
 H                  0.63216700   -2.94523900   -0.21148600
 P                 -2.39206500   -0.60017400   -0.40798500
 C                 -3.11861700    1.03186600    0.05930300
 C                 -2.10663600   -1.41522000    1.22158000
 C                 -3.87983100   -1.50309100   -1.01692600
 C                 -3.48427500    1.89010200   -0.98729400
 C                 -3.96824400    3.16347800   -0.71740600
 C                 -4.08304400    3.60112000    0.60326200
 C                 -3.73568900    2.74829100    1.65213100
 C                 -3.26351300    1.46854000    1.38281300
 C                 -1.10578700   -0.90083700    2.05695500
 C                 -0.80035600   -1.51282800    3.26664400
 C                 -1.47779200   -2.66802200    3.65207300
 C                 -2.47199500   -3.18939400    2.83109400
 C                 -2.79279400   -2.56365300    1.62656800
 C                 -3.69778400   -2.74415700   -1.64042400
 C                 -4.78880800   -3.48600500   -2.08156800
 C                 -6.08105500   -2.99072900   -1.91846600
 C                 -6.27350900   -1.76141400   -1.29597900
 C                 -5.18177300   -1.02491600   -0.83961700
 H                 -3.38595900    1.55504800   -2.01657900
 H                 -4.24670300    3.82587300   -1.53363800
 C                 -4.57477900    4.97036500    0.89308500
 H                 -3.84587100    3.10476600    2.67192200
 H                 -3.00381400    0.80966300    2.20459000
 H                 -0.55385200   -0.01213300    1.76141200
 H                 -0.01451100   -1.10128800    3.89202200
 H                 -1.22854500   -3.15880800    4.58776900
 H                 -3.00930100   -4.08524000    3.12673300
 H                 -3.58044200   -2.97812900    1.00597500
 H                 -2.69367800   -3.13843400   -1.76523600
 H                 -4.62869600   -4.44844400   -2.55752200
 H                 -6.93298300   -3.56292300   -2.27180000
 H                 -7.27731300   -1.37242600   -1.15662800
 H                 -5.35170100   -0.07566800   -0.34165800
 Rh                -0.59024400   -0.54187100   -1.92349700
 C                 -0.77541900    1.24555600   -2.56154300
 O                 -0.83038300    2.32805100   -2.94499500
 H                 -0.69182900   -2.18524600   -1.82454900
 O                  2.50757500    5.69847000    2.82918000
 H                  0.51199400    5.64048400    2.53500400
 O                 -4.68542800    5.42617900    2.00653200
 H                 -4.84221200    5.57293400    0.00023600
 C                 -0.72879200   -2.25671400   -3.38077200
 C                  0.17052000   -1.24037100   -3.82346400
 C                  1.61824400   -1.61673800   -3.94058100
 O                  1.77448300   -2.35692200   -5.17293600
 C                  2.92092500   -3.04104300   -5.30406800
 C                  2.98519400   -3.73154300   -6.64374500
 O                  3.77787600   -3.09029700   -4.45559500
 H                 -0.31560800   -3.25787900   -3.24398700
 H                 -1.75638200   -2.25704800   -3.73159000
 H                 -0.19532400   -0.55185200   -4.58129300
 H                  1.92924800   -2.25734100   -3.10834100
 H                  2.29053200   -0.75510100   -3.97155900
 H                  2.98220300   -2.98359800   -7.44094700
 H                  2.10394600   -4.36263000   -6.78067800
 H                  3.89286300   -4.33054700   -6.69858500

