87

 P                  1.91187900   -0.02607400    0.52065500
 C                  3.24614000   -0.47533400   -0.66965800
 C                  2.85635700    0.16388000    2.08912800
 C                  1.57541200    1.73223900    0.06804900
 C                  2.87870900   -0.90319900   -1.95287800
 C                  3.83678900   -1.22550000   -2.90703900
 C                  5.17664800   -1.13195400   -2.55818200
 C                  5.57993700   -0.72226700   -1.29736600
 C                  4.60758300   -0.38943900   -0.35741100
 C                  2.99173500   -0.95938700    2.91264300
 C                  3.72914600   -0.88771600    4.09061100
 C                  4.32918200    0.31264000    4.46462400
 C                  4.19326400    1.43778200    3.65533600
 C                  3.46325100    1.36485100    2.47087000
 C                  2.33921900    2.45872500   -0.84893300
 C                  1.95613000    3.74884700   -1.21915900
 C                  0.81825600    4.32844700   -0.66631300
 C                  0.06183000    3.61689900    0.26481800
 C                  0.43243800    2.32541800    0.62140200
 H                  1.82549200   -0.98810100   -2.20908700
 H                  3.56489700   -1.55436500   -3.90383400
 F                  6.10715800   -1.45136400   -3.46754500
 H                  6.63805800   -0.66732700   -1.06708500
 H                  4.91884700   -0.06079700    0.62929500
 H                  2.50286000   -1.88882300    2.62880600
 H                  3.82316400   -1.76579700    4.72165200
 H                  4.89548100    0.37301500    5.38879100
 H                  4.65438600    2.37670600    3.94588100
 H                  3.36437000    2.24563900    1.84265000
 H                  3.22862800    2.01553900   -1.28839900
 H                  2.55048800    4.29867600   -1.94276400
 H                  0.51863400    5.32900100   -0.96196600
 H                 -0.82946000    4.05780700    0.70164700
 H                 -0.18685400    1.75820700    1.31412000
 P                 -1.96467500   -0.52717000   -0.33440100
 C                 -1.90903800    0.51679900   -1.85162200
 C                 -2.92988900    0.52432200    0.82602500
 C                 -3.18253900   -1.78807700   -0.91205400
 C                 -0.68406300    0.98824800   -2.32413400
 C                 -0.61104700    1.81147800   -3.44603500
 C                 -1.78839900    2.14470900   -4.09356300
 C                 -3.02730500    1.68270300   -3.66371400
 C                 -3.07922200    0.86722300   -2.54095500
 C                 -3.18081100    1.88057200    0.59331000
 C                 -3.81738200    2.65732200    1.56083400
 C                 -4.21963900    2.09057700    2.76605200
 C                 -3.97126700    0.74068400    3.00968100
 C                 -3.31997300   -0.03051800    2.05351000
 C                 -4.43040000   -2.02550100   -0.33272500
 C                 -5.22543900   -3.08248600   -0.77908800
 C                 -4.78951100   -3.90605800   -1.81119900
 C                 -3.55337900   -3.66325500   -2.41095500
 C                 -2.75808600   -2.61605500   -1.96242800
 H                  0.22551900    0.71216700   -1.80375500
 H                  0.33552300    2.19241600   -3.81308700
 F                 -1.73686300    2.93516700   -5.17459300
 H                 -3.91995300    1.96454500   -4.21093700
 H                 -4.04059500    0.49779400   -2.19225400
 H                 -2.86880900    2.33902900   -0.34009700
 H                 -4.00073200    3.70991700    1.36613800
 H                 -4.71612500    2.69739400    3.51655400
 H                 -4.26921300    0.29067400    3.95137300
 H                 -3.10164100   -1.07583800    2.26407900
 H                 -4.79175400   -1.38668300    0.46702600
 H                 -6.19203000   -3.25640500   -0.31609500
 H                 -5.40874000   -4.72959600   -2.15196200
 H                 -3.20862800   -4.29351400   -3.22500600
 H                 -1.79352700   -2.42991700   -2.43217600
 Rh                 0.02366000   -1.40414200    0.64231600
 C                 -0.29264300   -1.00790700    2.45465600
 O                 -0.48412000   -0.76005500    3.55976500
 H                  0.36607000   -1.96963000   -0.87802100
 C                  0.43504500   -3.46176000   -0.32625800
 C                 -0.04932600   -3.57524600    0.99444000
 C                 -1.43657300   -4.09350400    1.25436900
 O                 -1.45776600   -5.54011200    1.30430200
 C                 -0.97919000   -6.08650600    2.43273200
 C                 -1.05026900   -7.59161100    2.37673900
 O                 -0.55091000   -5.44607000    3.36234200
 H                 -0.22116600   -3.78346100   -1.13471100
 H                  1.49633800   -3.59030400   -0.52288700
 H                  0.66775800   -3.75919200    1.78952300
 H                 -2.11384200   -3.83763500    0.43763500
 H                 -1.83469000   -3.71718400    2.20003800
 H                 -0.43887000   -7.95597600    1.54710200
 H                 -2.07962400   -7.90807200    2.19200800
 H                 -0.68996600   -8.00571000    3.31712300

