89

 P                  1.92871900   -0.56502800    0.50945700
 C                  1.74939100    1.19742100    1.02725400
 C                  3.56021700   -0.47670000   -0.34317900
 C                  2.32293500   -1.39456100    2.10427300
 C                  1.18582000    2.05440900    0.07831600
 C                  0.94763300    3.39364600    0.38351300
 C                  1.30167900    3.89360200    1.64035400
 C                  1.88392000    3.04417300    2.57321500
 C                  2.10663300    1.69727100    2.28092600
 C                  4.67203000    0.13773900    0.24882200
 C                  5.88339700    0.20440400   -0.42913600
 C                  5.99671800   -0.33305500   -1.71232600
 C                  4.89527400   -0.93064400   -2.31458900
 C                  3.68069200   -0.99983300   -1.63150100
 C                  1.31377000   -1.40509900    3.08015800
 C                  1.49583000   -2.07910100    4.28127400
 C                  2.68066900   -2.77678100    4.51982900
 C                  3.67952600   -2.78602300    3.55246700
 C                  3.50635600   -2.09432200    2.35228800
 H                  0.89604400    1.66250400   -0.89521400
 O                  0.35795000    4.24493700   -0.49198400
 H                  1.10195200    4.93634800    1.86267900
 H                  2.15844200    3.43346600    3.54945700
 H                  2.53650500    1.04223700    3.03204700
 H                  4.58206400    0.56846700    1.24349600
 H                  6.73918700    0.68151900    0.03854200
 H                  6.94283700   -0.27688500   -2.24181600
 H                  4.97342800   -1.34057100   -3.31655500
 H                  2.81391000   -1.45200900   -2.10603700
 H                  0.38020000   -0.87564700    2.89694000
 H                  0.70539400   -2.06357700    5.02597700
 H                  2.82003600   -3.31322400    5.45320300
 H                  4.60209700   -3.33111600    3.72702800
 H                  4.29676500   -2.10834100    1.60740200
 P                 -1.78228200   -0.05169700   -0.05653800
 C                 -2.03636900    1.64006600   -0.76629300
 C                 -1.89416300    0.20331600    1.76596700
 C                 -3.44131700   -0.77658100   -0.42982800
 C                 -1.62245800    1.84300600   -2.08440800
 C                 -1.88894400    3.05267600   -2.73280800
 C                 -2.54063600    4.08178400   -2.05095100
 C                 -2.93869500    3.88152100   -0.73263700
 C                 -2.70159800    2.67026800   -0.09013500
 C                 -1.26610400    1.27473200    2.40884300
 C                 -1.19687300    1.32350900    3.80110700
 C                 -1.74582900    0.30189800    4.56921100
 C                 -2.37264900   -0.77247200    3.93716700
 C                 -2.44584700   -0.82092600    2.54895100
 C                 -3.52807200   -1.84534600   -1.32375700
 C                 -4.76865600   -2.39449600   -1.64949500
 C                 -5.92824300   -1.88251900   -1.07793900
 C                 -5.84966200   -0.81559100   -0.18199600
 C                 -4.61458800   -0.26398100    0.13710000
 H                 -1.10493900    1.06755600   -2.64104200
 O                 -1.47140600    3.17045900   -4.01980700
 H                 -2.72921400    5.03088500   -2.54651800
 H                 -3.43902400    4.68454000   -0.20107200
 H                 -3.02776200    2.53439000    0.93535700
 H                 -0.81322300    2.07449900    1.83077000
 H                 -0.69614800    2.16200200    4.27557700
 H                 -1.68615100    0.33890200    5.65256500
 H                 -2.80546200   -1.57555100    4.52590700
 H                 -2.92836100   -1.66795600    2.06689000
 H                 -2.61316800   -2.24191200   -1.75842100
 H                 -4.82389300   -3.22348300   -2.34822700
 H                 -6.89386300   -2.31172900   -1.32688700
 H                 -6.75296600   -0.41336100    0.26621600
 H                 -4.55979200    0.56519900    0.83806100
 Rh                -0.00810100   -1.46332700   -0.62225100
 C                  0.15243300   -1.12956600   -2.49007600
 O                  0.26892200   -0.95252100   -3.62143200
 H                 -0.37036700   -2.02121800    0.85536600
 H                 -0.01906200    3.73388400   -1.22753600
 H                 -1.72436000    4.03895800   -4.36401200
 C                 -0.44201300   -3.55137300    0.19572600
 C                  0.46711600   -3.58757300   -0.88469500
 C                  1.89527500   -3.98353800   -0.63349700
 O                  2.04150100   -5.42142900   -0.57219000
 C                  2.03505300   -6.05344600   -1.75635400
 C                  2.18804600   -7.54234100   -1.57425900
 O                  1.92082800   -5.49169300   -2.81867800
 H                 -0.07711100   -3.84032100    1.18181400
 H                 -1.49987700   -3.73802800    0.03558600
 H                  0.08354100   -3.84610000   -1.86822200
 H                  2.23013500   -3.63466100    0.34665000
 H                  2.56416100   -3.60689900   -1.40953900
 H                  1.35142600   -7.92640500   -0.98486200
 H                  3.10635300   -7.75641200   -1.02218700
 H                  2.21179300   -8.02516400   -2.54992200

