89

 P                 -1.97450300   -0.15613900   -0.13542700
 C                 -2.61661200   -1.20805100   -1.50812800
 C                 -2.02570100    1.54391300   -0.86776500
 C                 -3.41822500   -0.01639800    1.00088000
 C                 -1.77366800   -1.50614900   -2.59701100
 C                 -2.17623200   -2.40673200   -3.58469800
 C                 -3.41546500   -3.02633900   -3.50182000
 C                 -4.26284700   -2.75132300   -2.43036100
 C                 -3.85997900   -1.85130200   -1.44988900
 C                 -2.06012900    2.62769900    0.02053100
 C                 -2.12199300    3.93164000   -0.45425500
 C                 -2.12854100    4.17762200   -1.82710500
 C                 -2.07765300    3.11008900   -2.71582700
 C                 -2.03346500    1.79906900   -2.24173500
 C                 -4.59322800    0.63587200    0.59799200
 C                 -5.67816200    0.72566700    1.46128600
 C                 -5.60398600    0.16853900    2.73966500
 C                 -4.44174200   -0.47353000    3.14989100
 C                 -3.34971300   -0.55852000    2.28519600
 O                 -0.55333900   -0.92811500   -2.78158700
 H                 -1.49608400   -2.59901400   -4.40800200
 H                 -3.71760800   -3.72626100   -4.27445400
 H                 -5.23186200   -3.23318700   -2.35637600
 H                 -4.51902800   -1.65102000   -0.61079200
 H                 -2.05295800    2.44948500    1.09286300
 H                 -2.15962200    4.75707400    0.25021700
 H                 -2.17407000    5.19684500   -2.19870800
 H                 -2.08390000    3.28905900   -3.78653300
 H                 -2.02213700    0.98345400   -2.95607000
 H                 -4.65111300    1.07431100   -0.39526500
 H                 -6.58291700    1.23184200    1.13914800
 H                 -6.45388700    0.23959000    3.41152000
 H                 -4.36990200   -0.91634600    4.13796200
 H                 -2.45093200   -1.06903500    2.61682800
 P                  2.10147200   -0.33927800    0.13869100
 C                  2.01612800    1.16810300   -0.90100000
 C                  3.15408400   -1.47658000   -0.85917800
 C                  3.24156500    0.16929800    1.48687500
 C                  1.31435600    2.27075300   -0.37279800
 C                  1.21238000    3.45390400   -1.10268400
 C                  1.77469900    3.53911100   -2.36989400
 C                  2.45237400    2.45103800   -2.91603700
 C                  2.57751900    1.27819500   -2.17784600
 C                  4.47801000   -1.75421400   -0.50538700
 C                  5.24380000   -2.63586900   -1.26745100
 C                  4.70399700   -3.23905600   -2.39795900
 C                  3.38932300   -2.95790200   -2.76634600
 C                  2.61715300   -2.09133300   -2.00000800
 C                  3.33422100   -0.64821600    2.61815100
 C                  4.21933500   -0.33392800    3.64494400
 C                  5.01034500    0.80930400    3.55581500
 C                  4.91989000    1.62994200    2.43439900
 C                  4.04378800    1.31015800    1.40006800
 O                  0.77205500    2.25105300    0.87193100
 H                  0.67327800    4.28347800   -0.65984200
 H                  1.67808600    4.46098400   -2.93534200
 H                  2.89153700    2.51608100   -3.90578800
 H                  3.12709600    0.43917200   -2.59323900
 H                  4.91913000   -1.28429700    0.36748900
 H                  6.26780400   -2.84471100   -0.97381200
 H                  5.30256800   -3.92320500   -2.99116200
 H                  2.95939100   -3.41655800   -3.65139500
 H                  1.59553400   -1.88180000   -2.30845400
 H                  2.70888000   -1.53521900    2.68924000
 H                  4.28179400   -0.97540900    4.51826000
 H                  5.69297700    1.06223700    4.36109200
 H                  5.53191200    2.52358300    2.36265000
 H                  3.98166500    1.95091300    0.52525500
 Rh                 0.04475900   -1.21179300    0.76701300
 C                  0.07902600   -0.71340900    2.60618000
 O                  0.12287100   -0.42159800    3.71543300
 H                  0.21769400   -1.98453500   -0.66271700
 H                 -0.24595900   -0.49968700   -1.95958100
 H                  0.48510900    1.33899300    1.08667900
 C                  0.09338500   -3.38508100    0.01980600
 C                 -0.73547900   -3.26705300    1.15724300
 C                 -2.21010300   -3.57101800    1.03792800
 O                 -2.54530100   -4.74721900    1.80285700
 C                 -2.68437000   -4.53906400    3.12145000
 C                 -3.04744400   -5.81348800    3.83780300
 O                 -2.53266000   -3.46267800    3.65050100
 H                 -0.37300500   -3.70522000   -0.91406600
 H                  1.13764700   -3.66714400    0.11867200
 H                 -0.30298400   -3.46944100    2.13318100
 H                 -2.47363600   -3.81568500    0.00615400
 H                 -2.85188800   -2.76125900    1.38478200
 H                 -2.25598300   -6.55311200    3.69226600
 H                 -3.96673800   -6.22637100    3.41550300
 H                 -3.17737000   -5.60750400    4.89897400

