89

 P                 -1.65910900    0.01016100    0.15458800
 C                 -3.07497000   -0.77329600   -0.72264400
 C                 -1.37549300    1.50554600   -0.88945100
 C                 -2.50362800    0.71404800    1.63265400
 C                 -3.14380100   -2.16414700   -0.81625500
 C                 -4.22217900   -2.79086700   -1.43654800
 C                 -5.25050800   -2.02259800   -1.97710400
 C                 -5.19972600   -0.62767600   -1.89220700
 C                 -4.12295100   -0.01749600   -1.27008400
 C                 -2.00287100    2.74054400   -0.69756600
 C                 -1.70509400    3.82226800   -1.52645100
 C                 -0.78767100    3.67972100   -2.56353700
 C                 -0.17109400    2.44694900   -2.77432700
 C                 -0.45917500    1.37347200   -1.93912300
 C                 -1.89792100    1.76181900    2.34251700
 C                 -2.41026400    2.18902200    3.56173100
 C                 -3.53214900    1.56345400    4.10640400
 C                 -4.14504300    0.52631200    3.41052800
 C                 -3.63996300    0.10846400    2.17878200
 H                 -2.34345200   -2.76683300   -0.39758900
 H                 -4.25757300   -3.87576900   -1.50430400
 O                 -6.32672400   -2.56923100   -2.59935900
 H                 -6.00989200   -0.04926100   -2.32303400
 H                 -4.09069100    1.06733600   -1.21448800
 H                 -2.72354100    2.86574000    0.10562200
 H                 -2.20062400    4.77513700   -1.36321600
 H                 -0.54681200    4.52399500   -3.20222600
 H                  0.55265600    2.32872500   -3.57456600
 H                  0.04931400    0.42244900   -2.08083400
 H                 -1.01790800    2.24929700    1.92982300
 H                 -1.92859000    3.00391800    4.09358900
 H                 -3.92535500    1.88600700    5.06512500
 H                 -5.02141600    0.03677400    3.82389700
 H                 -4.13179300   -0.69834100    1.64211900
 P                  2.24448600   -0.64478500    0.21288000
 C                  2.32269000    1.13941200   -0.21291900
 C                  3.15201100   -1.39436900   -1.20043800
 C                  3.45834000   -0.78938000    1.58741500
 C                  3.05528600    1.65645800   -1.28704000
 C                  2.97749400    3.00350500   -1.62142100
 C                  2.15917900    3.85583200   -0.88079400
 C                  1.46292500    3.36743100    0.22620000
 C                  1.54481200    2.01989300    0.54498100
 C                  4.52524900   -1.65349000   -1.16366800
 C                  5.17278400   -2.17580300   -2.28195200
 C                  4.45883900   -2.43578800   -3.44816500
 C                  3.09033400   -2.17726000   -3.49436700
 C                  2.44160500   -1.66531000   -2.37564200
 C                  3.47706200   -1.98047700    2.32266300
 C                  4.36550000   -2.14423700    3.37998200
 C                  5.24581000   -1.11693900    3.71492500
 C                  5.23928300    0.06755200    2.98411600
 C                  4.35069500    0.23247500    1.92265400
 H                  3.67997900    1.00009900   -1.88586500
 H                  3.52119200    3.40783000   -2.46871200
 O                  2.06532400    5.14886900   -1.28697100
 H                  0.82769700    4.03315100    0.80699700
 H                  0.97241000    1.62740700    1.38238800
 H                  5.09202100   -1.44672100   -0.26067000
 H                  6.23844000   -2.37856700   -2.23901000
 H                  4.96534100   -2.84347300   -4.31743900
 H                  2.52499400   -2.38409200   -4.39759700
 H                  1.37024600   -1.48213800   -2.40972000
 H                  2.77972600   -2.77333500    2.06208400
 H                  4.35850300   -3.06587200    3.95295400
 H                  5.93077100   -1.23845300    4.54819800
 H                  5.92385700    0.87008000    3.24128500
 H                  4.34951600    1.16009600    1.35746000
 Rh                 0.17657400   -1.51402500    0.77524800
 C                  0.25956300   -2.97123000   -0.42804700
 O                  0.30951200   -3.88785100   -1.12280100
 H                  0.38286000   -0.63958100    2.15946700
 H                 -6.23645200   -3.53293300   -2.60395000
 H                  1.40706400    5.60218600   -0.74079200
 C                 -1.03712300   -2.63857200    2.19894100
 C                 -0.08969400   -1.95304800    3.00304900
 C                 -0.56881300   -1.00988300    4.08900000
 O                 -0.97792900   -1.76842900    5.24110200
 C                  0.01380900   -2.24934900    6.01051100
 C                 -0.54159800   -3.02968500    7.17430300
 O                  1.18624600   -2.07278300    5.78622400
 H                 -2.08128300   -2.33397700    2.26875300
 H                 -0.87613600   -3.68933000    1.97886800
 H                  0.83009600   -2.46509400    3.27238800
 H                 -1.46308000   -0.46916200    3.77912600
 H                  0.21376300   -0.30860500    4.39044200
 H                 -1.11026000   -3.88540100    6.80110100
 H                 -1.22751900   -2.40281700    7.74901400
 H                  0.27800400   -3.37112100    7.80455300

