89

 P                 -1.69746900    0.03189200    0.13293100
 C                 -3.14342800   -0.68830300   -0.74519900
 C                 -1.40243200    1.55448900   -0.86483800
 C                 -2.49012800    0.68991400    1.66219100
 C                 -3.25176500   -2.07370100   -0.87912900
 C                 -4.35726700   -2.65055400   -1.49961600
 C                 -5.37250900   -1.83815200   -1.99902700
 C                 -5.28120600   -0.44843900   -1.87393000
 C                 -4.17771500    0.11282300   -1.25244600
 C                 -1.98374900    2.80150600   -0.61855500
 C                 -1.68384400    3.89439300   -1.43295300
 C                 -0.81331200    3.74921600   -2.50925400
 C                 -0.24225600    2.50409000   -2.77294700
 C                 -0.52891100    1.42017400   -1.95155800
 C                 -1.83941800    1.68857300    2.40349300
 C                 -2.31235900    2.07674000    3.65164200
 C                 -3.43995700    1.46013200    4.19500600
 C                 -4.09569800    0.46940800    3.47051400
 C                 -3.62879300    0.09041000    2.21136300
 H                 -2.46140600   -2.70983300   -0.49278000
 H                 -4.42414400   -3.73146900   -1.59972300
 O                 -6.47386500   -2.33621600   -2.61822900
 H                 -6.08161700    0.16487400   -2.27358000
 H                 -4.11348900    1.19416300   -1.16586000
 H                 -2.67078300    2.92651400    0.21391900
 H                 -2.14363600    4.85730600   -1.22868600
 H                 -0.57180100    4.60082400   -3.13812900
 H                  0.44565300    2.38526900   -3.60406700
 H                 -0.05768700    0.45626800   -2.13507200
 H                 -0.95722600    2.17257000    1.99068800
 H                 -1.79677800    2.85563200    4.20529900
 H                 -3.80404100    1.75337500    5.17446200
 H                 -4.97701400   -0.01275900    3.88225700
 H                 -4.15636300   -0.67711700    1.65134700
 P                  2.20442800   -0.69050200    0.14785700
 C                  2.32335500    1.07516900   -0.35189200
 C                  3.22308900   -1.50016900   -1.14301700
 C                  3.26259200   -0.69988200    1.65782200
 C                  3.05766000    1.54631900   -1.44364200
 C                  3.00826300    2.88786500   -1.81075500
 C                  2.22292800    3.77845700   -1.08119600
 C                  1.52561200    3.33498800    0.04464700
 C                  1.57306700    1.99378900    0.38962700
 C                  4.58358000   -1.76601700   -0.96854000
 C                  5.32436700   -2.33799400   -2.00115400
 C                  4.71552900   -2.63802400   -3.21649400
 C                  3.36019300   -2.36906300   -3.39956900
 C                  2.61699600   -1.80850700   -2.36619600
 C                  3.13390200   -1.75598400    2.56716600
 C                  3.78393800   -1.71954400    3.79798400
 C                  4.61056900   -0.64377800    4.11231500
 C                  4.78728500    0.38832600    3.19446900
 C                  4.10851500    0.36863200    1.97850400
 H                  3.66384000    0.86096700   -2.02898000
 H                  3.55363700    3.25789200   -2.67253700
 O                  2.15680200    5.06476000   -1.51552400
 H                  0.91338300    4.02975900    0.61573600
 H                  1.00170100    1.63712700    1.24467300
 H                  5.06459500   -1.52489200   -0.02491400
 H                  6.37949300   -2.54690400   -1.85423500
 H                  5.29437800   -3.08358900   -4.01948000
 H                  2.87906600   -2.60460200   -4.34356800
 H                  1.55745700   -1.60759000   -2.50761900
 H                  2.49351700   -2.59602300    2.31327900
 H                  3.60672800   -2.50644800    4.52177600
 H                  5.10922300   -0.60620000    5.07584500
 H                  5.43769600    1.22481300    3.43180200
 H                  4.22596400    1.19489600    1.28397600
 Rh                 0.08551700   -1.54370100    0.71568400
 C                  0.16472300   -2.95881900   -0.58853500
 O                  0.15280800   -3.80278100   -1.37546200
 H                  0.27250000   -0.74388200    2.28352800
 H                 -6.40964900   -3.30136300   -2.65361500
 H                  1.51158300    5.54374100   -0.97565400
 C                 -1.22737000   -2.66077000    2.01004900
 C                 -0.21079400   -2.08939900    2.93860400
 C                 -0.49116100   -1.08914300    4.05715800
 O                 -0.63483100   -1.96440300    5.19091200
 C                  0.50295700   -2.46332200    5.69891000
 C                  0.21713300   -3.37571200    6.86324400
 O                  1.60340200   -2.21119100    5.26623200
 H                 -2.26550000   -2.34516400    2.12508400
 H                 -1.10810700   -3.72410800    1.82752200
 H                  0.77124800   -2.45070600    3.01905000
 H                 -1.45604800   -0.58636300    3.96525500
 H                  0.30108500   -0.36591900    4.27053500
 H                 -0.38319200   -4.22325900    6.52229200
 H                 -0.36374500   -2.84260000    7.61952900
 H                  1.15650100   -3.72864500    7.28572800

