95

 P                 -1.61380300    0.01378700    0.48992100
 C                 -2.73851900    1.45569400    0.29045700
 C                 -2.51115500   -0.96271300    1.77100700
 C                 -1.94457700   -0.95386200   -1.04604200
 C                 -2.85008900    2.31333600    1.39794600
 C                 -3.56897000    3.50127700    1.29120100
 C                 -4.16566500    3.84865300    0.06988600
 C                 -4.05660200    2.99585500   -1.01498200
 C                 -3.35051800    1.79182300   -0.91407500
 C                 -1.78279200   -1.84510900    2.57609400
 C                 -2.42397600   -2.63697500    3.52694800
 C                 -3.80304200   -2.54540100    3.69279800
 C                 -4.53791900   -1.65960100    2.90636700
 C                 -3.89746300   -0.87376300    1.95242300
 C                 -1.10806900   -0.73349900   -2.14754100
 C                 -1.26836900   -1.46168000   -3.32110800
 C                 -2.25701600   -2.44030200   -3.40356900
 C                 -3.09624300   -2.66772400   -2.31714600
 C                 -2.95017800   -1.92003900   -1.14987300
 H                 -2.35834200    2.03676800    2.32651500
 O                 -3.73832600    4.38793800    2.30403200
 H                 -4.70721600    4.78646200    0.00975400
 H                 -4.52763400    3.26531400   -1.95543600
 H                 -3.27328400    1.13147700   -1.77185200
 H                 -0.70328400   -1.90626500    2.46103100
 H                 -1.84164100   -3.31415400    4.14424800
 H                 -4.30403500   -3.15535700    4.43805900
 H                 -5.61290800   -1.57987900    3.03599400
 H                 -4.47640200   -0.18620900    1.34121000
 H                 -0.29845800   -0.01220100   -2.06749500
 H                 -0.59869900   -1.28764600   -4.15756100
 H                 -2.36460100   -3.03093800   -4.30815800
 H                 -3.86459200   -3.43270100   -2.37229500
 H                 -3.61464500   -2.10698500   -0.31128300
 P                  2.22848700   -0.87425300    0.09503300
 C                  1.60632500   -2.24253600   -0.97569900
 C                  3.25522100   -1.79652100    1.31556600
 C                  3.52403600   -0.11847700   -0.98087300
 C                  0.54527700   -3.01177000   -0.47501300
 C                  0.01955600   -4.05612000   -1.23252800
 C                  0.54465200   -4.32597400   -2.50410300
 C                  1.58954100   -3.56256400   -2.99410500
 C                  2.13251800   -2.52102300   -2.23471000
 C                  3.80695300   -1.07518800    2.38144600
 C                  4.62365600   -1.70340600    3.31538700
 C                  4.89005200   -3.06687300    3.20353600
 C                  4.34567800   -3.79234500    2.14805500
 C                  3.53758200   -3.16109000    1.20339400
 C                  3.14831700    0.84225600   -1.92884400
 C                  4.09308400    1.43013800   -2.76480900
 C                  5.43352600    1.06424000   -2.66421000
 C                  5.81896700    0.10627600   -1.73040400
 C                  4.87241000   -0.48384800   -0.89519600
 H                  0.12533100   -2.76214200    0.49529100
 O                 -0.99549800   -4.86209900   -0.83175700
 H                  0.10728500   -5.13590500   -3.07852500
 H                  1.99419300   -3.77722400   -3.97870800
 H                  2.95915900   -1.93863700   -2.62740300
 H                  3.59330700   -0.01265500    2.47197000
 H                  5.04427800   -1.12992900    4.13547700
 H                  5.51931100   -3.56104100    3.93725900
 H                  4.55235700   -4.85397700    2.05291500
 H                  3.13046600   -3.73361200    0.37556300
 H                  2.11080100    1.14934500   -2.02492800
 H                  3.76906200    2.18484500   -3.47368400
 H                  6.17525100    1.52602500   -3.30875700
 H                  6.86135300   -0.18645100   -1.64791500
 H                  5.18862300   -1.23275800   -0.17568000
 Rh                 0.66565600    0.61445000    0.98211300
 C                  0.86169600    0.15867400    2.79161400
 O                  0.96807300   -0.10717800    3.90673300
 H                  0.67807300    1.25765600   -0.53490600
 C                 -3.14709500    4.07577800    3.54691900
 H                 -3.54076600    3.13502400    3.95007000
 H                 -2.05585200    4.00166300    3.46283600
 H                 -3.40318200    4.89520200    4.21792100
 C                 -1.50821300   -4.66056600    0.46774400
 H                 -2.27705500   -5.42008900    0.61193600
 H                 -0.72478500   -4.78371700    1.22726300
 H                 -1.95328800   -3.66537900    0.57241200
 C                  0.69914400    2.78506000    1.39698900
 C                  0.92919200    2.70622200    0.00763500
 C                 -0.09314000    3.29705100   -0.95334600
 O                  0.34787000    4.59602700   -1.37665100
 C                  1.27786300    4.59998600   -2.34523600
 C                  1.67929500    6.00521100   -2.70591800
 O                  1.72423100    3.59536700   -2.84837100
 H                 -0.26227000    3.16223900    1.73862600
 H                  1.53828400    2.92869700    2.06875200
 H                  1.95619300    2.76927800   -0.35048500
 H                 -1.04837700    3.46021700   -0.45088200
 H                 -0.24775900    2.67899700   -1.84180400
 H                  2.13793200    6.48546700   -1.83756400
 H                  0.79479100    6.58646000   -2.97635200
 H                  2.38544000    5.97889400   -3.53417700

