95

 P                 -1.81349800    0.03803100   -0.60550600
 C                 -2.92427400    1.35602300    0.05647200
 C                 -2.05371100   -1.33106200    0.60527600
 C                 -2.80050600   -0.55313800   -2.04617700
 C                 -2.41715700    2.28565400    0.98873000
 C                 -3.20818300    3.34165400    1.44504000
 C                 -4.52270300    3.46369400    1.00214100
 C                 -5.05379500    2.53938600    0.11192500
 C                 -4.25246500    1.49786500   -0.35221000
 C                 -3.02586600   -1.31025400    1.60829500
 C                 -3.14151800   -2.37687200    2.49949300
 C                 -2.29977800   -3.47979600    2.38721600
 C                 -1.33026700   -3.51199500    1.38598400
 C                 -1.20018000   -2.43831800    0.51268800
 C                 -2.93839300    0.33011100   -3.12887800
 C                 -3.55070000   -0.07922900   -4.30714200
 C                 -4.01576300   -1.38995700   -4.43334200
 C                 -3.88626600   -2.27114300   -3.36513200
 C                 -3.29219300   -1.85393000   -2.17263400
 O                 -1.14948900    2.07604500    1.42046400
 H                 -2.80804500    4.06105500    2.14927800
 H                 -5.13040300    4.28644100    1.36605100
 H                 -6.08113900    2.62498900   -0.22558000
 H                 -4.66760200    0.78158100   -1.05426400
 H                 -3.69565000   -0.45952900    1.69585700
 H                 -3.89637400   -2.34516900    3.27966700
 H                 -2.39100500   -4.30798100    3.08353700
 H                 -0.65451100   -4.35775300    1.30477000
 H                 -0.40918800   -2.43941000   -0.23475300
 H                 -2.54966000    1.34292800   -3.03957100
 H                 -3.65284500    0.61786700   -5.13340200
 H                 -4.47750400   -1.71778400   -5.35935600
 H                 -4.25218000   -3.28969300   -3.45289600
 H                 -3.20327100   -2.55110700   -1.34484000
 P                  2.15847900    0.13313700    0.20823300
 C                  2.92859900    1.58434600    1.04886800
 C                  3.59765700   -0.75335200   -0.51576000
 C                  1.74888300   -0.91879900    1.66526300
 C                  3.33906600    2.68137900    0.26224300
 C                  3.76890900    3.86742200    0.85856200
 C                  3.82980500    3.95883500    2.24775500
 C                  3.47524600    2.87486700    3.04010000
 C                  3.02874700    1.69880800    2.43674300
 C                  4.91131700   -0.28731200   -0.41691000
 C                  5.95446100   -0.98591300   -1.02192900
 C                  5.69983300   -2.15884900   -1.72739800
 C                  4.39455600   -2.63773100   -1.82508900
 C                  3.35296400   -1.93779400   -1.22416000
 C                  0.59492300   -0.57964800    2.38463000
 C                  0.22133800   -1.30672700    3.50875000
 C                  0.98058900   -2.40450300    3.91195100
 C                  2.12092000   -2.75658600    3.19610300
 C                  2.51239600   -2.01114600    2.08331400
 O                  3.30935300    2.48813400   -1.07840900
 H                  4.06464600    4.71348000    0.24982300
 H                  4.16796300    4.88428200    2.70359200
 H                  3.53937800    2.93760600    4.12124700
 H                  2.73746100    0.85996600    3.06037900
 H                  5.12387500    0.62224000    0.13699000
 H                  6.96993900   -0.61024300   -0.93850500
 H                  6.51519800   -2.69715600   -2.20100700
 H                  4.16875800   -3.54127800   -2.38181400
 H                  2.33973900   -2.32277600   -1.31733700
 H                 -0.02176100    0.24920700    2.04396500
 H                 -0.68260700   -1.03785400    4.04717500
 H                  0.67904300   -2.98751900    4.77713600
 H                  2.71671000   -3.61009400    3.50564700
 H                  3.41379400   -2.28429800    1.54285200
 Rh                 0.39022500    0.59018800   -1.31708700
 C                  0.36562800    2.43315900   -1.04222900
 O                  0.37271500    3.56864800   -0.83399800
 H                  0.55821300   -1.01307000   -1.73084000
 C                 -0.50763600    3.08966700    2.16986700
 H                 -0.53897700    4.04526800    1.63575700
 H                 -0.96625600    3.19786800    3.16001200
 H                  0.53045500    2.76988600    2.27831100
 C                  3.48543100    3.60750300   -1.92022300
 H                  3.29446000    3.25142900   -2.93239000
 H                  2.77208500    4.40029200   -1.66866100
 H                  4.50954300    3.99421000   -1.85720200
 C                  0.62523300    0.67722100   -3.50917100
 C                  0.87099300   -0.67919100   -3.20094600
 C                 -0.05615400   -1.76396200   -3.72755100
 O                  0.50582600   -2.33084900   -4.92304600
 C                  1.49387500   -3.21812900   -4.73038600
 C                  2.02526300   -3.73023500   -6.04312800
 O                  1.89604500   -3.54994100   -3.63939200
 H                 -0.30590100    0.93825700   -4.00725900
 H                  1.46714000    1.33696700   -3.68920200
 H                  1.91145900   -0.99659300   -3.13812800
 H                 -1.01945400   -1.34773300   -4.02638400
 H                 -0.21165800   -2.56987300   -3.00534000
 H                  2.47425200   -2.90292100   -6.59912200
 H                  1.20655700   -4.12863800   -6.64665300
 H                  2.77083700   -4.50137100   -5.85619400

