95

 P                 -1.99270400   -0.26551700   -0.45750000
 C                 -2.88463600    1.30577000   -0.08652200
 C                 -2.29687100   -1.28020500    1.04833200
 C                 -3.16770800   -1.05375100   -1.64496600
 C                 -2.24670300    2.28517600    0.70253200
 C                 -2.83918700    3.53061400    0.90985500
 C                 -4.08719700    3.80291800    0.35399500
 C                 -4.74507800    2.84291800   -0.40293400
 C                 -4.14011500    1.60555500   -0.61849300
 C                 -3.11747100   -0.86802100    2.09997200
 C                 -3.32518800   -1.70317700    3.19827900
 C                 -2.72565500   -2.95829900    3.24803400
 C                 -1.90560100   -3.37668000    2.20066400
 C                 -1.68439100   -2.53764900    1.11527500
 C                 -3.06611500   -0.68799200   -2.99385600
 C                 -3.93793800   -1.21692500   -3.94047200
 C                 -4.91534100   -2.13256300   -3.55332800
 C                 -5.02121000   -2.50531300   -2.21657500
 C                 -4.15709300   -1.96503400   -1.26477000
 O                 -1.05454100    1.93258900    1.24693900
 H                 -2.33706900    4.28531000    1.50291200
 H                 -4.54115500    4.77468900    0.52169900
 H                 -5.71953800    3.05075400   -0.83163200
 H                 -4.65284300    0.86309400   -1.22123200
 H                 -3.60388200    0.10266100    2.05959100
 H                 -3.96310300   -1.37141600    4.01222500
 H                 -2.88960400   -3.60668000    4.10346500
 H                 -1.41991600   -4.34673000    2.24168900
 H                 -1.01500300   -2.84569300    0.31474900
 H                 -2.29200700    0.01764000   -3.29055900
 H                 -3.84960900   -0.91985800   -4.98106700
 H                 -5.59020400   -2.55430000   -4.29176400
 H                 -5.78135600   -3.21676300   -1.90849400
 H                 -4.25706800   -2.25471400   -0.22293200
 P                  1.97972400   -0.41302600    0.19577200
 C                  2.84748800    1.09781900    0.82333400
 C                  3.34445600   -1.45141700   -0.45621200
 C                  1.59248100   -1.22684200    1.80302300
 C                  3.14919700    2.15136900   -0.06743900
 C                  3.63283400    3.37219400    0.41070400
 C                  3.86361500    3.54203900    1.77331700
 C                  3.62802300    2.49970800    2.66049500
 C                  3.12379400    1.29212100    2.17989800
 C                  4.62145400   -0.95680600   -0.72660400
 C                  5.56085300   -1.75262400   -1.38173400
 C                  5.24186200   -3.05405800   -1.75704900
 C                  3.97501800   -3.56497800   -1.47138700
 C                  3.03142500   -2.76509100   -0.83712600
 C                  0.51789700   -0.69222400    2.52651900
 C                  0.18591600   -1.19611500    3.77847900
 C                  0.90258500   -2.26666900    4.31200900
 C                  1.96233800   -2.81323500    3.59480200
 C                  2.31646000   -2.28804700    2.35143200
 O                  2.96944400    1.89633300   -1.38454900
 H                  3.84136700    4.18444000   -0.27446100
 H                  4.24190100    4.49433900    2.13220200
 H                  3.82684600    2.61971700    3.72017300
 H                  2.92248600    0.49030500    2.88217400
 H                  4.88147800    0.05669800   -0.43580400
 H                  6.54669800   -1.35165600   -1.59676000
 H                  5.97479900   -3.66989000   -2.26851300
 H                  3.71956600   -4.58126600   -1.75589800
 H                  2.03378700   -3.15438400   -0.63855500
 H                 -0.06532500    0.11841400    2.09574500
 H                 -0.65290600   -0.77214300    4.32204900
 H                  0.63341700   -2.67392800    5.28203500
 H                  2.52866700   -3.64330200    4.00663800
 H                  3.16537200   -2.70347800    1.81715200
 Rh                 0.13341400   -0.13054000   -1.37549900
 C                  0.10717900    1.75075900   -1.46338400
 O                  0.08676200    2.90214300   -1.42962100
 H                  0.04172000   -1.78372700   -1.49279500
 C                 -0.24249000    2.94977800    1.80475300
 H                 -0.07146500    3.74852000    1.07490600
 H                 -0.69636200    3.36237900    2.71350400
 H                  0.70787200    2.47552400    2.05476400
 C                  3.09387900    2.97016400   -2.30383400
 H                  2.79113300    2.57566200   -3.27484700
 H                  2.43464200    3.79741200   -2.02111500
 H                  4.13195000    3.32015300   -2.35088600
 C                  0.30168900   -1.68290900   -3.06334500
 C                  0.96849500   -0.47854900   -3.38803400
 C                  2.46179400   -0.48319400   -3.56075300
 O                  2.81252000   -0.65013800   -4.96005500
 C                  2.73147100    0.44552700   -5.71835000
 C                  3.08402700    0.14220800   -7.15290500
 O                  2.41291700    1.53840300   -5.30621100
 H                  0.91473300   -2.57942800   -2.96380000
 H                 -0.70817500   -1.86925900   -3.41921600
 H                  0.43980200    0.25981900   -3.98605500
 H                  2.91259100   -1.34539200   -3.06751700
 H                  2.93456500    0.42645300   -3.19207800
 H                  2.36192500   -0.56949400   -7.56163800
 H                  4.07086800   -0.32394600   -7.20263700
 H                  3.06909900    1.06352000   -7.73307100

