95

 P                 -1.35637400   -0.69926700    0.24616900
 C                 -2.02589100    0.25252900   -1.18039100
 C                 -2.86178500   -0.95766100    1.27770200
 C                 -1.10997200   -2.39610300   -0.44965100
 C                 -1.18889500    1.17772400   -1.80617900
 C                 -1.60155500    1.92077500   -2.91235100
 C                 -2.89539400    1.74915700   -3.40376800
 C                 -3.75926000    0.83715900   -2.78080100
 C                 -3.32864000    0.10313900   -1.68920700
 C                 -3.77924400    0.08148000    1.48001700
 C                 -4.83040100   -0.06118300    2.38242400
 C                 -4.97882300   -1.24335700    3.10284800
 C                 -4.07004100   -2.28157200    2.91192300
 C                 -3.01989300   -2.14032900    2.00946200
 C                 -1.83051200   -2.89695900   -1.53858600
 C                 -1.60909600   -4.19367300   -1.99685700
 C                 -0.66743400   -5.00936400   -1.37196800
 C                  0.05839500   -4.51821200   -0.29030100
 C                 -0.15589300   -3.21821000    0.16053500
 H                 -0.18498700    1.33909600   -1.42274400
 H                 -0.90911900    2.62458900   -3.35967200
 O                 -3.40944200    2.41877000   -4.46376400
 H                 -4.76458400    0.73044800   -3.17450800
 H                 -4.01859000   -0.58778500   -1.21127000
 H                 -3.68518200    1.00416500    0.91263000
 H                 -5.53418300    0.75418200    2.51965900
 H                 -5.79715300   -1.35517700    3.80700500
 H                 -4.17851400   -3.20887900    3.46612400
 H                 -2.31861900   -2.95875800    1.87095000
 H                 -2.56159200   -2.27337600   -2.04312400
 H                 -2.17838400   -4.56829300   -2.84331900
 H                 -0.49137900   -6.01877600   -1.73251700
 H                  0.81062000   -5.13666300    0.18948800
 H                  0.43813600   -2.82655100    0.98124300
 P                  2.34574100    0.20635900    0.04412800
 C                  2.44097600   -1.27741200   -1.03134400
 C                  4.04323100    0.28813100    0.75864400
 C                  2.42983900    1.61488400   -1.15889300
 C                  1.54204600   -1.42005300   -2.09132100
 C                  1.46683500   -2.59352400   -2.83529700
 C                  2.28319400   -3.67299100   -2.49475100
 C                  3.18059300   -3.55328800   -1.42919700
 C                  3.25695900   -2.37063600   -0.70887100
 C                  5.17721600    0.17990100   -0.05686900
 C                  6.44980300    0.27763500    0.49166300
 C                  6.60465500    0.49147200    1.86235200
 C                  5.48448200    0.60926100    2.67701100
 C                  4.20629800    0.50885300    2.12628700
 C                  2.82666600    1.47215200   -2.49178500
 C                  2.84138000    2.57341600   -3.34794000
 C                  2.47180600    3.83207300   -2.88225700
 C                  2.09978300    3.99171100   -1.54799100
 C                  2.08269600    2.89188800   -0.69671000
 H                  0.86752600   -0.60446500   -2.34575600
 H                  0.74466100   -2.66526600   -3.63969900
 O                  2.26086000   -4.87660700   -3.12239500
 H                  3.80352800   -4.40625900   -1.18093500
 H                  3.95831600   -2.29996900    0.11792800
 H                  5.05971100    0.01361200   -1.12520000
 H                  7.32269400    0.18997500   -0.14784000
 H                  7.59964700    0.56816300    2.28990900
 H                  5.59969500    0.77902900    3.74298000
 H                  3.32410400    0.60802400    2.75337500
 H                  3.11098000    0.49633900   -2.87373000
 H                  3.14247700    2.44179000   -4.38295900
 H                  2.47962100    4.68551200   -3.55358800
 H                  1.81429200    4.96335000   -1.15684800
 H                  1.78588700    3.03866400    0.33762500
 Rh                 0.52943900    0.26262600    1.48903000
 C                  1.16673600   -1.04321300    2.70534000
 O                  1.56720300   -1.83681100    3.43807600
 H                  0.19447200    1.64076200    0.71621100
 C                 -2.57207000    3.35376300   -5.10875400
 H                 -2.26659700    4.15301300   -4.42311900
 H                 -1.67740300    2.87005300   -5.51852900
 H                 -3.16116200    3.77725100   -5.92175000
 C                  1.43616700   -4.99769000   -4.26061000
 H                  1.58251300   -6.01132000   -4.63412100
 H                  0.38052900   -4.84957300   -4.00452700
 H                  1.72397400   -4.27718700   -5.03611100
 C                 -0.63648000    1.34795300    2.99586600
 C                 -0.17751100    2.35151800    2.11008500
 C                 -1.15618200    3.17276800    1.29082700
 O                 -1.50141200    4.37541500    1.99550200
 C                 -0.59808600    5.36625800    1.90262700
 C                 -1.04045200    6.57655300    2.68121600
 O                  0.43085900    5.27908000    1.27412600
 H                 -1.69196900    1.08072400    2.99477200
 H                 -0.11805600    1.20688300    3.93823600
 H                  0.72525100    2.89937800    2.37158000
 H                 -2.09257400    2.62690700    1.15598500
 H                 -0.75222100    3.45343500    0.31412900
 H                 -1.11763500    6.31804500    3.74053100
 H                 -2.03075300    6.89311900    2.34554800
 H                 -0.31766000    7.37912300    2.54417400

