87

 P                  2.10263200   -1.49932500   -0.74213000
 C                  1.37994200    0.18395100   -1.01361200
 C                  3.15034800   -1.66104500   -2.25275600
 C                  3.38740400   -1.20266400    0.54622200
 C                  1.73033800    1.31737700   -0.28057200
 C                  1.10615100    2.53070400   -0.56262800
 C                  0.13206200    2.64984900   -1.54398200
 C                 -0.21731900    1.50235500   -2.25063000
 C                  0.39249900    0.28150100   -2.00229900
 C                  3.65511300   -2.93203200   -2.55055700
 C                  4.48482300   -3.12381000   -3.65011300
 C                  4.81012000   -2.04897000   -4.47493900
 C                  4.30808600   -0.78267400   -4.19037300
 C                  3.48532100   -0.58668800   -3.08268900
 C                  4.45007900   -0.31798300    0.30697700
 C                  5.42344600   -0.10541700    1.27535000
 C                  5.36490900   -0.79094300    2.48985800
 C                  4.33119700   -1.68829600    2.72841400
 C                  3.34616500   -1.88803200    1.76164700
 H                  2.46953400    1.26810100    0.51201700
 Br                 1.58446000    4.06329200    0.43693000
 H                 -0.35491800    3.59738900   -1.73744100
 Br                -1.58250400    1.61568700   -3.55321800
 H                  0.09785900   -0.59648400   -2.56899500
 H                  3.38105900   -3.77333300   -1.91783200
 H                  4.86755000   -4.11560100   -3.86947200
 H                  5.44829400   -2.19975700   -5.33995800
 H                  4.55410100    0.05842000   -4.83107900
 H                  3.10241600    0.40789600   -2.87225800
 H                  4.51701400    0.20389500   -0.64459600
 H                  6.23514200    0.58802200    1.07870700
 H                  6.13287200   -0.62977000    3.24019500
 H                  4.27596400   -2.25007500    3.65509600
 H                  2.55969000   -2.60496300    1.96868000
 P                 -1.48325600   -2.01862700    0.28985900
 C                 -1.13480500   -0.39565000    1.10485400
 C                 -2.42212200   -2.90872700    1.60203900
 C                 -2.85177900   -1.61280300   -0.86865000
 C                 -0.09507400   -0.35917400    2.04374400
 C                  0.24055300    0.83749800    2.66111500
 C                 -0.42981500    2.02100800    2.37120000
 C                 -1.43144200    1.97369600    1.41062000
 C                 -1.79261700    0.79025200    0.77276400
 C                 -2.45108000   -2.53830900    2.94881500
 C                 -3.06035400   -3.36340900    3.89446700
 C                 -3.65534300   -4.55969100    3.50630500
 C                 -3.65427100   -4.92540700    2.15969200
 C                 -3.04015500   -4.10831800    1.21744300
 C                 -4.11246700   -1.20484100   -0.40870500
 C                 -5.12599300   -0.90403100   -1.31029100
 C                 -4.89652500   -1.01608800   -2.68269300
 C                 -3.65479000   -1.43293100   -3.14746500
 C                 -2.63662200   -1.73175600   -2.24207800
 H                  0.47509900   -1.25525900    2.26968300
 Br                 1.70489500    0.88222200    3.85503600
 H                 -0.14998100    2.95389300    2.84360000
 Br                -2.29689300    3.58078700    0.91860600
 H                 -2.56851900    0.80813100    0.01525500
 H                 -1.99557300   -1.60705800    3.27093900
 H                 -3.07019500   -3.06398300    4.93798500
 H                 -4.12406700   -5.20169400    4.24518600
 H                 -4.12688400   -5.85078000    1.84510900
 H                 -3.03410700   -4.40021000    0.16880700
 H                 -4.29516300   -1.12581600    0.66047200
 H                 -6.09711400   -0.58533500   -0.94469300
 H                 -5.69038400   -0.78281400   -3.38536000
 H                 -3.47072700   -1.52606300   -4.21308400
 H                 -1.67243100   -2.07633700   -2.60477900
 Rh                 0.52976600   -3.18053400   -0.44242600
 C                  0.43789000   -3.62961200   -2.27698200
 O                  0.39649100   -3.91238400   -3.39130600
 H                  0.87696500   -3.10653200    1.14802400
 C                  0.17287500   -5.26489100    0.19046100
 C                  0.92259700   -4.71742100    1.25130300
 C                  0.32405300   -4.64443000    2.65088800
 O                  0.88176100   -5.69267400    3.45759600
 C                  2.10520700   -5.44263800    3.95412500
 C                  2.59910400   -6.59398400    4.78799300
 O                  2.71379000   -4.41923500    3.74553300
 H                 -0.87332800   -5.50430700    0.36525600
 H                  0.67778700   -5.85709100   -0.56507300
 H                  2.00211500   -4.85334100    1.25144600
 H                 -0.75058200   -4.83361900    2.62629400
 H                  0.51573000   -3.69166500    3.15190000
 H                  2.66839400   -7.49060300    4.16675000
 H                  1.88714700   -6.80213600    5.59017200
 H                  3.57565100   -6.34833600    5.20179700

