99

 P                  1.74452600   -0.70689700   -0.44842300
 C                  1.51411200    1.04903000   -0.95455400
 C                  2.19546800   -1.48228800   -2.05946900
 C                  3.37723300   -0.63711700    0.40696400
 C                  0.30102600    1.37155900   -1.57317800
 C                  0.00969700    2.67440900   -1.96164100
 C                  0.95901700    3.67115200   -1.70851100
 C                  2.17864800    3.38065000   -1.10367800
 C                  2.44880100    2.05824000   -0.73025900
 C                  1.96926300   -2.85194700   -2.23470500
 C                  2.35432300   -3.48748500   -3.41382900
 C                  2.95291400   -2.75747400   -4.43619000
 C                  3.17183500   -1.38976900   -4.27542500
 C                  2.79943300   -0.75605200   -3.09363500
 C                  4.56208500   -1.14023500   -0.13662000
 C                  5.73692900   -1.14994600    0.61512900
 C                  5.74839200   -0.64344200    1.91110300
 C                  4.57573300   -0.12244100    2.45799100
 C                  3.40044300   -0.12996000    1.71456200
 H                 -0.44274100    0.59145500   -1.72413100
 C                 -1.29661500    3.00350600   -2.63685800
 H                  0.73230100    4.70046300   -1.98266600
 C                  3.20357800    4.46029300   -0.86070100
 H                  3.39918800    1.82794300   -0.25432900
 H                  1.49335000   -3.43423200   -1.45030500
 H                  2.17653600   -4.55245700   -3.52524000
 H                  3.24568100   -3.24966100   -5.35868300
 H                  3.63481000   -0.81498400   -5.07189000
 H                  2.97816600    0.30892700   -2.97103000
 H                  4.56817800   -1.54122900   -1.14583800
 H                  6.64599500   -1.55646200    0.18248500
 H                  6.66381200   -0.65490100    2.49425000
 H                  4.57441100    0.27761000    3.46751300
 H                  2.48099800    0.25174000    2.15442100
 P                 -1.83216900   -0.43430900    1.12317500
 C                 -1.58789800    1.39262800    1.09526000
 C                 -2.60263900   -0.69113800    2.77799700
 C                 -3.27895400   -0.62606300    0.00088800
 C                 -2.53239000    2.27792800    0.57467300
 C                 -2.28609600    3.65431600    0.54798700
 C                 -1.07472200    4.12755700    1.04753300
 C                 -0.11489000    3.26478900    1.58440000
 C                 -0.38640700    1.89922500    1.59956600
 C                 -2.78445300   -2.01166900    3.20918700
 C                 -3.38091700   -2.27893500    4.43699200
 C                 -3.78826400   -1.22824200    5.25826000
 C                 -3.60390800    0.08638000    4.84113400
 C                 -3.01871500    0.35616900    3.60411200
 C                 -3.03959900   -0.81258500   -1.36532300
 C                 -4.09669700   -0.89119100   -2.26723500
 C                 -5.40959900   -0.79828400   -1.81113000
 C                 -5.65896700   -0.62625700   -0.45207200
 C                 -4.60072500   -0.53732600    0.44986000
 H                 -3.46863900    1.90273900    0.16836900
 C                 -3.31920800    4.60043700   -0.01083700
 H                 -0.86242300    5.19483700    1.00472400
 C                  1.18741800    3.79753700    2.12390400
 H                  0.36492300    1.20617100    1.97209000
 H                 -2.44642600   -2.82628300    2.57130900
 H                 -3.52095500   -3.30699500    4.75684200
 H                 -4.24479000   -1.43524000    6.22122200
 H                 -3.91807500    0.90838500    5.47714600
 H                 -2.88712800    1.38519000    3.28244700
 H                 -2.01781500   -0.91431300   -1.72235500
 H                 -3.89326100   -1.03902200   -3.32315200
 H                 -6.23573800   -0.86808600   -2.51186700
 H                 -6.68034100   -0.56049400   -0.08987000
 H                 -4.80517400   -0.39407300    1.50709200
 Rh                -0.00699700   -1.81320000    0.80714400
 C                 -0.88291300   -2.99696800   -0.39206600
 O                 -1.42233200   -3.71736500   -1.10658100
 H                  0.54935400   -1.09452300    2.18331600
 H                 -1.18513600    3.00433800   -3.72724000
 H                 -1.65429500    3.99406300   -2.33876900
 H                 -2.06667200    2.26991000   -2.37741800
 H                  3.70813300    4.31685500    0.09983300
 H                  2.74253400    5.45225000   -0.86042000
 H                  3.97457500    4.45371000   -1.63928400
 H                 -3.85469300    4.14733700   -0.85053000
 H                 -2.85913600    5.52979400   -0.35918500
 H                 -4.06309700    4.86500400    0.74906600
 H                  1.98417100    3.05326100    2.02584300
 H                  1.09800200    4.05955800    3.18443500
 H                  1.49711900    4.69746300    1.58359700
 C                  0.84017000   -2.55302500    2.79667700
 C                  1.14092500   -3.43669100    1.72975200
 C                  2.57659600   -3.67540600    1.32279300
 O                  2.97942700   -5.02027900    1.65809000
 C                  2.56992700   -5.96059000    0.79332000
 C                  3.03417400   -7.32956200    1.21895500
 O                  1.91262800   -5.72660400   -0.19384800
 H                  1.67996700   -2.07696100    3.30400900
 H                 -0.02486300   -2.72212900    3.43162400
 H                  0.48890500   -4.29392600    1.58277900
 H                  3.25872600   -3.02588900    1.87702400
 H                  2.74883700   -3.53907100    0.25383900
 H                  2.60320000   -7.57429200    2.19323700
 H                  4.12131100   -7.33536100    1.32797600
 H                  2.72317600   -8.06376300    0.47751400

