99

 P                  1.75342600   -0.88691900   -1.21209500
 C                  1.54157600    0.94414600   -1.23747600
 C                  2.05797200   -1.25609500   -2.99073800
 C                  3.45099900   -1.04865000   -0.50509500
 C                  0.29384500    1.44044400   -1.63083300
 C                  0.02557400    2.80542200   -1.63560100
 C                  1.03490000    3.68105000   -1.22066800
 C                  2.28956600    3.21871000   -0.83214100
 C                  2.53530500    1.84041300   -0.84743400
 C                  2.14280400   -2.60055800   -3.37291900
 C                  2.40643100   -2.94643000   -4.69378800
 C                  2.57505500   -1.95115400   -5.65492400
 C                  2.48923500   -0.61225200   -5.28513900
 C                  2.23847000   -0.26387900   -3.95863600
 C                  4.59088300   -1.13663900   -1.31246300
 C                  5.85747100   -1.23138100   -0.73947100
 C                  6.00465900   -1.23552600    0.64504500
 C                  4.87818300   -1.14291700    1.45930100
 C                  3.61286300   -1.05073500    0.88639700
 H                 -0.49483000    0.74265300   -1.90642600
 C                 -1.31955700    3.32500700   -2.07359600
 H                  0.82851900    4.74996900   -1.18973900
 C                  3.37544500    4.17723400   -0.41148500
 H                  3.51122900    1.47438600   -0.53745500
 H                  1.99947800   -3.37618200   -2.62383000
 H                  2.46943800   -3.99313600   -4.97455400
 H                  2.77025200   -2.21954400   -6.68857100
 H                  2.62085100    0.16770600   -6.02895800
 H                  2.18603800    0.78361700   -3.67750700
 H                  4.49279500   -1.12880100   -2.39370700
 H                  6.73083600   -1.30222200   -1.38081400
 H                  6.99298800   -1.31536200    1.08744100
 H                  4.96443800   -1.16260000    2.54061900
 H                  2.75051200   -0.98867100    1.54420300
 P                 -1.74673500   -0.80066100    0.64748000
 C                 -1.39135300    0.94840300    1.11713100
 C                 -2.49287900   -1.46273700    2.19366300
 C                 -3.23622800   -0.62042900   -0.42179200
 C                 -2.31190900    1.98628300    0.96786800
 C                 -1.97210500    3.30083200    1.30103800
 C                 -0.69298800    3.55973200    1.78998600
 C                  0.24622800    2.53945200    1.96193900
 C                 -0.11695600    1.23997500    1.61551400
 C                 -3.04332600   -2.75217300    2.13909900
 C                 -3.49643800   -3.37959100    3.29389200
 C                 -3.39332800   -2.73220600    4.52630900
 C                 -2.85729000   -1.44958200    4.58825600
 C                 -2.41533700   -0.81299800    3.42800200
 C                 -3.06605200   -0.61357700   -1.81019400
 C                 -4.15431900   -0.42611100   -2.65976800
 C                 -5.43044700   -0.25818900   -2.12979900
 C                 -5.61447000   -0.27812400   -0.74851300
 C                 -4.52547900   -0.45638800    0.10015000
 H                 -3.30200800    1.78569700    0.56608600
 C                 -2.97795000    4.41231300    1.13419100
 H                 -0.41185100    4.58466500    2.02787100
 C                  1.62487700    2.83604300    2.49309700
 H                  0.62222500    0.44464600    1.68950500
 H                 -3.10426100   -3.26471400    1.18048900
 H                 -3.92060900   -4.37741200    3.23594500
 H                 -3.73255100   -3.22650100    5.43115000
 H                 -2.78261000   -0.93704200    5.54261100
 H                 -1.99802900    0.18811200    3.48734000
 H                 -2.07585600   -0.77308300   -2.22854800
 H                 -4.00365700   -0.42595600   -3.73474400
 H                 -6.28103600   -0.12055800   -2.79013500
 H                 -6.60858500   -0.15423100   -0.32988600
 H                 -4.67576000   -0.46593300    1.17644900
 Rh                 0.08185000   -2.14178500   -0.17600400
 C                 -0.62137500   -2.94474100   -1.72010200
 O                 -1.06070900   -3.43748600   -2.66291200
 H                  0.84294600   -1.69416400    1.21544700
 H                 -1.30457200    3.61010700   -3.13189600
 H                 -1.60589000    4.20900100   -1.49527800
 H                 -2.09520000    2.56406900   -1.94063600
 H                  3.97223600    3.76292600    0.40678700
 H                  2.95589200    5.13181800   -0.08061900
 H                  4.05895200    4.38621500   -1.24212200
 H                 -3.64039700    4.21958100    0.28504600
 H                 -2.48318000    5.37435800    0.97137200
 H                 -3.60672700    4.51190900    2.02613400
 H                  2.34903600    2.09857300    2.13290300
 H                  1.63886800    2.81361000    3.58879400
 H                  1.96218000    3.82799800    2.17681300
 C                  0.10518200   -4.02653000    0.98163800
 C                  0.93470000   -3.16408600    1.72927700
 C                  0.52009300   -2.76222800    3.13862900
 O                  1.24670600   -3.55417600    4.09117500
 C                  2.49875000   -3.14325100    4.34656300
 C                  3.17482300   -4.04942600    5.34069200
 O                  3.00237900   -2.17077100    3.83440000
 H                 -0.87018800   -4.28594000    1.38701900
 H                  0.55601700   -4.75324700    0.31488400
 H                  2.01363700   -3.24267800    1.59743200
 H                 -0.53310400   -2.98892100    3.31284700
 H                  0.70770100   -1.70661200    3.35295700
 H                  3.25951500   -5.05355000    4.91700000
 H                  2.57013900   -4.12318200    6.24749500
 H                  4.16372000   -3.65796900    5.57353400

