95

 P                  2.51959600    0.47041500   -0.13524000
 C                  1.98633800    2.24535300   -0.18547400
 C                  3.55956800    0.36638900   -1.64367600
 C                  3.77570800    0.51685000    1.20891600
 C                  1.01381700    2.64744100    0.73697600
 C                  0.52815800    3.95406700    0.75449700
 C                  1.01548100    4.88543100   -0.16252600
 C                  1.98526400    4.50195200   -1.08290000
 C                  2.46835900    3.18608600   -1.09626100
 C                  2.91974600    0.46571500   -2.88554800
 C                  3.65274700    0.41220000   -4.06469300
 C                  5.03388600    0.22883600   -4.01740800
 C                  5.67529000    0.11442300   -2.78816600
 C                  4.94506900    0.19223400   -1.60285900
 C                  4.44335900    1.68512200    1.58924800
 C                  5.41991000    1.64514100    2.58144400
 C                  5.74698100    0.43759400    3.19381600
 C                  5.09496700   -0.73278400    2.81227200
 C                  4.11028600   -0.69171600    1.82887500
 H                  0.60811900    1.92883900    1.44616400
 C                 -0.53136100    4.33865000    1.71849200
 H                  0.63143300    5.90570500   -0.16341300
 C                  2.49652500    5.48768000   -2.06850300
 H                  3.21522100    2.92501000   -1.84169500
 H                  1.84473000    0.61626700   -2.93881500
 H                  3.14125800    0.51728400   -5.01576800
 H                  5.60777000    0.17904600   -4.93733300
 H                  6.75073400   -0.02700800   -2.74575200
 H                  5.45924300    0.11813600   -0.64955000
 H                  4.20428400    2.63008000    1.10975100
 H                  5.92750800    2.55903900    2.87391600
 H                  6.50859700    0.40908800    3.96675600
 H                  5.34877000   -1.67702200    3.28401800
 H                  3.59055800   -1.59751100    1.52497900
 P                 -1.43408600   -0.29511400   -0.14891300
 C                 -1.68588200    1.42214100   -0.77048200
 C                 -2.44633700   -0.35438300    1.38058600
 C                 -2.46424000   -1.26382200   -1.32559000
 C                 -0.87406800    1.79273700   -1.84951100
 C                 -0.92523400    3.07417200   -2.39151500
 C                 -1.80067800    4.01704700   -1.85091400
 C                 -2.61274800    3.66487200   -0.77735900
 C                 -2.55668900    2.37174400   -0.23703600
 C                 -3.41980400   -1.33536900    1.59385700
 C                 -4.06794000   -1.42523500    2.82557800
 C                 -3.76340700   -0.53215400    3.84801800
 C                 -2.79727300    0.45236300    3.64130000
 C                 -2.13187400    0.52947500    2.42292300
 C                 -2.16670300   -2.61890900   -1.50879700
 C                 -2.97525800   -3.41643100   -2.31574400
 C                 -4.07322400   -2.86171300   -2.96654400
 C                 -4.37159700   -1.51049200   -2.79702400
 C                 -3.57832200   -0.71763200   -1.97360600
 H                 -0.16999700    1.07622500   -2.26839900
 C                 -0.01011300    3.43780300   -3.50186200
 H                 -1.83943500    5.02703000   -2.25930900
 C                 -3.53002900    4.67258700   -0.18832600
 H                 -3.19967300    2.14156100    0.60895500
 H                 -3.67539800   -2.03168500    0.80012800
 H                 -4.81935900   -2.19364100    2.97876600
 H                 -4.27731500   -0.59945100    4.80174100
 H                 -2.55732000    1.16426600    4.42477300
 H                 -1.38065600    1.30304500    2.28167900
 H                 -1.31588900   -3.06845000   -1.00549500
 H                 -2.73885700   -4.46977800   -2.42575800
 H                 -4.69892800   -3.47982300   -3.60296200
 H                 -5.22851800   -1.07420600   -3.30100600
 H                 -3.82914500    0.33016900   -1.83273500
 Rh                 0.85926600   -1.06920300    0.16270100
 C                  1.28556600   -2.01842400   -1.42854600
 O                  1.54114400   -2.57471600   -2.39978200
 H                  0.75591200   -0.40787800    1.66138400
 O                 -1.00402300    3.59073800    2.54186300
 H                 -0.88337400    5.38879300    1.63954100
 O                  3.32328400    5.23855100   -2.91098600
 H                  2.05496000    6.50403100   -1.98304000
 O                  0.78436500    2.67525300   -3.99893900
 H                 -0.09131900    4.48646900   -3.85852300
 O                 -4.24118100    4.46801400    0.76478700
 H                 -3.51904500    5.66347500   -0.69139400
 C                  0.59100600   -1.94493800    2.29041500
 C                  0.11636100   -2.81803700    1.29036900
 C                  0.89135900   -4.04585100    0.89362800
 O                  0.47457300   -5.18352400    1.68126900
 C                 -0.68151700   -5.74663800    1.29545800
 C                 -1.04322400   -6.90796300    2.18406500
 O                 -1.33841200   -5.35864900    0.35754300
 H                  1.57481200   -2.09995200    2.72689900
 H                 -0.13217600   -1.47183100    2.95147400
 H                 -0.96305900   -2.92555900    1.19798300
 H                  1.95658600   -3.92447600    1.10234900
 H                  0.75256700   -4.30742600   -0.15713300
 H                 -1.20341100   -6.54804800    3.20383900
 H                 -0.22038800   -7.62601000    2.21220900
 H                 -1.94891900   -7.38198400    1.80921500

