95

 P                  2.34744100    0.04638700   -0.57292200
 C                  2.02157900    1.85850900   -0.33277400
 C                  3.31204100    0.00350400   -2.13084800
 C                  3.63860600   -0.14413500    0.73099300
 C                  1.13468100    2.19726600    0.69551000
 C                  0.83796900    3.52801100    0.98726500
 C                  1.42954500    4.54824200    0.24168900
 C                  2.31659000    4.22700400   -0.77962000
 C                  2.61364500    2.88736400   -1.06435600
 C                  2.77702000    0.60378900   -3.27697300
 C                  3.41814700    0.47568800   -4.50437300
 C                  4.58719100   -0.27535000   -4.60639800
 C                  5.11295700   -0.89285500   -3.47509200
 C                  4.48150700   -0.75404900   -2.24094700
 C                  4.81549300    0.61643400    0.67464900
 C                  5.77528400    0.50109700    1.67226800
 C                  5.56909500   -0.36832600    2.74545100
 C                  4.40111100   -1.11811800    2.81585400
 C                  3.44051600   -1.00505100    1.81021100
 H                  0.65513900    1.41200300    1.27821800
 C                 -0.12503800    3.85991800    2.06357800
 H                  1.19439500    5.59069900    0.45675000
 C                  2.94401300    5.30803500   -1.58046500
 H                  3.30678800    2.68460400   -1.87649200
 H                  1.86300600    1.19035300   -3.22128900
 H                  2.99757600    0.96471400   -5.37713100
 H                  5.08496300   -0.38094600   -5.56513300
 H                  6.01978800   -1.48497100   -3.54891900
 H                  4.90001600   -1.23903900   -1.36377100
 H                  4.98315100    1.29578600   -0.15820100
 H                  6.68451300    1.09160700    1.61562500
 H                  6.32109400   -0.45484400    3.52381800
 H                  4.21725100   -1.79958900    3.64016800
 H                  2.53583400   -1.59487700    1.88555800
 P                 -1.61991200   -0.27413700   -0.51042800
 C                 -1.69225700    1.55253200   -0.78472000
 C                 -2.55067000   -0.50391100    1.05529200
 C                 -2.86668600   -0.82010700   -1.75637400
 C                 -0.88448800    2.04129000   -1.81962800
 C                 -0.83177300    3.40194100   -2.11547000
 C                 -1.59403500    4.30219700   -1.36956600
 C                 -2.40147500    3.83141500   -0.33963300
 C                 -2.44987500    2.46134400   -0.04697300
 C                 -3.55498500   -1.47048800    1.17599000
 C                 -4.11094500   -1.75668800    2.42302500
 C                 -3.68533200   -1.06979300    3.55658800
 C                 -2.69597400   -0.09332100    3.44173300
 C                 -2.12135600    0.17481400    2.20452300
 C                 -2.60997800   -1.94451400   -2.54283200
 C                 -3.55474900   -2.39085700   -3.46755700
 C                 -4.76175600   -1.71576200   -3.61095700
 C                 -5.02857400   -0.59310200   -2.82624900
 C                 -4.08792400   -0.14941500   -1.90469600
 H                 -0.26964400    1.35323600   -2.39868100
 C                  0.06837800    3.89442300   -3.18614000
 H                 -1.54906400    5.36940600   -1.58691700
 C                 -3.20473100    4.78628100    0.46462100
 H                 -3.08391100    2.13902700    0.77534900
 H                 -3.90434300   -2.00491000    0.29685300
 H                 -4.88296900   -2.51568600    2.50364200
 H                 -4.12502700   -1.28988500    4.52418900
 H                 -2.36299700    0.46064000    4.31380100
 H                 -1.34263900    0.93075400    2.14207000
 H                 -1.66712300   -2.47082300   -2.42892000
 H                 -3.34087400   -3.26402800   -4.07579900
 H                 -5.49597600   -2.06012600   -4.33262400
 H                 -5.97035200   -0.06406600   -2.93421100
 H                 -4.30390800    0.72303300   -1.29273000
 Rh                 0.53351100   -1.39043900   -0.55244300
 C                  0.90585500   -1.99870000   -2.31701100
 O                  1.13254300   -2.37594000   -3.37757300
 H                  0.54341400   -1.29469200    1.09405100
 O                 -0.69090300    3.04081000    2.74946900
 H                 -0.30976600    4.94481600    2.21181800
 O                  3.71588700    5.11890800   -2.48831000
 H                  2.64942000    6.33815200   -1.28545900
 O                  0.78853700    3.18498100   -3.84841900
 H                  0.05084400    4.99271300   -3.34900000
 O                 -3.92098500    4.46544000    1.38115700
 H                 -3.10274600    5.85113900    0.16398300
 C                 -0.36285400   -3.28046400    0.08542600
 C                  0.40018200   -2.85870900    1.20710000
 C                 -0.24486600   -2.67041900    2.57178800
 O                 -0.10490300   -3.88350600    3.33049600
 C                  1.10472500   -4.08242900    3.87860400
 C                  1.14402500   -5.37322000    4.65236800
 O                  2.03131800   -3.31533600    3.75493700
 H                 -1.44878900   -3.28341000    0.17508800
 H                  0.04961500   -4.04164100   -0.56880000
 H                  1.41773700   -3.23458400    1.27909700
 H                 -1.31965200   -2.50368800    2.48345600
 H                  0.21043000   -1.85612000    3.14129000
 H                  0.95437700   -6.20945100    3.97441000
 H                  0.35598300   -5.37611600    5.40903700
 H                  2.12053500   -5.48521100    5.12052900

