87

 P                  1.89712900   -0.31960800    0.09110800
 C                  1.89369400    1.31389000   -0.77067900
 C                  2.99681300   -1.28070300   -1.03620500
 C                  3.02730900    0.04725400    1.50193600
 C                  1.08859800    2.33363700   -0.26256100
 C                  0.98570900    3.58487100   -0.84297200
 C                  1.72999100    3.84749300   -1.98977200
 C                  2.55179100    2.86147200   -2.52790000
 C                  2.62885200    1.60749400   -1.92360700
 C                  4.37704000   -1.38849600   -0.84095600
 C                  5.16362400   -2.10590600   -1.74132100
 C                  4.58500200   -2.71093400   -2.85277700
 C                  3.21086100   -2.60344100   -3.05977500
 C                  2.42313000   -1.90110200   -2.15351500
 C                  3.04864700   -0.85055900    2.57477200
 C                  3.91612300   -0.65404800    3.64516800
 C                  4.76459000    0.45053000    3.66131500
 C                  4.74725800    1.35214600    2.60033400
 C                  3.88707500    1.15026100    1.52323800
 F                  0.38598100    2.10120100    0.86305000
 H                  0.32707100    4.32207000   -0.39764500
 H                  1.66054000    4.82230200   -2.46184400
 H                  3.13566800    3.06469900   -3.41974500
 H                  3.27294600    0.84489300   -2.35102300
 H                  4.84306400   -0.91308800    0.01666500
 H                  6.23276900   -2.18781700   -1.57150800
 H                  5.20002800   -3.26703300   -3.55336900
 H                  2.75019700   -3.07368400   -3.92313000
 H                  1.34892000   -1.83480000   -2.30766300
 H                  2.36841900   -1.69951300    2.56843100
 H                  3.91880300   -1.35708100    4.47219200
 H                  5.43330000    0.61135900    4.50121200
 H                  5.40377100    2.21677900    2.60915300
 H                  3.88861300    1.85427600    0.69585700
 P                 -2.06293500   -0.38610000   -0.36556700
 C                 -3.15172500   -1.37534100   -1.48348300
 C                 -1.82591800    1.07014200   -1.47765300
 C                 -3.22846000    0.22024600    0.91604800
 C                 -4.37394000   -0.91349200   -1.97590700
 C                 -5.15407100   -1.64295300   -2.85892700
 C                 -4.69707800   -2.88531500   -3.29128300
 C                 -3.47515100   -3.37508500   -2.83989900
 C                 -2.71708800   -2.62078400   -1.94663500
 C                 -0.86247000    0.92967700   -2.48373200
 C                 -0.66296900    1.93347800   -3.42475100
 C                 -1.40761000    3.10906800   -3.35279100
 C                 -2.35431200    3.26657800   -2.34467600
 C                 -2.57239900    2.24926800   -1.41694800
 C                 -4.39990900   -0.46411400    1.25220000
 C                 -5.17389700   -0.04984700    2.33348700
 C                 -4.79143600    1.05549000    3.08822800
 C                 -3.62363100    1.74163300    2.76213300
 C                 -2.84259100    1.32195200    1.69045000
 F                 -4.82793800    0.28552000   -1.58376200
 H                 -6.09587500   -1.22486500   -3.19656400
 H                 -5.29792600   -3.46511300   -3.98441900
 H                 -3.11233800   -4.33929100   -3.17969200
 H                 -1.75774900   -2.98982100   -1.59623800
 H                 -0.26199800    0.02255600   -2.52251300
 H                  0.08935900    1.80752000   -4.19720100
 H                 -1.24535700    3.90164200   -4.07727800
 H                 -2.94046000    4.17886800   -2.28586100
 H                 -3.33836900    2.36836600   -0.65756400
 H                 -4.71149200   -1.32911200    0.67222400
 H                 -6.08006200   -0.59317100    2.58319000
 H                 -5.39620200    1.37679400    3.93024700
 H                 -3.31086500    2.59867600    3.35033900
 H                 -1.92052500    1.84844100    1.45444700
 Rh                -0.10103600   -1.34117400    0.69806000
 C                 -0.20619200   -0.39151500    2.33941300
 O                 -0.26154400    0.18074900    3.33099200
 H                  0.13601200   -2.40852200   -0.53369600
 C                  0.00409700   -3.62255800    0.52839500
 C                 -0.72964500   -3.19329700    1.65937100
 C                 -2.21862100   -3.38284500    1.72196000
 O                 -2.57774000   -4.72682000    2.12246200
 C                 -2.42455500   -5.00283200    3.42742900
 C                 -2.82956000   -6.42384400    3.72917200
 O                 -2.01518700   -4.21007400    4.23975800
 H                 -0.53060300   -4.16239000   -0.25257900
 H                  1.04177000   -3.92356000    0.63791300
 H                 -0.22637100   -3.19715900    2.62219100
 H                 -2.67096800   -3.26840600    0.73379800
 H                 -2.67875200   -2.67735500    2.41887600
 H                 -2.19570700   -7.11271700    3.16477900
 H                 -3.86208300   -6.59091600    3.41309300
 H                 -2.72621700   -6.60982500    4.79703300

