87

 P                  2.14291500   -0.16640700   -0.08611500
 C                  3.19424700   -0.60026300   -1.54024400
 C                  3.42864600    0.19721200    1.18463100
 C                  1.56133700    1.52326700   -0.53172100
 C                  3.74883000   -1.88447200   -1.56544900
 C                  4.56620000   -2.24317800   -2.62399800
 C                  4.85056700   -1.38094200   -3.67408900
 C                  4.28391400   -0.11831800   -3.61970700
 C                  3.46761700    0.29640400   -2.57508000
 C                  4.76793900    0.42384500    0.84485900
 C                  5.70640400    0.71680100    1.83109900
 C                  5.32137300    0.79196900    3.16749900
 C                  3.99050600    0.57795600    3.51656600
 C                  3.05266000    0.28324200    2.53055700
 C                  0.54542600    1.62764700   -1.49146800
 C                  0.02221300    2.86602700   -1.84027600
 C                  0.49330200    4.02053500   -1.21317000
 C                  1.49359500    3.92676900   -0.25177400
 C                  2.03418700    2.68446500    0.08268500
 H                  3.54606800   -2.60209000   -0.77596900
 F                  5.10071100   -3.46952500   -2.64637100
 H                  5.48259100   -1.68343000   -4.49950400
 F                  4.54259000    0.73992700   -4.61444300
 H                  3.06683900    1.30378000   -2.58573600
 H                  5.08314300    0.37435300   -0.19290100
 H                  6.74172000    0.88581800    1.55130000
 H                  6.05752100    1.01430300    3.93384500
 H                  3.66794600    0.61727400    4.55153300
 H                  2.02247400    0.11763400    2.83076800
 H                  0.14932800    0.72435300   -1.95154600
 H                 -0.76815800    2.92953200   -2.58205200
 H                  0.07132800    4.98774900   -1.46887100
 H                  1.85647700    4.82006100    0.24676600
 H                  2.81735000    2.62493000    0.83219500
 P                 -1.73012200   -0.92672200    0.29283800
 C                 -2.00870600    0.89406500    0.46618900
 C                 -2.85101500   -1.59033600    1.59144000
 C                 -2.67527900   -1.30880500   -1.23930000
 C                 -1.15367800    1.59471800    1.32270300
 C                 -1.31682600    2.96266000    1.47167500
 C                 -2.30156500    3.67277900    0.80012500
 C                 -3.13003600    2.95088200   -0.04381400
 C                 -3.00910800    1.58050100   -0.22624500
 C                 -3.37823600   -0.81765200    2.62916100
 C                 -4.08043400   -1.42317000    3.67153300
 C                 -4.27447200   -2.80099500    3.68186200
 C                 -3.77147100   -3.57785800    2.63701400
 C                 -3.06046200   -2.97764200    1.60417700
 C                 -1.97520500   -1.39919600   -2.44661900
 C                 -2.64763000   -1.64640300   -3.64094600
 C                 -4.02920900   -1.81616100   -3.63930300
 C                 -4.73627900   -1.73603600   -2.44104400
 C                 -4.06499700   -1.48286800   -1.24810800
 H                 -0.33931300    1.09502300    1.83873000
 F                 -0.48636000    3.63222700    2.27938300
 H                 -2.40516400    4.74445400    0.91615600
 F                 -4.08632800    3.60929900   -0.71326700
 H                 -3.68752600    1.07957200   -0.90771900
 H                 -3.23358000    0.25869900    2.63435700
 H                 -4.47779000   -0.81174800    4.47590400
 H                 -4.81775400   -3.26959900    4.49618900
 H                 -3.92614300   -4.65245400    2.63271600
 H                 -2.65487600   -3.58585700    0.79754800
 H                 -0.89407600   -1.28907200   -2.44792700
 H                 -2.08869200   -1.71768200   -4.56861000
 H                 -4.55427000   -2.01682200   -4.56789700
 H                 -5.81344800   -1.87102700   -2.43420800
 H                 -4.62292400   -1.41960300   -0.31766300
 Rh                 0.52515400   -1.74633800    0.47534700
 C                  0.72389600   -2.83988300   -1.04034700
 O                  0.83627900   -3.51131500   -1.96720500
 H                  0.53278500   -1.01486400    1.95626200
 C                  0.46590500   -3.45936300    1.86726700
 C                  0.74997000   -2.35919300    2.70548900
 C                 -0.23915100   -1.96893300    3.79601300
 O                  0.19935200   -2.51264800    5.04963700
 C                  1.17411600   -1.82382400    5.66610200
 C                  1.56714100   -2.48075400    6.96185200
 O                  1.66044600   -0.81089300    5.22027200
 H                 -0.51586100   -3.92213800    1.93621800
 H                  1.27659600   -4.10368500    1.54534600
 H                  1.78899500   -2.17482100    2.97580300
 H                 -1.21814500   -2.41404100    3.61057900
 H                 -0.34280000   -0.88593900    3.90655700
 H                  1.96785000   -3.47695600    6.75702100
 H                  0.68751000   -2.60257000    7.59811000
 H                  2.31765800   -1.87202300    7.46328800

