87

 P                  1.80973900    0.10466600    0.48878800
 C                  3.05517800   -0.64348700   -0.65340800
 C                  2.88782300    0.72550700    1.84775400
 C                  1.39599900    1.65034100   -0.42212600
 C                  3.28986600   -2.01968000   -0.57283800
 C                  4.26421300   -2.58092000   -1.38837200
 C                  5.00622400   -1.83349500   -2.28980500
 C                  4.74336300   -0.47264600   -2.34807400
 C                  3.79000800    0.14013400   -1.55012100
 C                  4.26778400    0.51210500    1.90432900
 C                  4.99674400    0.89756700    3.02878400
 C                  4.36191900    1.51616900    4.10153400
 C                  2.98869900    1.75371500    4.04706200
 C                  2.25852100    1.35107600    2.93399600
 C                  0.57933900    1.51891500   -1.55365800
 C                  0.19080100    2.63442300   -2.28320500
 C                  0.59951400    3.90670200   -1.87951000
 C                  1.40281600    4.04910100   -0.75392900
 C                  1.80812200    2.92561900   -0.03129300
 H                  2.73916200   -2.66675600    0.10425700
 F                  4.49613300   -3.89414700   -1.31145200
 H                  5.75315400   -2.29276700   -2.92519200
 F                  5.44638800    0.27483100   -3.20894200
 H                  3.63346700    1.21016000   -1.63671700
 H                  4.77811700    0.02926100    1.07643600
 H                  6.06600400    0.71304900    3.06257200
 H                  4.93212600    1.81340700    4.97587100
 H                  2.48513000    2.24223500    4.87562000
 H                  1.18353700    1.51848200    2.90542800
 H                  0.23370800    0.53080500   -1.85058400
 H                 -0.44544300    2.51535400   -3.15502400
 H                  0.28372000    4.78190700   -2.43911700
 H                  1.72015800    5.03586200   -0.43147100
 H                  2.44518800    3.05092000    0.83875900
 P                 -2.04958200   -0.62407000    0.46930700
 C                 -2.28110300    1.16552400    0.06861900
 C                 -3.36057800   -0.88815900    1.73670700
 C                 -2.78267300   -1.42343100   -1.01511100
 C                 -1.60414500    2.09605100    0.86140700
 C                 -1.74222100    3.44593600    0.58606600
 C                 -2.53476500    3.91745400   -0.45110500
 C                 -3.19147200    2.97033100   -1.21932200
 C                 -3.08514300    1.60581200   -0.98531200
 C                 -4.33845800    0.05884400    2.05238300
 C                 -5.30334000   -0.22228800    3.01932700
 C                 -5.30756300   -1.45269600    3.66915300
 C                 -4.33967300   -2.40571800    3.35440900
 C                 -3.36771600   -2.12181700    2.40093000
 C                 -1.94273500   -1.70226600   -2.09894400
 C                 -2.45459200   -2.25878900   -3.26693500
 C                 -3.81287600   -2.55270600   -3.36073000
 C                 -4.65561300   -2.28618700   -2.28462200
 C                 -4.14551000   -1.72199700   -1.11743900
 H                 -0.94661500    1.77521400    1.66290000
 F                 -1.07868100    4.33416100    1.33624400
 H                 -2.61958900    4.97625000   -0.66180700
 F                 -3.95822900    3.39311800   -2.23376100
 H                 -3.62429500    0.91721600   -1.62665800
 H                 -4.35178300    1.01863000    1.54435500
 H                 -6.05412400    0.52376300    3.26082300
 H                 -6.06047600   -1.66894800    4.42059600
 H                 -4.33733100   -3.36773600    3.85752700
 H                 -2.59799500   -2.85404000    2.16395100
 H                 -0.87835900   -1.49511500   -2.02010600
 H                 -1.78989900   -2.47324900   -4.09768300
 H                 -4.21257200   -2.99428400   -4.26817100
 H                 -5.71405200   -2.51783200   -2.35129300
 H                 -4.81084800   -1.51249900   -0.28466100
 Rh                 0.01610900   -1.33189200    1.20774900
 C                  0.08836900   -2.87583200    0.10178300
 O                  0.11992700   -3.80969200   -0.56471800
 H                 -0.26264200   -0.29270600    2.46155300
 C                  0.06684300   -1.46780800    3.49821800
 C                  0.95871400   -2.38274400    2.88934000
 C                  2.45163500   -2.26463200    3.10490800
 O                  2.95068800   -3.41838900    3.80894800
 C                  3.10353800   -4.51128800    3.04285800
 C                  3.63699100   -5.66963500    3.84380800
 O                  2.83938200   -4.54295900    1.86400000
 H                  0.49831600   -0.69040900    4.12950600
 H                 -0.93125700   -1.78017000    3.79218600
 H                  0.61096500   -3.40108800    2.73732300
 H                  2.69590600   -1.40961700    3.74069000
 H                  3.01378000   -2.18200800    2.17314900
 H                  2.93067800   -5.92002800    4.63955500
 H                  4.58138300   -5.38928500    4.31641300
 H                  3.78121700   -6.52611200    3.18733500

