87

 P                 -1.57848800    0.12334400    0.98709900
 C                 -2.26172900   -1.09286000   -0.21818300
 C                 -1.30755200    1.60067600   -0.07477300
 C                 -3.12631300    0.54277300    1.90049200
 C                 -1.71605800   -2.37392000   -0.28986900
 C                 -2.22637300   -3.32198300   -1.17713700
 C                 -3.28344100   -2.97006800   -2.00404900
 C                 -3.85056300   -1.69688900   -1.94986600
 C                 -3.34165000   -0.76941900   -1.05155700
 C                 -1.03298200    1.48732500   -1.44093000
 C                 -0.60284900    2.58606600   -2.18291100
 C                 -0.46927200    3.81853200   -1.55799700
 C                 -0.77199300    3.97072500   -0.20727400
 C                 -1.17183500    2.86058700    0.52536600
 C                 -3.49389700   -0.34593100    2.91987400
 C                 -4.64692000   -0.14476900    3.66967700
 C                 -5.43754300    0.96937000    3.40517700
 C                 -5.09915200    1.86563000    2.39839800
 C                 -3.94776100    1.64517200    1.64605500
 H                 -0.87874300   -2.63804900    0.34940300
 H                 -1.79911400   -4.31742300   -1.23249200
 Br                -3.97587100   -4.23577800   -3.22515100
 H                 -4.68189700   -1.44609900   -2.59882100
 H                 -3.78804000    0.22109200   -1.00146000
 H                 -1.14450100    0.52790900   -1.93735800
 H                 -0.36931200    2.48451300   -3.23708200
 Br                 0.18183600    5.29736800   -2.53393700
 H                 -0.67235200    4.94158300    0.26609600
 H                 -1.37332400    2.97995900    1.58706800
 H                 -2.86871900   -1.21342300    3.12294200
 H                 -4.92870800   -0.83862100    4.45360000
 Br                -6.99939900    1.26745400    4.42818800
 H                 -5.73279800    2.72278600    2.20028900
 H                 -3.69955100    2.34338600    0.85223000
 P                  2.09514900   -0.55543500    0.66002100
 C                  3.71606600   -1.21203600    1.24661700
 C                  2.62294600    0.96449100   -0.24180100
 C                  1.69481800   -1.69781000   -0.72562100
 C                  4.05697400   -1.00147800    2.58527100
 C                  5.28762800   -1.41727000    3.08502000
 C                  6.17692800   -2.06444900    2.23536100
 C                  5.85718000   -2.29961200    0.90158800
 C                  4.62880600   -1.86802300    0.41311800
 C                  3.49034300    0.88711100   -1.34096300
 C                  3.91229700    2.03213900   -2.00162700
 C                  3.46846200    3.27600700   -1.55552600
 C                  2.61118000    3.38178200   -0.46980900
 C                  2.19205600    2.22107700    0.18027000
 C                  1.75249500   -3.08147600   -0.51386600
 C                  1.26551700   -3.97086600   -1.46541500
 C                  0.70594000   -3.47182400   -2.63851700
 C                  0.65434700   -2.10527500   -2.88187600
 C                  1.15313900   -1.22561300   -1.92459100
 H                  3.33919400   -0.51762000    3.24324900
 H                  5.55031700   -1.25042600    4.12341700
 Br                 7.84503600   -2.64946500    2.90534500
 H                  6.56019100   -2.81571200    0.25759700
 H                  4.37876900   -2.06900700   -0.62494800
 H                  3.83650100   -0.07907500   -1.69694700
 H                  4.58253500    1.96828200   -2.85118600
 Br                 4.05709800    4.83689600   -2.44188700
 H                  2.26739300    4.35662100   -0.14066200
 H                  1.51525400    2.29977900    1.02521800
 H                  2.17475400   -3.47535200    0.40756900
 H                  1.30702700   -5.04099800   -1.29490400
 Br                -0.03900000   -4.66913200   -3.89480400
 H                  0.21863200   -1.73413200   -3.80304400
 H                  1.11123800   -0.15736500   -2.11588700
 Rh                 0.43853800   -0.50026500    2.28629300
 C                  0.52041500   -2.37241600    2.54771600
 O                  0.59660700   -3.50329200    2.74584000
 H                  0.70301700    1.10683000    2.44487900
 C                 -0.21512100   -0.26505600    4.37147900
 C                  0.47492100    0.93094500    4.09704100
 C                 -0.31686400    2.22219000    4.08209100
 O                 -0.56372500    2.67240500    5.41951200
 C                  0.48181400    3.26437800    6.03214700
 C                  0.11434500    3.69725300    7.42595800
 O                  1.55828400    3.41305100    5.50949500
 H                 -1.29741400   -0.22251600    4.47266300
 H                  0.28135600   -1.04700000    4.93646100
 H                  1.50613500    1.04217800    4.41957100
 H                 -1.30912900    2.04586800    3.65638800
 H                  0.19915800    3.01423900    3.53185500
 H                 -0.15804100    2.82080600    8.01965200
 H                 -0.75587600    4.35702000    7.39310600
 H                  0.96158700    4.20857000    7.87980100

