87

 P                 -2.07876900   -0.02214500    0.72266200
 C                 -2.47533200   -1.67961100    0.04046000
 C                 -1.86503100    0.96148200   -0.82608700
 C                 -3.71364800    0.56013100    1.33195000
 C                 -1.40266400   -2.52270700   -0.26914000
 C                 -1.61259300   -3.74939100   -0.88910300
 C                 -2.91441600   -4.14232600   -1.18094000
 C                 -4.00023000   -3.33344000   -0.86142500
 C                 -3.77551000   -2.09981900   -0.25595300
 C                 -2.14566300    0.45686300   -2.09962000
 C                 -1.82488300    1.18722000   -3.24266600
 C                 -1.22048800    2.43310500   -3.10957600
 C                 -0.96313400    2.97493500   -1.85318900
 C                 -1.29207200    2.23472400   -0.72320300
 C                 -4.07393500    0.23547400    2.64533200
 C                 -5.30535400    0.62013600    3.16395700
 C                 -6.17786700    1.35053100    2.36233400
 C                 -5.84145600    1.69122000    1.05730700
 C                 -4.60976700    1.28946300    0.54565100
 H                 -0.38724600   -2.21649600   -0.03169900
 H                 -0.77555300   -4.39028100   -1.14459800
 Br                -3.21270700   -5.80543400   -2.02845900
 H                 -5.00747600   -3.66272800   -1.08982900
 H                 -4.62421800   -1.46356900   -0.02183300
 H                 -2.58827900   -0.52833000   -2.21413700
 H                 -2.02873000    0.78599600   -4.22948000
 Br                -0.72723300    3.40287000   -4.65480400
 H                 -0.49204100    3.94821500   -1.76176300
 H                 -1.05820100    2.64089100    0.25588200
 H                 -3.37352600   -0.31985000    3.26592900
 H                 -5.58536200    0.36504100    4.17982200
 Br                -7.84724900    1.89509500    3.06337800
 H                 -6.53430300    2.26208000    0.44955500
 H                 -4.35147600    1.55099500   -0.47655300
 P                  1.66905800    0.49036000    1.01060100
 C                  3.27301900    0.10691200    1.83647700
 C                  2.01839700    2.11287700    0.21176400
 C                  1.70942200   -0.67059300   -0.42913000
 C                  3.32338400   -1.02530800    2.66011100
 C                  4.51582700   -1.42513700    3.25389500
 C                  5.65260800   -0.64306100    3.08025600
 C                  5.61863700    0.51213700    2.31035200
 C                  4.43171000    0.87340300    1.67950400
 C                  2.70084500    2.25642100   -1.00188300
 C                  2.87437100    3.50920900   -1.58253100
 C                  2.38292000    4.63473500   -0.92849900
 C                  1.73651400    4.52716100    0.29866000
 C                  1.55438900    3.26479000    0.85495300
 C                  2.22019500   -1.96770400   -0.30119900
 C                  2.02856700   -2.92045000   -1.29907800
 C                  1.32093500   -2.57471800   -2.44444800
 C                  0.83715300   -1.28301700   -2.61704000
 C                  1.03251400   -0.34140200   -1.61172400
 H                  2.42101300   -1.60303500    2.84600200
 H                  4.55800800   -2.31968800    3.86533800
 Br                 7.26066600   -1.15002900    3.93658600
 H                  6.50867500    1.12138200    2.20429800
 H                  4.41709600    1.76833600    1.06558300
 H                  3.08868700    1.38066700   -1.51415800
 H                  3.38279000    3.61339700   -2.53429000
 Br                 2.58315200    6.33601900   -1.72590700
 H                  1.37082500    5.41568700    0.80094200
 H                  1.02248100    3.17180800    1.79878400
 H                  2.76948800   -2.25785700    0.58806400
 H                  2.41904400   -3.92541000   -1.18223600
 Br                 0.98335000   -3.88489200   -3.76528500
 H                  0.29633000   -1.01629800   -3.51848200
 H                  0.63790400    0.66018600   -1.75748200
 Rh                -0.39449900    0.18562700    2.29651200
 C                 -0.30506400   -1.64901300    2.79206800
 O                 -0.23560000   -2.76092400    3.07480400
 H                 -0.77247000    1.76689500    2.15728500
 C                 -0.85880400    1.83205700    3.80013800
 C                  0.06731400    0.90563500    4.32732700
 C                  1.46405300    1.37064000    4.64756500
 O                  2.16657000    0.28190600    5.24687500
 C                  3.47715200    0.50539900    5.47170600
 C                  4.09321800   -0.60068400    6.28741000
 O                  4.04959800    1.49962100    5.10144500
 H                 -0.53444600    2.86436400    3.66474600
 H                 -1.91825800    1.73473600    4.01660600
 H                 -0.31474300    0.13376800    4.99065100
 H                  1.45405300    2.19897900    5.37002600
 H                  2.00655400    1.71586700    3.76051200
 H                  5.15531500   -0.67682300    6.04983500
 H                  3.58443700   -1.54974300    6.11428400
 H                  3.98956000   -0.34393900    7.34661700

