87

 P                 -2.05249900   -0.26637500    0.32678600
 C                 -3.16152700   -0.05004600    1.77864500
 C                 -3.21888400   -0.85724300   -0.97021400
 C                 -1.76815400    1.47874600   -0.19657100
 C                 -3.88157600    1.12396800    2.01967900
 C                 -4.73020200    1.22487900    3.11863500
 C                 -4.86024900    0.13772600    3.97623800
 C                 -4.15330400   -1.04116100    3.75894000
 C                 -3.30191700   -1.12482000    2.66322200
 C                 -2.69131100   -1.40549000   -2.14504900
 C                 -3.52041100   -1.81090500   -3.18445100
 C                 -4.89846000   -1.68011100   -3.03961300
 C                 -5.45038600   -1.14934900   -1.87939900
 C                 -4.60658900   -0.73502000   -0.85190100
 C                 -2.46830500    2.10381500   -1.23149300
 C                 -2.13233800    3.39234300   -1.64258700
 C                 -1.09098400    4.05914000   -1.00730700
 C                 -0.40060700    3.47103900    0.04911200
 C                 -0.74144100    2.18369200    0.44393600
 H                 -3.78159600    1.97262900    1.34884100
 H                 -5.28464800    2.13648700    3.31228900
 Cl                -5.92048900    0.25601600    5.35132500
 H                 -4.26250500   -1.87267600    4.44633000
 H                 -2.72287500   -2.02997900    2.49410100
 H                 -1.61569600   -1.52904200   -2.24215600
 H                 -3.10869400   -2.23335800   -4.09441300
 Cl                -5.94656300   -2.19790100   -4.32843600
 H                 -6.52696900   -1.06228700   -1.78271500
 H                 -5.04345700   -0.31640800    0.04959600
 H                 -3.27323800    1.58223700   -1.74133700
 H                 -2.66221300    3.87178200   -2.45864000
 Cl                -0.62861400    5.64381500   -1.55109600
 H                  0.40234900    4.01262300    0.53830900
 H                 -0.18169100    1.71017600    1.24776200
 P                  1.78891600   -0.45451700   -0.39162600
 C                  2.85048400    0.10952400    0.99447000
 C                  1.75110800    0.98380600   -1.54331700
 C                  2.90733900   -1.57907900   -1.33132400
 C                  3.54808300   -0.85496000    1.73504700
 C                  4.17709100   -0.52542600    2.92957600
 C                  4.10948000    0.78506200    3.39336400
 C                  3.41773500    1.76012100    2.68422100
 C                  2.78651800    1.41562900    1.49132800
 C                  0.63737800    1.09945000   -2.37878000
 C                  0.53403300    2.13275900   -3.30421000
 C                  1.55770600    3.07028600   -3.38226700
 C                  2.68281000    2.97645800   -2.56769400
 C                  2.77866200    1.92625400   -1.66070100
 C                  2.31593900   -2.60248100   -2.07748400
 C                  3.08546200   -3.46240100   -2.85582200
 C                  4.46539900   -3.29614100   -2.87531400
 C                  5.08128000   -2.28798200   -2.13897700
 C                  4.29755300   -1.43225600   -1.37338800
 H                  3.59678500   -1.88912700    1.40463800
 H                  4.70546700   -1.28668800    3.49340000
 Cl                 4.89824400    1.21061700    4.88700900
 H                  3.37064500    2.77475700    3.06429900
 H                  2.23889200    2.17993200    0.94574300
 H                 -0.17206400    0.37874100   -2.29271500
 H                 -0.33498300    2.22215800   -3.94699400
 Cl                 1.43561600    4.37594600   -4.52611100
 H                  3.47391300    3.71327200   -2.65301000
 H                  3.66309600    1.84968800   -1.03429800
 H                  1.23533600   -2.72684200   -2.04584700
 H                  2.62649500   -4.25557100   -3.43566600
 Cl                 5.44295700   -4.36972500   -3.83644300
 H                  6.15971900   -2.17893900   -2.16898900
 H                  4.77948900   -0.64890000   -0.79499400
 Rh                -0.13728400   -1.50373200    0.72251600
 C                  0.08471300   -0.73683300    2.46798000
 O                  0.22079500   -0.23173000    3.48920300
 H                 -0.57963200   -2.47755600   -0.50826900
 C                 -0.10768100   -3.74810900    0.41469000
 C                  1.02243800   -3.27286700    1.13998800
 C                  1.14451800   -3.52861300    2.61793300
 O                  1.71576400   -4.83212600    2.86807300
 C                  3.05026400   -4.91399800    2.76507900
 C                  3.53180200   -6.31543500    3.03300700
 O                  3.76401500   -3.97737300    2.48828700
 H                 -0.95635500   -4.15723400    0.95724800
 H                  0.05314800   -4.21863100   -0.55283500
 H                  1.97827100   -3.28899100    0.61730900
 H                  0.16299800   -3.55515700    3.09691600
 H                  1.77753600   -2.78457100    3.10842600
 H                  3.13126600   -6.98827000    2.27008600
 H                  3.16262100   -6.65762200    4.00251500
 H                  4.62015700   -6.33433000    3.01153100

