87

 P                  2.02595600   -0.25286800   -0.64507700
 C                  2.25730100   -1.80275400    0.32441300
 C                  2.15086500    1.07063700    0.62929100
 C                  3.66118800   -0.12508700   -1.48694600
 C                  1.70631900   -2.98531200   -0.17951200
 C                  1.87109100   -4.19745400    0.48393100
 C                  2.59518800   -4.21052400    1.66667400
 C                  3.16409900   -3.05987200    2.19426400
 C                  2.99821600   -1.86028600    1.51107100
 C                  1.55872800    0.93874300    1.88956000
 C                  1.47190300    2.02577800    2.75759300
 C                  1.98091700    3.24749100    2.34957700
 C                  2.58293800    3.41527900    1.10879900
 C                  2.66075300    2.32201600    0.25413700
 C                  3.72381700   -0.32279500   -2.86884600
 C                  4.94266100   -0.28563100   -3.54254500
 C                  6.09412400   -0.04120200   -2.81266100
 C                  6.07017300    0.16225500   -1.43835400
 C                  4.84763900    0.11419400   -0.78142800
 H                  1.13201000   -2.96284500   -1.10068500
 H                  1.44916900   -5.12037300    0.10214900
 F                  2.75069400   -5.36750700    2.32056000
 H                  3.72475500   -3.11810900    3.12036600
 H                  3.44005900   -0.95821000    1.92357600
 H                  1.14330100   -0.01482900    2.20405600
 H                  1.00370500    1.93415200    3.73145200
 F                  1.88597100    4.30264700    3.16951800
 H                  2.97307200    4.38796200    0.83025100
 H                  3.11423100    2.44876300   -0.72597100
 H                  2.80240100   -0.50518800   -3.41648100
 H                  5.01050600   -0.43885900   -4.61372300
 F                  7.27057000    0.00510800   -3.44960200
 H                  6.99854600    0.35148100   -0.91129000
 H                  4.81828500    0.27725100    0.29269600
 P                 -1.64179100    0.45580500   -0.55445200
 C                 -3.24324700   -0.33043200   -1.01363400
 C                 -2.10454300    2.20017700   -0.19815400
 C                 -1.43371900   -0.22237100    1.14808500
 C                 -3.42058300   -0.83320400   -2.30673800
 C                 -4.62676000   -1.41252100   -2.69286100
 C                 -5.64542100   -1.50001900   -1.75897200
 C                 -5.50192400   -1.02900800   -0.45906800
 C                 -4.29560400   -0.44546500   -0.09387500
 C                 -3.37949500    2.74108100   -0.38115700
 C                 -3.62182400    4.09225100   -0.13536300
 C                 -2.58012500    4.88803700    0.31250400
 C                 -1.30033900    4.38428100    0.50981300
 C                 -1.06887600    3.04296400    0.23510700
 C                 -0.95041500   -1.53372400    1.24086600
 C                 -0.68102500   -2.12128500    2.47100700
 C                 -0.91435800   -1.37636300    3.62039400
 C                 -1.41600000   -0.08418500    3.57038300
 C                 -1.67545200    0.48949300    2.32630400
 H                 -2.61659300   -0.76551000   -3.03405000
 H                 -4.77606800   -1.78641000   -3.69928200
 F                 -6.80949900   -2.05908500   -2.11346100
 H                 -6.32591600   -1.12942300    0.23850300
 H                 -4.16819400   -0.07728700    0.92129000
 H                 -4.19461000    2.11297200   -0.72774600
 H                 -4.60238900    4.53105000   -0.28236400
 F                 -2.81115000    6.18452400    0.55862200
 H                 -0.51044600    5.03882800    0.86288700
 H                 -0.06594500    2.63979600    0.36086700
 H                 -0.76277500   -2.09625800    0.32997900
 H                 -0.28500200   -3.12852500    2.54899700
 F                 -0.64919900   -1.92366900    4.81407600
 H                 -1.59434200    0.45387200    4.49525000
 H                 -2.05194500    1.50725500    2.28202700
 Rh                 0.21044200    0.14502300   -2.07127600
 C                 -0.00496200   -1.57563100   -2.88380400
 O                 -0.15032000   -2.60469100   -3.37794700
 H                  0.74537600    1.67899000   -1.87871500
 C                  0.64662600    1.87292400   -3.45056000
 C                 -0.56773900    1.19724600   -3.78522200
 C                 -1.86150200    1.96267300   -3.65129100
 O                 -2.28591500    2.48211500   -4.92922400
 C                 -2.88975400    1.58585900   -5.72624000
 C                 -3.30226700    2.21097300   -7.03308000
 O                 -3.07024500    0.43053100   -5.41942800
 H                  0.57789200    2.92973700   -3.19046500
 H                  1.57644700    1.61642900   -3.94924500
 H                 -0.54708700    0.49139300   -4.61179700
 H                 -1.72736000    2.84151400   -3.01464400
 H                 -2.67866400    1.35887000   -3.25477200
 H                 -2.41781100    2.58558100   -7.55467700
 H                 -3.95983500    3.06302600   -6.84456100
 H                 -3.81152700    1.46798200   -7.64462600

