87

 P                  1.63042800   -0.03087500   -0.78658000
 C                  2.26976000   -1.08821700    0.58094200
 C                  1.47914600    1.59569100    0.06130500
 C                  3.17791600    0.15331700   -1.77617000
 C                  1.55769100   -2.21860300    0.98508500
 C                  2.02601500   -3.02755000    2.02045200
 C                  3.21360700   -2.68388600    2.64236000
 C                  3.94997600   -1.56533000    2.26771200
 C                  3.47128900   -0.77414800    1.23353600
 C                  1.22592100    1.68095800    1.43478800
 C                  0.92493000    2.90106300    2.03714800
 C                  0.89606400    4.04230900    1.25341800
 C                  1.15836100    4.00281700   -0.10952500
 C                  1.43259300    2.77415300   -0.69780000
 C                  3.46882900   -0.90347600   -2.65145500
 C                  4.61295500   -0.89338400   -3.43998000
 C                  5.46487500    0.19886100   -3.35514400
 C                  5.21517100    1.26040300   -2.49984500
 C                  4.07064900    1.22837000   -1.70632500
 H                  0.62482800   -2.47209000    0.49013300
 H                  1.48299300   -3.90653800    2.35036500
 F                  3.67370200   -3.45108900    3.63840900
 H                  4.87715800   -1.34008200    2.78265800
 H                  4.03986500    0.10012600    0.92652200
 H                  1.25708000    0.78317100    2.04574100
 H                  0.71555800    2.97748300    3.09843200
 F                  0.59516300    5.21827500    1.81929400
 H                  1.12948300    4.92067600   -0.68691300
 H                  1.61117500    2.73453200   -1.76955300
 H                  2.78776700   -1.75037800   -2.70612800
 H                  4.85041500   -1.70638100   -4.11690800
 F                  6.56341300    0.22614600   -4.12062000
 H                  5.91467900    2.08792800   -2.45901400
 H                  3.88279700    2.05151400   -1.02362500
 P                 -2.14379000   -0.47405000   -0.44603100
 C                 -3.76756800   -1.13923000   -1.01229500
 C                 -2.61913700    1.18471500    0.19966400
 C                 -1.86564900   -1.40165500    1.11751000
 C                 -4.04901000   -1.07762200   -2.38139800
 C                 -5.27472800   -1.50282300   -2.88278200
 C                 -6.21241000   -2.00869000   -1.99571300
 C                 -5.96460500   -2.10130500   -0.63368200
 C                 -4.73854300   -1.65989000   -0.14789900
 C                 -3.63606200    1.31754900    1.15701700
 C                 -3.99320800    2.56241100    1.65420000
 C                 -3.32048200    3.68368800    1.18254000
 C                 -2.31136800    3.59286100    0.24014200
 C                 -1.96572600    2.33333400   -0.24701500
 C                 -1.98739700   -2.79795500    1.12481400
 C                 -1.60215100   -3.54329700    2.23379100
 C                 -1.08490000   -2.87643000    3.33590400
 C                 -0.95792900   -1.49712800    3.36824100
 C                 -1.35222900   -0.76413100    2.25197000
 H                 -3.28585800   -0.70239500   -3.05851000
 H                 -5.50768400   -1.45929100   -3.94072000
 F                 -7.39121800   -2.43254200   -2.46808100
 H                 -6.72393100   -2.51601700    0.01971600
 H                 -4.53405100   -1.74563400    0.91562900
 H                 -4.15417200    0.43736300    1.52605900
 H                 -4.77754900    2.68191000    2.39306500
 F                 -3.66127900    4.88627000    1.66038300
 H                 -1.80761100    4.49325100   -0.09395100
 H                 -1.17163400    2.24479400   -0.98101700
 H                 -2.38202700   -3.31366300    0.25281100
 H                 -1.68908900   -4.62410100    2.25387500
 F                 -0.68207300   -3.59327100    4.39358600
 H                 -0.54753200   -1.01966100    4.25118900
 H                 -1.24900500    0.31751600    2.26346600
 Rh                -0.41838800   -0.73012900   -1.97983900
 C                 -0.53117700   -2.61527000   -1.92236800
 O                 -0.61501100   -3.76309700   -1.91661000
 H                 -0.61432700    0.84739500   -2.38293600
 C                  0.21573000   -0.82982800   -4.08420300
 C                 -0.39467500    0.43453500   -3.97646900
 C                  0.47777200    1.66218500   -4.14023800
 O                  0.75569400    1.90103200   -5.52587000
 C                 -0.24822800    2.46053200   -6.23000200
 C                  0.15206200    2.66598200   -7.66660700
 O                 -1.31616000    2.74842500   -5.74953700
 H                  1.29670400   -0.87028800   -4.19831300
 H                 -0.33786700   -1.65074100   -4.52783400
 H                 -1.41897700    0.56626700   -4.31315600
 H                  1.45608300    1.48696300   -3.68342500
 H                  0.01186300    2.55526300   -3.71385300
 H                  0.37639900    1.69903900   -8.12428200
 H                  1.05915400    3.27297500   -7.71631200
 H                 -0.66085900    3.15427100   -8.20137400

 
