87

 P                  2.24372200    0.29632700    0.48354000
 C                  3.40797900    0.89962100   -0.83671900
 C                  3.45345800   -0.60570600    1.54760700
 C                  1.98089400    1.84846400    1.47554400
 C                  4.04242600    0.01374500   -1.72130600
 C                  4.86079800    0.46325800   -2.75306900
 C                  5.07226300    1.82546000   -2.92799700
 C                  4.47682700    2.72728600   -2.05466700
 C                  3.66299000    2.26406300   -1.02616400
 C                  4.78449100   -0.17454000    1.63850400
 C                  5.70095100   -0.87208400    2.41651400
 C                  5.30365700   -2.01614600    3.10834100
 C                  3.98568600   -2.45135300    3.02722600
 C                  3.06433700   -1.74449100    2.25497500
 C                  1.13780600    2.88398600    1.04546900
 C                  0.87466900    4.00024300    1.83259800
 C                  1.42203500    4.09171600    3.10675000
 C                  2.23278700    3.06617200    3.57866800
 C                  2.51084100    1.96901300    2.76850300
 Br                 3.88630500   -1.87620900   -1.56826000
 H                  5.32818500   -0.26072000   -3.41064000
 H                  5.70577800    2.17216100   -3.73787100
 H                  4.64190300    3.79376400   -2.16699900
 H                  3.22142600    2.98595300   -0.34920100
 H                  5.10496500    0.71070400    1.09545400
 H                  6.72902300   -0.52787500    2.47480900
 H                  6.02480500   -2.56936800    3.70220800
 H                  3.66435500   -3.35448800    3.53414100
 H                  2.04250100   -2.10354000    2.19499900
 Br                 0.24167300    2.82113500   -0.62811800
 H                  0.22272500    4.77714700    1.44961100
 H                  1.20313400    4.95553500    3.72602400
 H                  2.65800700    3.11599400    4.57572900
 H                  3.14976900    1.18295600    3.15442700
 P                 -2.09365000   -0.34339900   -0.08856600
 C                 -3.18481200    0.63140500    1.06996200
 C                 -3.19811600   -1.84542800   -0.17690200
 C                 -2.47501000    0.52078900   -1.67859300
 C                 -2.74616500    1.21379800    2.26137700
 C                 -3.61572800    1.92306700    3.09149300
 C                 -4.95226100    2.05490500    2.74347800
 C                 -5.42359400    1.47006500    1.56959500
 C                 -4.54638400    0.76872900    0.75489800
 C                 -3.32635500   -2.68568400    0.93934700
 C                 -4.07299900   -3.85943000    0.90750900
 C                 -4.72699000   -4.22820200   -0.26278100
 C                 -4.64354400   -3.40490000   -1.37965200
 C                 -3.89474700   -2.23216900   -1.33010100
 C                 -2.12831100   -0.10392200   -2.88611000
 C                 -2.27358100    0.55332100   -4.10271800
 C                 -2.74081500    1.86527300   -4.13641100
 C                 -3.06125000    2.50785100   -2.94515500
 C                 -2.93497800    1.84172200   -1.72697400
 Br                -0.96122500    1.04340000    2.86922000
 H                 -3.23448600    2.35597400    4.00924200
 H                 -5.62450100    2.60521300    3.39403900
 H                 -6.46908100    1.55661700    1.29243900
 H                 -4.91650000    0.31412000   -0.16077700
 Br                -2.49872400   -2.24876300    2.59286000
 H                 -4.13780300   -4.47208200    1.79975800
 H                 -5.30435100   -5.14637900   -0.29126400
 H                 -5.16536800   -3.66721300   -2.29432900
 H                 -3.86412300   -1.59734800   -2.20792000
 H                 -1.71895500   -1.11183600   -2.87071900
 H                 -1.99914600    0.04547500   -5.02199100
 H                 -2.84179600    2.38541500   -5.08364400
 H                 -3.41139900    3.53545200   -2.95657800
 H                 -3.18305100    2.36641200   -0.81047200
 Rh                 0.49570100   -0.97937700   -0.41868900
 C                  0.78162000   -0.20873000   -2.12517500
 O                  1.04309700    0.21542000   -3.15924400
 H                  0.49206500   -1.87811200    0.95628700
 C                  0.20867800   -2.96582600   -1.27075900
 C                  0.74202100   -3.19081900    0.02083200
 C                 -0.01326800   -4.05505100    1.01104000
 O                  0.42468400   -5.41706100    0.86553600
 C                  1.56074100   -5.72784100    1.51116200
 C                  1.94523300   -7.16354400    1.26837800
 O                  2.18239800   -4.94560800    2.19050300
 H                 -0.82476300   -3.25881000   -1.45932100
 H                  0.87157500   -2.99476300   -2.12971500
 H                  1.82323100   -3.28552200    0.12029600
 H                 -1.07934200   -4.06818900    0.78085700
 H                  0.13840900   -3.75050100    2.04784400
 H                  2.15804400   -7.30613300    0.20557800
 H                  1.11381800   -7.82185900    1.53046500
 H                  2.82582400   -7.40728800    1.86044200