87

 P                 -1.99306200    0.30487700    0.00653200
 C                 -3.35546600   -0.30520400    1.11123500
 C                 -2.19072000   -0.91056100   -1.37062400
 C                 -2.76736400    1.81370000   -0.75395300
 C                 -3.21967300   -1.51976100    1.79772400
 C                 -4.20798700   -2.00067400    2.65159000
 C                 -5.38137100   -1.27687100    2.82270100
 C                 -5.56510800   -0.09000100    2.12120600
 C                 -4.56536300    0.38128100    1.27716300
 C                 -3.42415800   -1.47268400   -1.71964600
 C                 -3.50714800   -2.37464100   -2.77572500
 C                 -2.36270200   -2.72513400   -3.49288700
 C                 -1.13321100   -2.16985700   -3.15226300
 C                 -1.05359200   -1.26766500   -2.09301500
 C                 -3.00464800    2.98922000   -0.02380500
 C                 -3.45271000    4.15965700   -0.63179100
 C                 -3.65897700    4.18942400   -2.00584000
 C                 -3.42336500    3.04439000   -2.75916100
 C                 -2.98855800    1.87822100   -2.13746900
 Cl                -1.81577000   -2.51960200    1.55289900
 H                 -4.04908100   -2.94289500    3.16430400
 H                 -6.15171900   -1.64955500    3.48985700
 H                 -6.48627600    0.47343000    2.22676300
 H                 -4.73805600    1.29967800    0.72765200
 H                 -4.31974200   -1.20615000   -1.16421300
 H                 -4.46678200   -2.80965900   -3.03769500
 H                 -2.43276200   -3.43491400   -4.31150800
 H                 -0.23129300   -2.44215500   -3.69308500
 H                 -0.09860000   -0.84300100   -1.80269300
 Cl                -2.76064300    3.05175000    1.70485900
 H                 -3.62972500    5.03714300   -0.01941600
 H                 -4.00213000    5.10359900   -2.47897200
 H                 -3.58200900    3.05173900   -3.83259100
 H                 -2.81221900    0.99482500   -2.74144600
 P                  2.25800200   -0.05257500   -0.23202700
 C                  2.94190600    1.25212500   -1.37369800
 C                  2.30511000   -1.54015000   -1.35932100
 C                  3.63551500   -0.56642200    0.87809600
 C                  4.04890300    2.09631500   -1.22219700
 C                  4.30399400    3.13915600   -2.12090300
 C                  3.46380800    3.36373000   -3.19798300
 C                  2.35067900    2.54306100   -3.37841400
 C                  2.10150500    1.52417900   -2.47416700
 C                  1.86122400   -2.77712100   -0.86571200
 C                  1.82807900   -3.92213600   -1.65516300
 C                  2.26207200   -3.86331000   -2.97455800
 C                  2.73389400   -2.65944800   -3.48721300
 C                  2.75290400   -1.51939500   -2.68711700
 C                  4.75649400   -1.25257600    0.39866200
 C                  5.78488300   -1.60537700    1.26373700
 C                  5.70001400   -1.28519900    2.61848500
 C                  4.57676900   -0.62503500    3.10626100
 C                  3.54569800   -0.27307800    2.23836900
 Cl                 5.19630900    1.97150200    0.09074000
 H                  5.17058400    3.76826800   -1.95093600
 H                  3.67155900    4.17714300   -3.88525200
 H                  1.67173900    2.70482000   -4.20906900
 H                  1.21087800    0.91382900   -2.60751100
 Cl                 1.35735800   -2.94305200    0.79369500
 H                  1.46788900   -4.84960700   -1.22389000
 H                  2.23875100   -4.75663600   -3.59018400
 H                  3.09698200   -2.60180700   -4.50836200
 H                  3.14096400   -0.59761900   -3.10514600
 H                  4.83282600   -1.49738200   -0.65737600
 H                  6.65555300   -2.12895000    0.88128700
 H                  6.50480300   -1.56086400    3.29294700
 H                  4.49593300   -0.38814200    4.16241600
 H                  2.66465200    0.23164000    2.62055400
 Rh                 0.17707400    0.87680200    0.73307700
 C                  0.09531500    0.04355200    2.43544200
 O                  0.04158100   -0.45064300    3.46923800
 H                  0.15656800    1.74656700   -0.65834800
 C                  0.46980100    3.11165700    0.20353600
 C                  0.72926500    2.86351000    1.56218600
 C                  2.13471700    2.94496300    2.08550900
 O                  2.53435500    4.31848200    2.30035000
 C                  2.04959000    4.89588800    3.41111400
 C                  2.51865900    6.32448500    3.52437600
 O                  1.33394600    4.33483000    4.20455400
 H                  1.31155300    3.32878900   -0.45515400
 H                 -0.47045200    3.57013300   -0.09258400
 H                 -0.04658800    3.09020500    2.28627100
 H                  2.85738100    2.56433900    1.36163300
 H                  2.24383900    2.41093300    3.03231000
 H                  2.14277400    6.89992800    2.67432800
 H                  3.61012200    6.36121600    3.49162300
 H                  2.15235900    6.75213600    4.45635900

