87

 P                 -1.90007800    0.37241900    0.11727100
 C                 -3.45048000   -0.43145000    0.76546700
 C                 -1.94570600   -0.48568500   -1.52363300
 C                 -2.50109500    2.07185100   -0.29977600
 C                 -3.40764400   -1.72866300    1.28926700
 C                 -4.55088800   -2.37792600    1.74867200
 C                 -5.78182900   -1.74005900    1.67223300
 C                 -5.86252800   -0.46390500    1.12277300
 C                 -4.71138700    0.17284800    0.67527300
 C                 -3.01463800   -0.37953500   -2.42265800
 C                 -3.00833200   -1.10417400   -3.60913500
 C                 -1.94791800   -1.96440600   -3.90152900
 C                 -0.89884400   -2.10300500   -2.99937500
 C                 -0.90392900   -1.36430300   -1.81620800
 C                 -2.96562600    2.96273000    0.68112700
 C                 -3.24841300    4.29601900    0.39217200
 C                 -3.04196500    4.78384400   -0.89321900
 C                 -2.55357000    3.93294000   -1.88058300
 C                 -2.29010900    2.60052000   -1.58255100
 Cl                -1.90906700   -2.61978800    1.34486000
 H                 -4.46184300   -3.38026400    2.15283200
 H                 -6.67309000   -2.24435800    2.03111100
 H                 -6.82029300    0.03971300    1.04246600
 H                 -4.79525800    1.16702700    0.24719200
 H                 -3.85347400    0.27396700   -2.19337600
 H                 -3.83650700   -1.00680400   -4.30443200
 H                 -1.95103300   -2.53214200   -4.82696400
 H                 -0.07510200   -2.78216700   -3.20165100
 H                 -0.09960300   -1.47797700   -1.09681100
 Cl                -3.19695000    2.45119100    2.33557400
 H                 -3.61237400    4.94169800    1.18389200
 H                 -3.25255400    5.82500100   -1.11377200
 H                 -2.37311500    4.30418000   -2.88408200
 H                 -1.89546900    1.95273200   -2.35883700
 P                  2.24361600   -0.33403300    0.14365900
 C                  2.75808400    0.89709700   -1.15326700
 C                  2.36566100   -1.92613800   -0.82483100
 C                  3.68953600   -0.61342100    1.25052500
 C                  3.71293100    1.91448800   -1.06891200
 C                  3.83804400    2.88708500   -2.06680300
 C                  3.00902500    2.86427700   -3.17481800
 C                  2.03223600    1.87327800   -3.28081200
 C                  1.90808800    0.92546600   -2.27853300
 C                  1.95183000   -3.12421000   -0.22297900
 C                  1.96462200   -4.33902600   -0.90145400
 C                  2.42345600   -4.39074200   -2.21282100
 C                  2.87794000   -3.22783800   -2.82642100
 C                  2.84596600   -2.01769200   -2.13855900
 C                  4.85139700   -1.24966700    0.80322400
 C                  5.93510500   -1.41181400    1.65895700
 C                  5.86390200   -0.94971400    2.97210700
 C                  4.70327300   -0.33175900    3.42848700
 C                  3.61888000   -0.16664500    2.57082600
 Cl                 4.78210900    2.11131800    0.29791900
 H                  4.57120100    3.67343200   -1.93316300
 H                  3.11163900    3.62630500   -3.94041200
 H                  1.35965900    1.84663000   -4.13225800
 H                  1.11893400    0.18087900   -2.35574000
 Cl                 1.42324900   -3.14839800    1.43895600
 H                  1.62383900   -5.23287400   -0.39065200
 H                  2.43588900   -5.33782900   -2.74229800
 H                  3.26175600   -3.25632100   -3.84117200
 H                  3.21109600   -1.12541200   -2.63446400
 H                  4.91530000   -1.60840700   -0.22049400
 H                  6.83701700   -1.89847300    1.30088900
 H                  6.71072800   -1.07780100    3.63928900
 H                  4.63906300    0.02140100    4.45293500
 H                  2.71406300    0.32501200    2.91752700
 Rh                 0.28030900    0.66492900    1.17330200
 C                  0.11229300   -0.39695400    2.73592900
 O                  0.02994100   -1.02157000    3.69477100
 H                  0.54820800    1.78009200   -0.01183400
 C                  0.44014600    2.52654300    2.30325700
 C                  1.04435500    2.82731800    1.05988800
 C                  0.49651700    3.93185500    0.17762600
 O                  0.85248900    5.21354800    0.72146000
 C                  2.11563000    5.61908000    0.50766200
 C                  2.36871100    6.95367900    1.15928500
 O                  2.92810400    4.98573900   -0.12098000
 H                 -0.52534500    2.96678800    2.54002500
 H                  1.07859600    2.31520200    3.15534800
 H                  2.12793300    2.74237800    0.99552300
 H                 -0.59270100    3.92655500    0.16673700
 H                  0.88756000    3.85414300   -0.84226000
 H                  2.28388700    6.84691200    2.24405000
 H                  1.61581900    7.67703800    0.83811500
 H                  3.36727100    7.29985100    0.89751000

