91

 P                  2.82166500    1.28720000   -0.58121200
 C                  4.08767100    2.57304400   -0.22155600
 C                  3.70463000    0.12928100   -1.70799200
 C                  2.85373600    0.26596000    0.95984100
 C                  5.26676200    2.70483500   -0.95962600
 C                  6.15602200    3.74058900   -0.69005600
 C                  5.87459200    4.65146400    0.33035200
 C                  4.69374700    4.53347100    1.07372200
 C                  3.80831200    3.50610600    0.78741900
 C                  3.24682800   -0.08360900   -3.00870200
 C                  3.90598500   -0.97101100   -3.85912800
 C                  5.03611300   -1.64655000   -3.41301700
 C                  5.50535000   -1.43929500   -2.11449300
 C                  4.84203200   -0.56192600   -1.26523300
 C                  1.96284300   -0.81367400    0.99583400
 C                  1.86843000   -1.62730600    2.11248800
 C                  2.67935200   -1.36260600    3.22272100
 C                  3.59427400   -0.30864700    3.19124700
 C                  3.68117800    0.49896800    2.06072300
 H                  5.49545500    2.00031500   -1.75245600
 H                  7.06924400    3.84475300   -1.26589200
 C                  6.79917700    5.71614800    0.61798000
 H                  4.47625500    5.25087800    1.85743000
 H                  2.88123800    3.42887600    1.35178000
 H                  2.36684200    0.43099900   -3.37119100
 H                  3.51673800   -1.12308300   -4.86053400
 H                  5.55214800   -2.33950600   -4.07025200
 H                  6.38424600   -1.96937200   -1.76127400
 H                  5.20645200   -0.41544000   -0.25109600
 H                  1.32688600   -0.99909100    0.13301600
 H                  1.15863500   -2.44701100    2.14762900
 C                  2.52766200   -2.14878100    4.41784300
 H                  4.22591900   -0.11955700    4.05291100
 H                  4.39802800    1.31356600    2.04813300
 P                 -1.03535200    1.48746400    0.28951900
 C                 -2.17908100    0.26733200   -0.48111400
 C                 -2.22318400    2.84129600    0.72203400
 C                 -0.74157700    0.78226200    1.96455700
 C                 -1.74132700   -1.05789600   -0.63650200
 C                 -2.48794600   -1.98065200   -1.35151500
 C                 -3.69071100   -1.58158900   -1.95037700
 C                 -4.14035900   -0.26687300   -1.80684100
 C                 -3.39034200    0.64614900   -1.07035900
 C                 -2.16148300    4.05828800    0.03872300
 C                 -3.05795000    5.08307800    0.32808400
 C                 -4.02863800    4.89131900    1.31317000
 C                 -4.10020000    3.67703100    2.00767200
 C                 -3.20094300    2.66354000    1.71048800
 C                 -1.42971000   -0.30474700    2.51097000
 C                 -1.13677400   -0.74701300    3.80139300
 C                 -0.17178300   -0.09654000    4.56447800
 C                  0.50963000    0.99754200    4.03050100
 C                  0.23518900    1.42422200    2.73654600
 H                 -0.80124100   -1.36867600   -0.18806100
 H                 -2.14611900   -3.00419900   -1.46221600
 C                 -4.46068400   -2.52787200   -2.71289700
 H                 -5.07388100    0.03488000   -2.26959000
 H                 -3.75552400    1.66290800   -0.96085000
 H                 -1.40404400    4.20549000   -0.72425000
 H                 -3.00575000    6.02855600   -0.20083600
 C                 -4.96001200    5.94571200    1.61882700
 H                 -4.85585200    3.54045800    2.77374200
 H                 -3.25458100    1.72631500    2.25720100
 H                 -2.19994800   -0.81115000    1.93636700
 H                 -1.67100000   -1.59808800    4.21218200
 H                  0.05951200   -0.44880300    5.56477200
 H                  1.26896500    1.50540500    4.61727800
 H                  0.78598300    2.26030700    2.30862300
 Rh                 0.75607100    2.11526300   -1.24877600
 C                  1.20781000    3.94181800   -0.95582200
 O                  1.46110300    5.05088000   -0.79858300
 H                  0.55577800    0.68883800   -2.04844400
 N                  7.54480800    6.56899800    0.85262700
 N                  2.38253200   -2.76534200    5.38640000
 N                 -5.71094800    6.79093100    1.86356800
 N                 -5.07680900   -3.29028300   -3.32736100
 C                 -0.67529900    2.58878100   -2.82412300
 C                  0.03100800    1.45708000   -3.31571400
 C                 -0.69324200    0.18557800   -3.72809200
 O                 -1.01223400    0.25046600   -5.12465100
 C                  0.01022900   -0.00883200   -5.96025000
 C                 -0.43274700    0.05614400   -7.39609600
 O                  1.13077800   -0.25978900   -5.58189000
 H                 -1.72627100    2.46369600   -2.56417800
 H                 -0.41103800    3.56967200   -3.20656500
 H                  0.89222700    1.65935900   -3.94654800
 H                 -1.65142200    0.09392500   -3.21365300
 H                 -0.08760700   -0.70802800   -3.55368900
 H                 -0.82282400    1.05361400   -7.61379900
 H                 -1.24169700   -0.65879100   -7.56478500
 H                  0.41159000   -0.16760100   -8.04583000

