87

 P                  1.98307100   -1.16206600   -0.42366900
 C                  2.83960500   -2.17472700    0.85435400
 C                  3.35338200   -0.78898900   -1.59460300
 C                  1.05053100   -2.46642600   -1.33864400
 C                  4.15482600   -2.61849500    0.70145800
 C                  4.71813600   -3.40121900    1.69951500
 C                  4.02186900   -3.76962500    2.83959100
 C                  2.70916800   -3.32681600    2.98266800
 C                  2.12300900   -2.53250700    2.00256900
 C                  3.66581200   -1.59975200   -2.68938400
 C                  4.73707700   -1.27542900   -3.52015100
 C                  5.51058500   -0.14819100   -3.25842900
 C                  5.20991700    0.66071100   -2.16373500
 C                  4.13263400    0.34633200   -1.34115900
 C                  0.06180900   -2.04285000   -2.23023900
 C                 -0.66274200   -2.98587200   -2.93767700
 C                 -0.43909500   -4.34843800   -2.79648100
 C                  0.54710900   -4.76556200   -1.90931400
 C                  1.28811900   -3.83518500   -1.18017100
 H                  4.74885600   -2.37113500   -0.17223400
 F                  5.98231600   -3.82173700    1.54844400
 H                  4.51024300   -4.38123000    3.58963900
 H                  2.14520900   -3.59474200    3.87014600
 H                  1.10516400   -2.17561300    2.13312800
 H                  3.07387400   -2.48646000   -2.89655300
 H                  4.96703700   -1.90802800   -4.37183600
 H                  6.34527100    0.10110300   -3.90608600
 H                  5.81091600    1.54023200   -1.95438600
 H                  3.88158100    0.97814300   -0.49156000
 H                 -0.16630300   -0.98853100   -2.35255100
 F                 -1.62728000   -2.57016900   -3.77204000
 H                 -1.04055100   -5.04895000   -3.36515600
 H                  0.73878700   -5.82620100   -1.78091700
 H                  2.05339400   -4.17997900   -0.49220900
 P                 -1.58543000    0.39715800    0.30495900
 C                 -2.31886500   -1.21924300   -0.17764500
 C                 -2.49490400    1.58257000   -0.77618800
 C                 -2.37756300    0.70980800    1.93416700
 C                 -3.27315000   -1.37005300   -1.18322900
 C                 -3.69875400   -2.64939800   -1.51845900
 C                 -3.22724600   -3.78227200   -0.87803300
 C                 -2.28006400   -3.62363900    0.13405500
 C                 -1.82436300   -2.35731600    0.47580400
 C                 -3.48876200    2.43774500   -0.29488600
 C                 -4.08510200    3.33604400   -1.16942900
 C                 -3.74234500    3.41333800   -2.50977600
 C                 -2.75463000    2.55475300   -2.98699600
 C                 -2.12811600    1.65688000   -2.12818500
 C                 -3.49626700    0.00276600    2.38730500
 C                 -4.08701100    0.32958000    3.60583000
 C                 -3.58068500    1.37641600    4.37272700
 C                 -2.47498800    2.09387500    3.92201200
 C                 -1.86858400    1.75483900    2.71617000
 H                 -3.68785400   -0.52302300   -1.71923800
 F                 -4.60437800   -2.78738900   -2.49670300
 H                 -3.58986900   -4.75798000   -1.18153400
 H                 -1.88441900   -4.49762200    0.64160500
 H                 -1.06468200   -2.24161800    1.24504300
 H                 -3.80790700    2.42268400    0.74195400
 F                 -5.03518100    4.15529900   -0.69800900
 H                 -4.24229700    4.13155200   -3.14950000
 H                 -2.46913300    2.59243300   -4.03342200
 H                 -1.34995500    1.00039900   -2.50992900
 H                 -3.90969000   -0.80273300    1.78739700
 H                 -4.95063500   -0.23058500    3.95090500
 H                 -4.04935500    1.63392400    5.31748500
 H                 -2.07651600    2.92094400    4.50083300
 H                 -1.00983600    2.32876900    2.37900200
 Rh                 0.82883800    0.69456100    0.26783100
 C                  1.36225700    0.57103300    2.08880300
 O                  1.67167400    0.49588500    3.19286600
 H                  0.73788800    0.98514600   -1.34225400
 C                  1.09117000    2.57606100   -1.02077000
 C                  0.62220700    2.87509100    0.28018100
 C                  1.53933100    3.49021200    1.30407500
 O                  1.47548600    4.93153500    1.23804800
 C                  0.41137100    5.48001000    1.84678000
 C                  0.41876100    6.97970500    1.70848700
 O                 -0.43657400    4.83958700    2.42311900
 H                  2.14985000    2.67037100   -1.25102100
 H                  0.42941100    2.75946000   -1.86412300
 H                 -0.41680500    3.18943200    0.37131000
 H                  2.58212900    3.23670300    1.09956700
 H                  1.28520700    3.19803100    2.32480100
 H                  0.33298500    7.24662300    0.65181300
 H                  1.36504700    7.38335700    2.07596400
 H                 -0.41660700    7.39841700    2.26728200

