87

 P                 -2.03839300   -0.51526400   -0.04901800
 C                 -2.57455600    1.25104500   -0.14343700
 C                 -2.80457900   -0.98415400    1.55689700
 C                 -3.15373300   -1.31522200   -1.26934900
 C                 -2.13356600    2.01529400   -1.22359700
 C                 -2.28355000    3.39004200   -1.29994100
 C                 -2.94306500    4.04179900   -0.26023900
 C                 -3.44446100    3.31025500    0.81446500
 C                 -3.25710900    1.93012300    0.87226800
 C                 -2.09716400   -0.69080000    2.72838400
 C                 -2.65448100   -0.95228600    3.97590100
 C                 -3.92023600   -1.52793200    4.06798500
 C                 -4.62939000   -1.82515900    2.90734800
 C                 -4.08003700   -1.54550800    1.65732700
 C                 -3.10305300   -2.70503200   -1.38806100
 C                 -3.83119300   -3.41110000   -2.32951900
 C                 -4.65458700   -2.70337800   -3.20166600
 C                 -4.73896900   -1.31721500   -3.11042100
 C                 -3.99644000   -0.63283600   -2.15040800
 F                 -1.53861100    1.38119700   -2.24930800
 H                 -1.88211000    3.91947400   -2.15743200
 H                 -3.06934300    5.11896500   -0.29832900
 H                 -3.97507100    3.81395500    1.61616700
 H                 -3.62381400    1.37505200    1.72997400
 H                 -1.10758200   -0.24556500    2.66346800
 H                 -2.09294400   -0.70922900    4.87319400
 H                 -4.35228500   -1.74384400    5.04022600
 H                 -5.61662400   -2.27210100    2.97169000
 H                 -4.65138100   -1.76261900    0.75942600
 F                 -2.32513500   -3.39611300   -0.53622000
 H                 -3.74217100   -4.49110200   -2.36465400
 H                 -5.22922700   -3.23942900   -3.94979800
 H                 -5.38241200   -0.76427900   -3.78636400
 H                 -4.07514000    0.44756400   -2.08329700
 P                  1.44041500    1.04700800    0.09382200
 C                  0.88524600    1.57003100    1.76920400
 C                  1.16837500    2.59043800   -0.89928700
 C                  3.28070300    1.20438100    0.17322800
 C                  1.36314900    0.86593000    2.87606200
 C                  0.87635000    1.03524700    4.16132100
 C                 -0.17222100    1.93118900    4.36446600
 C                 -0.71131000    2.61891100    3.28119100
 C                 -0.18708900    2.43987400    2.00171300
 C                  1.03599000    2.48131200   -2.28223300
 C                  0.86853700    3.57606500   -3.11923200
 C                  0.86059600    4.84954500   -2.56236600
 C                  1.03890100    5.00742600   -1.18826800
 C                  1.20471600    3.89047000   -0.37658400
 C                  3.98423800    1.85692800    1.18761500
 C                  5.37235500    1.95061600    1.12984800
 C                  6.06855800    1.40643500    0.05322800
 C                  5.37200100    0.76813600   -0.97026300
 C                  3.98579000    0.66412600   -0.90717500
 F                  2.32658400   -0.05643600    2.68027500
 H                  1.31222100    0.45926400    4.97037700
 H                 -0.57232400    2.07477300    5.36287400
 H                 -1.54874200    3.29487000    3.42127600
 H                 -0.63577400    2.97073300    1.16682000
 F                  1.10387900    1.27133400   -2.85630100
 H                  0.76311900    3.40757300   -4.18527100
 H                  0.73537800    5.71662400   -3.20312000
 H                  1.06414200    5.99992800   -0.75072800
 H                  1.37003100    4.02740200    0.68774400
 H                  3.45132700    2.29657600    2.02658300
 H                  5.91085500    2.45253100    1.92800900
 H                  7.15078700    1.47983000    0.01231200
 H                  5.90692700    0.34302500   -1.81382300
 H                  3.43938100    0.15777300   -1.70082300
 Rh                 0.19096000   -1.02683700   -0.32802000
 C                  0.07524100   -1.24066300   -2.23281200
 O                 -0.03134700   -1.39656700   -3.36266000
 H                  0.20725800   -1.18170100    1.28423600
 C                  0.78489700   -2.70020200    1.09916300
 C                  1.50815000   -2.76867100   -0.11061500
 C                  2.97875400   -2.46887500   -0.10599700
 O                  3.75290300   -3.61263000    0.33058500
 C                  3.91602300   -4.58293100   -0.58090500
 C                  4.71944400   -5.72644900   -0.01339600
 O                  3.47368100   -4.53664900   -1.70314000
 H                  1.33705600   -2.48081300    2.01261900
 H                 -0.10605100   -3.30486000    1.23944400
 H                  1.17107600   -3.46581300   -0.87240800
 H                  3.21748800   -1.68549100    0.61703200
 H                  3.33295200   -2.17648800   -1.09660900
 H                  4.18226500   -6.16545900    0.83138800
 H                  5.67807500   -5.35853700    0.36008500
 H                  4.87642500   -6.47667500   -0.78684700

