87

 P                 -2.58645300   -0.25580400   -0.19971400
 C                 -3.17396200    1.44212100   -0.64845100
 C                 -2.31694300   -0.13015000    1.61383200
 C                 -4.18747800   -1.16427800   -0.30726700
 C                 -3.68738400    2.34018700    0.29076000
 C                 -4.14367400    3.57771500   -0.13896300
 C                 -4.11933600    3.95974100   -1.47133400
 C                 -3.61765300    3.05618400   -2.40441700
 C                 -3.14610400    1.81103000   -1.99772400
 C                 -1.52335800    0.90504600    2.12521100
 C                 -1.20404700    0.95077000    3.47754300
 C                 -1.65330100   -0.05183300    4.33454300
 C                 -2.41823800   -1.09962800    3.83136800
 C                 -2.75108700   -1.13950900    2.47838000
 C                 -5.29315100   -0.78302400    0.46431900
 C                 -6.50320200   -1.45337600    0.33729600
 C                 -6.62615800   -2.50794600   -0.56890400
 C                 -5.53596800   -2.88896400   -1.34221100
 C                 -4.31906700   -2.21957200   -1.20991800
 H                 -3.72759400    2.10809700    1.34987900
 F                 -4.62403700    4.43619400    0.77209900
 H                 -4.48702500    4.93970700   -1.75377400
 H                 -3.58978100    3.32787500   -3.45471800
 H                 -2.73743900    1.12019800   -2.72938800
 H                 -1.14518100    1.68068000    1.46107300
 H                 -0.58540500    1.75808000    3.85647400
 H                 -1.39416300   -0.02198900    5.38846800
 H                 -2.76329600   -1.88987700    4.49100700
 H                 -3.35418000   -1.95907800    2.09724700
 H                 -5.20374000    0.03766900    1.17184200
 H                 -7.35314600   -1.15264100    0.94190600
 H                 -7.57369100   -3.02804000   -0.66983400
 H                 -5.62625300   -3.70505000   -2.05191500
 H                 -3.46067800   -2.51138100   -1.80865800
 P                  1.19836300   -0.01414800   -0.37783100
 C                  2.79852400   -0.62658600   -1.05482500
 C                  1.48297100   -0.18274100    1.43795700
 C                  1.39485700    1.79721700   -0.66351400
 C                  3.62795100   -1.49241200   -0.34045600
 C                  4.76019400   -2.00329700   -0.95990500
 C                  5.10620100   -1.68630600   -2.26350300
 C                  4.27421000   -0.82135200   -2.97164500
 C                  3.12946700   -0.29937800   -2.37831500
 C                  1.03358300   -1.35543900    2.05654600
 C                  1.24847500   -1.56933200    3.41496100
 C                  1.89815200   -0.60286500    4.17872600
 C                  2.33375600    0.57464600    3.57633300
 C                  2.13070500    0.78368100    2.21404200
 C                  0.24090800    2.54712900   -0.90528200
 C                  0.30918300    3.92559900   -1.09965400
 C                  1.54266200    4.56843700   -1.07001900
 C                  2.70472400    3.82886800   -0.84944300
 C                  2.63327300    2.45359500   -0.64880100
 H                  3.41748700   -1.77249600    0.68676000
 F                  5.55436200   -2.82946500   -0.26320100
 H                  6.00332700   -2.11169300   -2.69826100
 H                  4.52175700   -0.55663900   -3.99474400
 H                  2.48850200    0.37575600   -2.94131700
 H                  0.50328000   -2.10013400    1.47025600
 H                  0.88932000   -2.48335900    3.87757500
 H                  2.05802900   -0.76346600    5.24064000
 H                  2.83583700    1.33537400    4.16670000
 H                  2.47163700    1.70912800    1.76110500
 H                 -0.71832700    2.04305300   -0.96055200
 H                 -0.60313400    4.48520300   -1.28441600
 H                  1.60362800    5.64084800   -1.22742500
 H                  3.67038200    4.32497000   -0.83629800
 H                  3.54462600    1.88385100   -0.48605100
 Rh                -0.78025800   -1.19343500   -1.31753600
 C                 -1.03312900   -2.85370300   -0.44219100
 O                 -1.21637800   -3.87041200    0.06515600
 H                 -0.84910700   -0.00706300   -2.44750100
 C                  0.26032400   -2.17089400   -2.95148000
 C                 -0.48216600   -1.14070800   -3.57956700
 C                 -1.76838700   -1.46407200   -4.29172700
 O                 -1.43669600   -1.67789000   -5.67522000
 C                 -2.47367600   -2.00980100   -6.46487100
 C                 -2.02456400   -2.22358100   -7.88741500
 O                 -3.60481500   -2.11871900   -6.06217800
 H                 -0.12638100   -3.18448100   -3.02292900
 H                  1.34091600   -2.08947000   -2.88132300
 H                  0.07860300   -0.32885000   -4.04352200
 H                 -2.50823200   -0.66019400   -4.23126100
 H                 -2.22288100   -2.37105200   -3.88256200
 H                 -1.53678500   -1.32036300   -8.26204700
 H                 -2.88707800   -2.46991500   -8.50454800
 H                 -1.29195000   -3.03378300   -7.92352500