87

 P                  2.20659600   -0.67511300   -0.35830900
 C                  2.75268500    1.01518300   -0.84385300
 C                  3.05926000   -1.73303100   -1.60225300
 C                  3.22244800   -0.97144600    1.14547200
 C                  3.86106800    1.65475700   -0.28080100
 C                  4.20150200    2.95312900   -0.65483300
 C                  3.42246900    3.59805200   -1.60151900
 C                  2.32793300    2.98781400   -2.19798800
 C                  1.99651200    1.69863900   -1.80455900
 C                  4.02219400   -1.25016800   -2.49215900
 C                  4.63779200   -2.11312500   -3.39864600
 C                  4.30551800   -3.46427400   -3.41667400
 C                  3.35003200   -3.95500100   -2.52753500
 C                  2.72523400   -3.09337300   -1.63192300
 C                  2.71174600   -0.56257800    2.38365800
 C                  3.45135000   -0.71286300    3.55075200
 C                  4.70970200   -1.29077300    3.46615700
 C                  5.24637800   -1.71466500    2.26008500
 C                  4.49632200   -1.54863800    1.09914200
 H                  4.46417000    1.14574900    0.46487400
 H                  5.04876300    3.46999200   -0.21784800
 F                  3.72425000    4.85876300   -1.94189300
 H                  1.73704900    3.53757600   -2.92186700
 H                  1.11747000    1.21785700   -2.22599900
 H                  4.29466900   -0.19884900   -2.47963200
 H                  5.38042100   -1.72567000   -4.08930500
 H                  4.78673500   -4.13393600   -4.12261700
 H                  3.08648500   -5.00814900   -2.53687000
 H                  1.96685600   -3.46608800   -0.94581500
 H                  1.71435000   -0.13343000    2.43796100
 H                  3.06558900   -0.40675000    4.51651700
 F                  5.42759300   -1.44780300    4.58568700
 H                  6.23214500   -2.16581900    2.24402200
 H                  4.91164700   -1.87273200    0.14951500
 P                 -1.37608300    0.88344600    0.09857100
 C                 -2.33024700    0.95561400    1.67181300
 C                 -2.70456200    1.12911400   -1.15674500
 C                 -0.55903100    2.53567700    0.10829800
 C                 -2.71521700   -0.24523800    2.28117000
 C                 -3.49431700   -0.24565100    3.43466200
 C                 -3.86759600    0.97154300    3.98175300
 C                 -3.49677700    2.18231700    3.41205900
 C                 -2.73014400    2.16681000    2.25203400
 C                 -2.33957400    1.06954300   -2.50982600
 C                 -3.29074300    1.14961300   -3.52029900
 C                 -4.62693600    1.27072800   -3.16159100
 C                 -5.02781700    1.33222400   -1.83670300
 C                 -4.05874500    1.26936800   -0.83756100
 C                 -0.96959100    3.61798800   -0.67364900
 C                 -0.27342300    4.82686600   -0.62732400
 C                  0.82954400    4.97051100    0.20763000
 C                  1.23871900    3.89865400    1.00190100
 C                  0.55435000    2.69118800    0.94430600
 H                 -2.41722200   -1.20002000    1.85690500
 H                 -3.80094900   -1.17207000    3.90712200
 F                 -4.60879800    0.98500600    5.09789600
 H                 -3.80974600    3.10946600    3.87921200
 H                 -2.43993900    3.10834200    1.79399500
 H                 -1.29136000    0.95033000   -2.77565200
 H                 -3.01997900    1.10831000   -4.56955900
 F                 -5.55357100    1.33008600   -4.12698200
 H                 -6.08217300    1.42883200   -1.60282600
 H                 -4.36985200    1.31469100    0.20162800
 H                 -1.83660100    3.52452800   -1.32070700
 H                 -0.60049200    5.65782100   -1.24515200
 H                  1.37574900    5.90837200    0.23471100
 H                  2.10383800    3.99798800    1.65026700
 H                  0.89376500    1.84778900    1.54204800
 Rh                -0.05461700   -1.11893700   -0.24013000
 C                  0.03509400   -2.01162300    1.43220300
 O                  0.09994900   -2.56506300    2.43656700
 H                 -0.03856800   -0.79879800   -1.86077400
 C                 -0.81684500   -2.18213000   -2.11987200
 C                 -1.59902900   -2.49199900   -0.98048700
 C                 -3.06005400   -2.10316100   -0.91899000
 O                 -3.89079400   -3.27976600   -0.86737900
 C                 -3.98124800   -3.84913500    0.34474000
 C                 -4.87000700   -5.06444400    0.31126400
 O                 -3.41425500   -3.42902300    1.32667400
 H                 -1.31099600   -1.66232000   -2.94123100
 H                 -0.00664900   -2.83556900   -2.43026600
 H                 -1.36319200   -3.40638500   -0.44211800
 H                 -3.36893200   -1.57294400   -1.82376500
 H                 -3.30652500   -1.49034200   -0.05032900
 H                 -4.44764400   -5.80670600   -0.37094400
 H                 -5.85735900   -4.79113300   -0.06847200
 H                 -4.95099700   -5.48092500    1.31391200

