87

 P                  1.90731400   -0.81992300    0.02829000
 C                  2.35361800    0.64161700   -1.00266400
 C                  2.51600400   -2.22136500   -0.99523100
 C                  3.18021000   -0.75953700    1.35527600
 C                  3.57202800    1.31981300   -0.89823300
 C                  3.82406300    2.45779200   -1.66085600
 C                  2.84593700    2.90298600   -2.53573200
 C                  1.63330500    2.24549500   -2.68384000
 C                  1.39293400    1.12267300   -1.90278700
 C                  2.84052900   -2.10061900   -2.34865700
 C                  3.13060200   -3.23474600   -3.10769400
 C                  3.11348700   -4.49646800   -2.52118000
 C                  2.81324100   -4.62439000   -1.16395100
 C                  2.51019700   -3.49658800   -0.40968500
 C                  2.84967700   -0.15162300    2.57185300
 C                  3.78308900   -0.03809900    3.59730500
 C                  5.05418800   -0.55255700    3.39387100
 C                  5.41885400   -1.16873400    2.20509700
 C                  4.47547600   -1.26680400    1.18770200
 H                  4.33168100    0.97309100   -0.20454500
 H                  4.75695300    3.00476500   -1.57968600
 F                  3.07064900    4.01528300   -3.24913800
 H                  0.88782300    2.63970800   -3.36520400
 H                  0.42605400    0.62903500   -1.96506200
 H                  2.85765700   -1.12070400   -2.81693100
 H                  3.37311400   -3.12768000   -4.16054900
 H                  3.33627400   -5.37730200   -3.11482800
 H                  2.80630200   -5.60453700   -0.69701100
 H                  2.25827300   -3.59821400    0.64458800
 H                  1.84325500    0.22832700    2.72493600
 H                  3.53714500    0.42499100    4.54617300
 F                  5.95884600   -0.45704200    4.37670000
 H                  6.42402900   -1.55971900    2.09353100
 H                  4.75171400   -1.74496700    0.25207600
 P                 -1.57699700    0.95569900    0.80012600
 C                 -2.19729200    1.44653400    2.46255400
 C                 -3.12416200    1.02628100   -0.20194800
 C                 -0.71428200    2.49405100    0.26009100
 C                 -2.82450300    0.46572600    3.24244300
 C                 -3.35243700    0.77061400    4.49070800
 C                 -3.23395500    2.07154800    4.95975200
 C                 -2.61953300    3.06786800    4.21832800
 C                 -2.10725900    2.74948800    2.96265300
 C                 -3.12189900    0.49863500   -1.50036100
 C                 -4.25855200    0.53710200   -2.30027000
 C                 -5.40888700    1.11355200   -1.78333500
 C                 -5.45194200    1.65187400   -0.50633600
 C                 -4.30375000    1.60735200    0.27957900
 C                 -1.26294600    3.40983700   -0.64087900
 C                 -0.53795500    4.53714700   -1.02945000
 C                  0.73261800    4.76765000   -0.51202300
 C                  1.28322400    3.86500300    0.39825100
 C                  0.56789100    2.73356900    0.77115100
 H                 -2.90056700   -0.55000500    2.86175900
 H                 -3.83910100    0.02188000    5.10540400
 F                 -3.73005700    2.37277900    6.16724800
 H                 -2.55218000    4.07092200    4.62444200
 H                 -1.63655200    3.52840500    2.37098000
 H                 -2.22815500    0.03879400   -1.91115100
 H                 -4.25372600    0.10623200   -3.29475600
 F                 -6.51614200    1.14864400   -2.53821200
 H                 -6.37335400    2.09386300   -0.14385300
 H                 -4.33394300    2.03246000    1.27783800
 H                 -2.25711900    3.24632800   -1.04576800
 H                 -0.97207300    5.23558700   -1.73845400
 H                  1.29903600    5.63976200   -0.82426300
 H                  2.27922200    4.02972700    0.79770700
 H                  1.01372200    2.01211000    1.45306100
 Rh                -0.39314500   -1.05299600    0.70311600
 C                 -0.26856300   -1.35598700    2.55084200
 O                 -0.18134300   -1.54694700    3.68217900
 H                 -0.73447000   -0.99776200   -0.91263800
 C                 -0.98633200   -3.13509200    0.25917300
 C                 -1.32592100   -2.43558100   -0.91881100
 C                 -0.62747400   -2.78299900   -2.22764100
 O                 -1.48641600   -3.62008600   -3.01603500
 C                 -2.45400500   -2.97863800   -3.69066200
 C                 -3.30208100   -3.94305000   -4.47487400
 O                 -2.60815400   -1.77955100   -3.65768000
 H                 -0.14241200   -3.82030100    0.22882300
 H                 -1.76043100   -3.36124200    0.98411900
 H                 -2.36124900   -2.12161100   -1.04812000
 H                  0.27028400   -3.37560200   -2.04380100
 H                 -0.36891300   -1.90033900   -2.81885500
 H                 -3.80070900   -4.63061200   -3.78672400
 H                 -2.67010000   -4.53897200   -5.13738200
 H                 -4.04163100   -3.38964400   -5.05114500

