87

 P                 -1.97216500   -0.46439700    0.79268000
 C                 -1.81670000    0.85322500   -0.49637900
 C                 -3.12881600    0.31865200    1.99062400
 C                 -3.08018800   -1.66106800   -0.08066400
 C                 -0.81633200    0.66967700   -1.45602100
 C                 -0.60057500    1.64078100   -2.42188700
 C                 -1.37477100    2.79756800   -2.47303500
 C                 -2.37952900    2.95216800   -1.52662700
 C                 -2.60615200    2.00267200   -0.53099700
 C                 -2.59151200    1.00706300    3.08407500
 C                 -3.42098700    1.68112300    3.97569000
 C                 -4.80132400    1.66122600    3.79370300
 C                 -5.34747800    0.96745800    2.71684300
 C                 -4.51761200    0.30300900    1.81706200
 C                 -3.83113200   -1.31961700   -1.20743000
 C                 -4.65431300   -2.27788900   -1.79212100
 C                 -4.75579600   -3.56606700   -1.28080800
 C                 -4.00128500   -3.88410400   -0.15600100
 C                 -3.16095400   -2.95420300    0.44302900
 H                 -0.19455600   -0.22028500   -1.43689400
 Cl                 0.68253900    1.42246100   -3.57447700
 H                 -1.19536400    3.55494700   -3.22727800
 Cl                -3.37148900    4.37969800   -1.58432800
 H                 -3.38409900    2.17612700    0.20547000
 H                 -1.51672300    1.00339500    3.24406800
 H                 -2.98759200    2.21602500    4.81469100
 H                 -5.45023800    2.18098100    4.49130200
 H                 -6.42295100    0.94312300    2.57285600
 H                 -4.95664700   -0.22771400    0.97748500
 H                 -3.78348300   -0.32373800   -1.63568500
 Cl                -5.58461600   -1.85523300   -3.20040800
 H                 -5.39673100   -4.30321100   -1.74958300
 Cl                -4.10135000   -5.49199900    0.49893200
 H                 -2.55437500   -3.23546400    1.29940400
 P                  1.90443900    0.03072900    1.36062300
 C                  1.62017200    1.67076000    0.54915400
 C                  3.18988000   -0.73759200    0.29044600
 C                  2.88926400    0.63699100    2.79813000
 C                  0.56010200    2.41689300    1.07352800
 C                  0.28765900    3.67927200    0.56974800
 C                  1.03162500    4.22101900   -0.47557100
 C                  2.07905000    3.46533300   -0.98582000
 C                  2.39168600    2.20335000   -0.48366100
 C                  4.34021100   -1.31811300    0.83055400
 C                  5.19283900   -2.04370400    0.00372200
 C                  4.93971800   -2.20667500   -1.35229400
 C                  3.78970200   -1.62078400   -1.87309400
 C                  2.91349100   -0.90031700   -1.07255100
 C                  2.38014100    0.45389900    4.08471700
 C                  3.06621800    0.94287900    5.19653500
 C                  4.26865900    1.61923100    5.02542700
 C                  4.78098900    1.81724600    3.74221900
 C                  4.09297000    1.33557600    2.63540200
 H                 -0.05966200    2.00832900    1.86679100
 Cl                -1.02087300    4.60289300    1.24825000
 H                  0.79972800    5.20069700   -0.87691100
 Cl                 3.02885000    4.11890800   -2.28900800
 H                  3.22596300    1.65698000   -0.91024900
 H                  4.57878900   -1.21679400    1.88421300
 Cl                 6.62038100   -2.76712000    0.68800700
 H                  5.61223700   -2.77486700   -1.98349000
 Cl                 3.43920500   -1.80300400   -3.56493900
 H                  2.02517500   -0.46308200   -1.52089800
 H                  1.43607500   -0.06850400    4.21123400
 H                  2.66006700    0.79249600    6.19176100
 H                  4.80737900    1.99790200    5.88819900
 H                  5.71492800    2.35312200    3.60591400
 H                  4.49114600    1.50183800    1.63711800
 Rh                -0.01047800   -1.44192600    1.55903200
 C                  0.24182400   -2.47825600   -0.01836500
 O                  0.40599500   -3.08994700   -0.97384400
 H                 -0.37084600   -0.87365800    3.05908800
 C                 -0.18336500   -2.37038000    3.65339600
 C                  0.64353100   -3.12361200    2.78983500
 C                  2.12970200   -3.18659300    3.01133400
 O                  2.48310300   -4.19249700    3.98307100
 C                  2.44306100   -5.46166000    3.53610500
 C                  2.85254400   -6.42809100    4.61677400
 O                  2.12032600   -5.76352600    2.41393800
 H                  0.27732500   -1.89662400    4.51940100
 H                 -1.21592900   -2.66676000    3.81088600
 H                  0.21464900   -4.00155100    2.31426300
 H                  2.50196200   -2.25116700    3.43769300
 H                  2.65860800   -3.40280700    2.07911300
 H                  2.18192900   -6.32722600    5.47384600
 H                  3.86366800   -6.19317700    4.95824400
 H                  2.81316200   -7.44351500    4.22598500

