87

 P                  1.96549800   -0.51870000    0.64356100
 C                  2.00178500   -1.67113400   -0.80299900
 C                  3.35276000   -1.25292000    1.61480700
 C                  2.72465700    1.01109700   -0.04551200
 C                  0.87354300   -2.44313000   -1.06245400
 C                  0.88583400   -3.32016700   -2.13930100
 C                  1.98770600   -3.46763500   -2.96298600
 C                  3.10790700   -2.70223900   -2.66224600
 C                  3.14319300   -1.81402300   -1.60106300
 C                  4.68867200   -0.86398500    1.47530600
 C                  5.68840100   -1.50685800    2.20222200
 C                  5.36841100   -2.55184300    3.06401300
 C                  4.04202500   -2.95637000    3.19662100
 C                  3.04152600   -2.30695200    2.48063700
 C                  3.23009900    1.96154600    0.84940200
 C                  3.67591700    3.17783400    0.35737900
 C                  3.62962600    3.50448800   -0.99167300
 C                  3.11984400    2.54410600   -1.84840700
 C                  2.67821300    1.30383800   -1.40972900
 H                 -0.01265200   -2.35691600   -0.44579000
 F                 -0.20933400   -4.04816900   -2.39098000
 H                  1.98216900   -4.15293300   -3.80138800
 F                  4.19254700   -2.83422400   -3.43553500
 H                  4.04984700   -1.24681100   -1.41586100
 H                  4.95625000   -0.05439400    0.80305600
 H                  6.72043600   -1.18948100    2.09027400
 H                  6.14947200   -3.05063900    3.62890400
 H                  3.78473600   -3.77471700    3.86179600
 H                  2.00728900   -2.62236800    2.58580600
 H                  3.27532900    1.77473200    1.91832000
 F                  4.16771700    4.07963900    1.21204600
 H                  3.97293400    4.46571300   -1.35271500
 F                  3.04734500    2.81827400   -3.15808100
 H                  2.29831600    0.59497700   -2.13525800
 P                 -1.87812300   -0.06846000    0.21603000
 C                 -2.78688200    1.53879600    0.12510100
 C                 -3.26251100   -1.26262400    0.48245100
 C                 -1.48612500   -0.32378600   -1.56327700
 C                 -2.81951500    2.36365100    1.25285500
 C                 -3.53477600    3.55368700    1.19205000
 C                 -4.21027400    3.96199600    0.05300700
 C                 -4.15291000    3.12287800   -1.05042300
 C                 -3.45995200    1.92284100   -1.04149100
 C                 -4.60875700   -0.89369000    0.49252600
 C                 -5.56625900   -1.85695800    0.78422900
 C                 -5.24680000   -3.17793400    1.05563300
 C                 -3.90122400   -3.51586600    1.02662500
 C                 -2.90645300   -2.58932100    0.75838400
 C                 -0.52206300    0.53268900   -2.11136500
 C                 -0.07849400    0.35775800   -3.41639600
 C                 -0.57993300   -0.69305700   -4.18671200
 C                 -1.54312300   -1.54203600   -3.65251500
 C                 -2.00380400   -1.35469900   -2.34821000
 H                 -2.31140100    2.11386100    2.17912500
 F                 -3.56935500    4.34250100    2.26766100
 H                 -4.75335800    4.89834200    0.02304600
 F                 -4.79667500    3.49090100   -2.16481500
 H                 -3.45126700    1.30959500   -1.93641800
 H                 -4.93018200    0.12179700    0.29031200
 F                 -6.85390000   -1.49758000    0.80444500
 H                 -6.01072000   -3.91041800    1.28388900
 F                 -3.55404700   -4.78095800    1.28881100
 H                 -1.86751600   -2.90453500    0.78870600
 H                 -0.10919600    1.33467700   -1.50088300
 H                  0.66483000    1.03593600   -3.82768300
 H                 -0.22165900   -0.84363500   -5.20008600
 H                 -1.93640600   -2.36230100   -4.24466800
 H                 -2.75197800   -2.03001400   -1.94391900
 Rh                -0.03740800   -0.16832400    1.78657800
 C                  0.31749300    1.68080100    2.11664700
 O                  0.50605200    2.79705600    2.29978000
 H                 -0.12961100   -1.80930800    1.97870900
 C                 -0.44633300   -1.60614800    3.51422500
 C                 -1.16515500   -0.38644500    3.63806200
 C                 -2.67669500   -0.40584700    3.61719500
 O                 -3.20315500   -0.17025700    4.93722800
 C                 -3.18625500    1.11784300    5.32133100
 C                 -3.76013200    1.28356600    6.70313200
 O                 -2.75953800    2.01317200    4.63100200
 H                 -1.02489300   -2.52728000    3.43435100
 H                  0.50389100   -1.72373800    4.02558500
 H                 -0.74069100    0.38194800    4.27836700
 H                 -3.05346400   -1.39084400    3.33056200
 H                 -3.10914900    0.34349900    2.95193900
 H                 -3.16488900    0.70969300    7.41798100
 H                 -4.77903200    0.88981700    6.72987000
 H                 -3.75480900    2.33863500    6.97151400

