95

 P                 -2.05233600    0.27194700   -0.59262300
 C                 -3.05495300    1.23014900   -1.81414500
 C                 -3.32165000   -0.40076300    0.56199000
 C                 -1.59403400   -1.26741400   -1.50194900
 C                 -4.45038200    1.22684700   -1.82266700
 C                 -5.13592000    2.00360800   -2.76072500
 C                 -4.45142900    2.78208300   -3.68568200
 C                 -3.05872000    2.79415400   -3.66522000
 C                 -2.35661800    2.02600200   -2.72889000
 C                 -3.29424200    0.02368800    1.89190800
 C                 -4.22727600   -0.45587600    2.81174200
 C                 -5.19085000   -1.37394500    2.40928700
 C                 -5.21832900   -1.81923600    1.08655600
 C                 -4.28881300   -1.33911500    0.17086300
 C                 -1.43807500   -2.44079200   -0.75621800
 C                 -0.83604600   -3.54850100   -1.34156900
 C                 -0.39247100   -3.52882600   -2.65801000
 C                 -0.56937000   -2.36003100   -3.39237500
 C                 -1.16663100   -1.22996600   -2.82821100
 H                 -5.01415200    0.64276500   -1.10235600
 O                 -6.49438900    2.03809400   -2.80697200
 H                 -4.99317700    3.39006600   -4.40031400
 O                 -2.44081900    3.58395100   -4.57296300
 H                 -1.26948700    2.05478400   -2.71149500
 H                 -2.52135800    0.71906200    2.20788000
 H                 -4.19177900   -0.11758700    3.84249000
 H                 -5.91496100   -1.75243000    3.12408300
 H                 -5.96152200   -2.54578800    0.77233500
 H                 -4.30279700   -1.69889200   -0.85538800
 H                 -1.73628500   -2.47612400    0.28934900
 O                 -0.56893700   -4.68333000   -0.61704100
 H                  0.09212000   -4.39354200   -3.09575600
 O                 -0.10924700   -2.36695000   -4.67413800
 H                 -1.25751600   -0.31779200   -3.41498000
 P                  1.88437900    0.90402400   -0.97757900
 C                  1.65251700    1.10026600   -2.80099200
 C                  2.85320300   -0.66167200   -0.92036600
 C                  3.18587700    2.15512100   -0.61235500
 C                  1.16776400    2.32622700   -3.26328700
 C                  0.87692200    2.48525100   -4.61312200
 C                  1.05991700    1.44696600   -5.51987100
 C                  1.55610500    0.23180100   -5.05129500
 C                  1.85669300    0.05125900   -3.69833800
 C                  4.23390600   -0.65056300   -1.10214200
 C                  4.92231100   -1.86464500   -1.14930100
 C                  4.24348200   -3.07051300   -1.02661100
 C                  2.85854800   -3.07517000   -0.84477800
 C                  2.15456500   -1.86738200   -0.78550800
 C                  3.93478500    2.83592300   -1.57627400
 C                  4.90983900    3.75332000   -1.18514300
 C                  5.15263100    3.99059500    0.16526700
 C                  4.42256000    3.30405100    1.13465900
 C                  3.44631500    2.39502800    0.74180600
 H                  1.00129400    3.16077500   -2.58637000
 O                  0.35358000    3.69484000   -4.99380800
 H                  0.81631300    1.55205300   -6.57291100
 O                  1.70476000   -0.75974600   -5.96923000
 H                  2.23072600   -0.90985800   -3.35448200
 H                  4.79499100    0.27073900   -1.20963900
 O                  6.26903400   -1.80738700   -1.32644000
 H                  4.76448900   -4.02330800   -1.05925100
 O                  2.28573000   -4.29442800   -0.73347800
 H                  1.07590800   -1.85888600   -0.64773300
 H                  3.76409000    2.65050400   -2.63255400
 H                  5.48215200    4.28124400   -1.94184300
 H                  5.90960200    4.70975200    0.46241100
 H                  4.58915200    3.47733000    2.19316400
 H                  2.86576000    1.86268400    1.49190100
 Rh                -0.02627900    1.20162000    0.30942100
 C                  0.35284300   -0.13432800    1.58377700
 O                  0.57169100   -0.99747200    2.31327300
 H                 -0.25993200    2.44824700   -0.73304500
 H                 -6.84797400    1.47539900   -2.10349000
 H                 -0.98588600   -4.60971600    0.25510500
 H                 -1.47918600    3.61291700   -4.42003400
 H                 -0.34915900   -1.53536000   -5.11281100
 H                  0.24542700    3.71513000   -5.95713500
 H                  6.62721600   -2.70635800   -1.33026200
 H                  1.83770200   -1.60257900   -5.50464600
 H                  1.32703300   -4.24181500   -0.58067200
 C                 -0.50038000    3.47297900    0.49566000
 C                 -0.49691200    2.85853500    1.76033600
 C                  0.63466100    3.14267300    2.70414500
 O                  0.96555900    1.96451400    3.45700100
 C                  2.16222700    1.96793500    4.06710300
 C                  2.41712400    0.65714800    4.76247500
 O                  2.92926500    2.90066400    4.02416100
 H                  0.34547400    4.10100500    0.21879300
 H                 -1.44816900    3.75798000    0.04524700
 H                 -1.45837900    2.64815100    2.22164800
 H                  0.35957900    3.91962600    3.42907100
 H                  1.51899900    3.48674100    2.16179500
 H                  2.53768400   -0.12867300    4.01080200
 H                  1.56086900    0.38633800    5.38378700
 H                  3.32060100    0.73718500    5.36501400

