103

 P                  2.13250500   -0.63223200    0.04773300
 C                  1.82046600    1.13469000   -0.32943900
 C                  3.41401200   -1.09546200   -1.19365100
 C                  3.13297600   -0.50774100    1.59299300
 C                  2.53114500    2.19417800    0.24295100
 C                  2.20323800    3.51609800   -0.02869100
 C                  1.11858400    3.83308500   -0.87058800
 C                  0.43899700    2.76601600   -1.49239400
 C                  0.78519100    1.45332000   -1.21598800
 C                  3.67435700   -2.45599600   -1.39320900
 C                  4.65764400   -2.86317400   -2.28929300
 C                  5.38215300   -1.91421300   -3.00832400
 C                  5.12162700   -0.55915400   -2.82451900
 C                  4.14409000   -0.14974300   -1.91908200
 C                  4.52911100   -0.43481200    1.58624700
 C                  5.23489500   -0.28991100    2.78017200
 C                  4.55517200   -0.20621500    3.99143000
 C                  3.16332100   -0.27597400    4.00788700
 C                  2.45957600   -0.43281600    2.81831700
 H                  3.35138700    1.99090800    0.92664800
 H                  2.77250500    4.30576600    0.44920000
 N                  0.72742100    5.14681400   -1.05383100
 H                 -0.37923100    2.95869300   -2.17642200
 H                  0.21917300    0.65082900   -1.68457400
 H                  3.08492900   -3.19077300   -0.84874600
 H                  4.84995300   -3.92157300   -2.43582500
 H                  6.14198800   -2.23117900   -3.71604200
 H                  5.67753100    0.18368500   -3.38850400
 H                  3.94524800    0.90910500   -1.77930500
 H                  5.07095900   -0.49321400    0.64682800
 H                  6.31942800   -0.24297500    2.75973100
 H                  5.10659200   -0.09327700    4.91974300
 H                  2.62482700   -0.21757700    4.94887800
 H                  1.37550600   -0.51408700    2.83539300
 P                 -1.77721800   -0.74903400    0.48529500
 C                 -1.87061300    1.06514000    0.72723000
 C                 -2.91115500   -1.34342800    1.81482900
 C                 -2.75469900   -1.05246100   -1.04119300
 C                 -0.86227800    1.66887600    1.48600400
 C                 -0.81734300    3.03782200    1.68949400
 C                 -1.77973800    3.88115900    1.09714400
 C                 -2.83176400    3.27158900    0.38249100
 C                 -2.87101200    1.89373200    0.21172500
 C                 -2.33893900   -1.91162100    2.95594100
 C                 -3.13680300   -2.32819200    4.02034800
 C                 -4.51890000   -2.18595200    3.94778500
 C                 -5.10015400   -1.62128800    2.81273700
 C                 -4.30176100   -1.20008100    1.75470100
 C                 -3.41772100   -2.27803000   -1.18930600
 C                 -3.96128000   -2.64895600   -2.41550200
 C                 -3.85838600   -1.79882300   -3.51443500
 C                 -3.19888300   -0.57968800   -3.37972500
 C                 -2.64399000   -0.21220200   -2.15607600
 H                 -0.07219400    1.05158500    1.90756600
 H                 -0.00772300    3.45028400    2.27855700
 N                 -1.68941100    5.25524100    1.19525700
 H                 -3.62265800    3.87428000   -0.04922700
 H                 -3.69269400    1.46396400   -0.35504700
 H                 -1.25769100   -2.02621600    3.00186200
 H                 -2.67852600   -2.76866400    4.90070700
 H                 -5.14450200   -2.51611100    4.77137500
 H                 -6.17849600   -1.50976800    2.75274700
 H                 -4.76038800   -0.76625000    0.86980800
 H                 -3.49755900   -2.97068500   -0.35640100
 H                 -4.45288900   -3.61319900   -2.50057800
 H                 -4.28066700   -2.08742900   -4.47192100
 H                 -3.10544000    0.08665900   -4.23203700
 H                 -2.11718500    0.73514000   -2.06946500
 Rh                 0.28665300   -2.04026100    0.10063400
 C                  0.24687200   -2.16221900   -1.81175800
 O                  0.23718100   -2.19170000   -2.96011300
 H                  0.64454400   -2.32564300    1.66566600
 C                  1.68823100    6.20520000   -0.82203600
 H                  2.63055300    6.03110600   -1.35978800
 H                  1.26461700    7.15002300   -1.16615400
 H                  1.92334300    6.31741500    0.24381900
 C                 -0.43513200    5.43371700   -1.86446200
 H                 -1.27281000    4.80705700   -1.54087300
 H                 -0.72200000    6.47716500   -1.71407000
 H                 -0.26663900    5.26722600   -2.93988600
 C                 -0.59838500    5.84420100    1.93656400
 H                 -0.67705800    5.67823200    3.02168300
 H                  0.35342200    5.42742200    1.59057300
 H                 -0.58034700    6.92019100    1.75044900
 C                 -2.82006900    6.07276200    0.81927000
 H                 -3.73223200    5.79726500    1.36695600
 H                 -2.59223700    7.11720100    1.03688700
 H                 -3.03455100    5.99300700   -0.25481800
 C                  0.32521400   -3.90106900    1.37866800
 C                 -0.77263400   -3.87660900    0.46644700
 C                 -0.77819800   -4.77243200   -0.74012000
 O                 -1.22152200   -6.10840800   -0.39491800
 C                 -2.54537700   -6.28428700   -0.30086200
 C                 -2.87573600   -7.70188900    0.09268500
 O                 -3.36349700   -5.41692300   -0.50223300
 H                  1.22421100   -4.45269800    1.11382700
 H                  0.11590600   -3.91308400    2.44641100
 H                 -1.76147900   -3.72697000    0.89896000
 H                  0.23093000   -4.91142400   -1.13460800
 H                 -1.43767700   -4.38991400   -1.52377200
 H                 -2.48126900   -7.90111800    1.09269700
 H                 -2.39817100   -8.40206600   -0.59657500
 H                 -3.95615400   -7.83719900    0.08550000

