103

 P                  1.68245700   -0.50105900   -0.03782300
 C                  1.67269000    1.32805800   -0.20878300
 C                  3.30333000   -0.94691200   -0.79074900
 C                  2.07468500   -0.74464700    1.75043200
 C                  2.34825400    2.19981500    0.64983700
 C                  2.33172600    3.57464600    0.45288000
 C                  1.63133500    4.14337600   -0.63093900
 C                  0.95485900    3.26416400   -1.50074200
 C                  0.96980500    1.89594600   -1.27838600
 C                  3.86168000   -2.19854700   -0.49397200
 C                  5.03477000   -2.61848300   -1.11202600
 C                  5.66430500   -1.79737300   -2.04674500
 C                  5.11413900   -0.55634500   -2.35260400
 C                  3.94211000   -0.13146500   -1.72840300
 C                  3.35301800   -0.55634100    2.29392000
 C                  3.57469600   -0.73378700    3.65658300
 C                  2.52557000   -1.10565000    4.49708900
 C                  1.25528900   -1.30905900    3.96710700
 C                  1.03771300   -1.13584000    2.60144500
 H                  2.89589600    1.80907700    1.50206100
 H                  2.87090000    4.20677800    1.14929300
 N                  1.60013500    5.51072500   -0.82002000
 H                  0.39008900    3.64689100   -2.34212700
 H                  0.41010300    1.25232300   -1.95091200
 H                  3.37593200   -2.84273600    0.23751900
 H                  5.45701600   -3.58797400   -0.86530700
 H                  6.57847900   -2.12468400   -2.53202700
 H                  5.60027100    0.09046600   -3.07680000
 H                  3.52561900    0.84301700   -1.96741100
 H                  4.17986300   -0.27945500    1.64480400
 H                  4.57075900   -0.58598700    4.06310100
 H                  2.70410100   -1.24690800    5.55872800
 H                  0.43019100   -1.61659400    4.60292800
 H                  0.05304400   -1.32687400    2.18807900
 P                 -2.09894600   -0.85357700    0.07045900
 C                 -2.10057800    0.97081000    0.21632700
 C                 -2.45987800   -1.41330800    1.79774100
 C                 -3.73766500   -1.18527900   -0.71723000
 C                 -1.28568600    1.59340700    1.16962100
 C                 -1.12513800    2.96879800    1.20476100
 C                 -1.74594300    3.79168900    0.24460500
 C                 -2.58256800    3.16960800   -0.69989900
 C                 -2.74436500    1.78934900   -0.71426400
 C                 -2.16620800   -2.73693200    2.14473000
 C                 -2.44791300   -3.22031800    3.41916000
 C                 -3.02124400   -2.38094200    4.37185900
 C                 -3.31746200   -1.06140200    4.03827900
 C                 -3.04385900   -0.58112400    2.75924700
 C                 -4.91472300   -0.62647400   -0.20236700
 C                 -6.14332300   -0.90576100   -0.78796200
 C                 -6.21360100   -1.75265500   -1.89513700
 C                 -5.05176200   -2.31485900   -2.41085700
 C                 -3.81810700   -2.03146900   -1.82336800
 H                 -0.75384900    0.99305500    1.90617200
 H                 -0.48029500    3.39198400    1.96436100
 N                 -1.51555700    5.16195200    0.20664900
 H                 -3.10458400    3.75758000   -1.44516200
 H                 -3.38746700    1.34890600   -1.47176400
 H                 -1.69132100   -3.40418300    1.43172700
 H                 -2.20537300   -4.25156900    3.65613800
 H                 -3.23365300   -2.75112900    5.37029100
 H                 -3.76146500   -0.39933000    4.77557500
 H                 -3.27078800    0.45294500    2.51660400
 H                 -4.86599200    0.03490400    0.65904500
 H                 -7.04842000   -0.46537000   -0.38099800
 H                 -7.17433500   -1.97114400   -2.35127700
 H                 -5.09934900   -2.97342800   -3.27266400
 H                 -2.90400200   -2.46456600   -2.22102000
 Rh                -0.23045900   -1.72399500   -1.01791900
 C                 -0.68165000   -0.94345400   -2.68196000
 O                 -0.97858200   -0.48336500   -3.69608100
 H                 -0.08391200   -2.78735300    0.21689700
 C                  2.50258000    6.35106400   -0.06651400
 H                  3.55155000    6.04544300   -0.18600700
 H                  2.40353600    7.38086500   -0.41220200
 H                  2.26725400    6.33479500    1.00627400
 C                  0.91456900    6.05125400   -1.97197200
 H                 -0.12622700    5.71136500   -1.98214500
 H                  0.91297100    7.14081400   -1.90690800
 H                  1.38628500    5.75966900   -2.92218200
 C                 -0.79239100    5.77106400    1.30321900
 H                 -1.34055500    5.72724700    2.25776200
 H                  0.17480800    5.27688600    1.43190100
 H                 -0.59572500    6.81737700    1.05744500
 C                 -2.46901300    5.99701100   -0.49592100
 H                 -3.49503200    5.88392100   -0.11424700
 H                 -2.16972100    7.04125000   -0.38856700
 H                 -2.47880700    5.76740900   -1.56677400
 C                  0.89046600   -3.32521800   -1.94263700
 C                  0.20257000   -3.93726000   -0.85739200
 C                 -1.07860900   -4.70530300   -1.09966000
 O                 -0.87165200   -6.12072100   -0.91621700
 C                 -0.84765600   -6.52718400    0.36201500
 C                 -0.64247000   -8.01617300    0.45690800
 O                 -0.97477400   -5.78137300    1.30554000
 H                  0.49462800   -3.47932700   -2.94310900
 H                  1.96745100   -3.19229700   -1.89052100
 H                  0.80051400   -4.34674000   -0.04254600
 H                 -1.39470100   -4.58858000   -2.13845700
 H                 -1.89108100   -4.39405000   -0.44038800
 H                  0.30127500   -8.28738500   -0.02285000
 H                 -1.44409400   -8.53331800   -0.07609500
 H                 -0.63176800   -8.31420400    1.50402200

