99

 P                 -1.99661800    0.16936900   -0.39248800
 C                 -1.88348000    0.54090600    1.41123400
 C                 -3.05052700   -1.32369200   -0.51004900
 C                 -3.14618700    1.52600200   -0.88722700
 C                 -0.90719300    1.47246600    1.76494500
 C                 -0.71571800    1.83997900    3.09466900
 C                 -1.50085500    1.26406300    4.09695200
 C                 -2.48499000    0.34326600    3.75619400
 C                 -2.68067100   -0.01133800    2.41980500
 C                 -2.78675600   -2.43427200    0.30014300
 C                 -3.42858400   -3.64783000    0.06096000
 C                 -4.31900000   -3.78238400   -1.00779900
 C                 -4.56139400   -2.69359900   -1.83394700
 C                 -3.93638100   -1.47042100   -1.58413100
 C                 -4.48762400    1.54500800   -0.50594000
 C                 -5.30132600    2.62133300   -0.85985000
 C                 -4.78069000    3.68864200   -1.59412500
 C                 -3.44300800    3.68254600   -1.97146500
 C                 -2.63329000    2.60353800   -1.61923800
 H                 -0.27392000    1.91356600    0.99822600
 C                  0.34403100    2.81076400    3.44194500
 H                 -1.33880000    1.54135400    5.13619900
 H                 -3.10737800   -0.10283300    4.52521000
 H                 -3.45567400   -0.72946200    2.16866600
 H                 -2.07055500   -2.37640200    1.11925600
 C                 -3.14153300   -4.80572900    0.94649500
 H                 -4.79245200   -4.74519100   -1.17240800
 H                 -5.22672100   -2.77737600   -2.68697100
 H                 -4.13211600   -0.64172900   -2.25825700
 H                 -4.92661600    0.72994200    0.06514100
 C                 -6.72660100    2.63294800   -0.44432600
 H                 -5.42672200    4.52073400   -1.86424100
 H                 -3.02874300    4.50997700   -2.53815300
 H                 -1.58447400    2.59181000   -1.90724700
 P                  1.93078300   -0.13476800   -0.61121600
 C                  1.85189700   -0.25797100    1.22955100
 C                  2.88664700    1.41279400   -0.88850000
 C                  3.19892300   -1.42167700   -0.99626500
 C                  0.91442100   -1.14270700    1.76678100
 C                  0.79351400   -1.29439300    3.14790800
 C                  1.61048900   -0.55856700    4.00915000
 C                  2.55079500    0.32000800    3.48582300
 C                  2.66995100    0.46837300    2.10358100
 C                  2.46427200    2.60469100   -0.28715900
 C                  3.11278600    3.80433100   -0.56775100
 C                  4.18393800    3.83813600   -1.46601000
 C                  4.60677400    2.66181500   -2.06556900
 C                  3.96575100    1.45422900   -1.77469800
 C                  4.21948800   -1.74880400   -0.10506800
 C                  5.18018300   -2.69901900   -0.45562100
 C                  5.13292400   -3.32454600   -1.70147800
 C                  4.12284900   -2.99887300   -2.60033700
 C                  3.16040000   -2.05583900   -2.24577700
 H                  0.25330500   -1.71243700    1.11627000
 C                 -0.22548800   -2.20841800    3.71032900
 H                  1.50237800   -0.67652400    5.08511100
 H                  3.19261700    0.89605400    4.14435700
 H                  3.40500600    1.16341900    1.70842000
 H                  1.64768100    2.61069700    0.43298000
 C                  2.66097400    5.05481900    0.09829400
 H                  4.66451300    4.79042500   -1.66707800
 H                  5.44177500    2.66995100   -2.75883100
 H                  4.31540100    0.54023400   -2.24601900
 H                  4.29310100   -1.28650200    0.87575500
 C                  6.25666900   -3.04080100    0.50780200
 H                  5.88516100   -4.06595700   -1.96066700
 H                  4.07524200   -3.48208400   -3.57059700
 H                  2.36042800   -1.80197800   -2.93764600
 Rh                -0.06021400   -0.28658700   -1.77929300
 C                 -0.10706700   -2.20640800   -1.71196700
 O                 -0.12955000   -3.34962000   -1.61581700
 H                  0.24306900    1.25126100   -2.24592400
 O                  1.07783900    3.33838500    2.63489300
 H                  0.44101800    3.04026400    4.52286700
 O                 -7.24729500    1.76078000    0.20852000
 H                 -7.30544200    3.51998700   -0.77692200
 O                 -3.64891700   -5.89508300    0.80858500
 H                 -2.42009000   -4.60416900    1.76289900
 O                 -1.00320700   -2.85837500    3.04839700
 H                 -0.24257300   -2.26939400    4.81780000
 O                  3.14397900    6.13992600   -0.12932600
 H                  1.84323100    4.92817300    0.83348600
 O                  6.37089300   -2.53668900    1.59936300
 H                  6.97567800   -3.80984700    0.15617600
 C                 -0.20051900    0.83400200   -3.73876400
 C                 -1.28350500   -0.07553100   -3.53873000
 C                 -1.36967400   -1.35317500   -4.32717800
 O                 -1.93356500   -1.11976600   -5.63781400
 C                 -3.26799600   -0.99217500   -5.68915900
 C                 -3.73556800   -0.75848900   -7.10218300
 O                 -3.98962600   -1.05711900   -4.72155700
 H                  0.64888200    0.52100600   -4.34129700
 H                 -0.41900200    1.89608700   -3.83097600
 H                 -2.25923300    0.36544300   -3.33610400
 H                 -1.99019700   -2.09574400   -3.81773200
 H                 -0.37737700   -1.76581300   -4.52363100
 H                 -3.29906500    0.16860700   -7.48269400
 H                 -4.82235200   -0.69466500   -7.11776700
 H                 -3.39355300   -1.57276300   -7.74541800