99

 P                 -2.24333300   -0.65969200   -0.39725700
 C                 -2.06000600    0.15300900    1.25067100
 C                 -3.07497000   -2.22103300    0.09024100
 C                 -3.59898200    0.30948400   -1.17295000
 C                 -1.20480500    1.25024600    1.34872700
 C                 -1.00161500    1.88757400    2.57219300
 C                 -1.65034000    1.42568300    3.71906600
 C                 -2.50231800    0.33133700    3.63406700
 C                 -2.70634000   -0.30109000    2.40713900
 C                 -2.26896800   -3.25980800    0.56390500
 C                 -2.83808900   -4.41351600    1.09304100
 C                 -4.22633300   -4.56557000    1.11718500
 C                 -5.03538800   -3.55025900    0.62494400
 C                 -4.46426900   -2.37649200    0.12788700
 C                 -4.02219200    1.54284500   -0.69332600
 C                 -4.93032800    2.30725600   -1.43773700
 C                 -5.42519100    1.83630300   -2.64944900
 C                 -5.02906500    0.58452000   -3.12046900
 C                 -4.12058300   -0.16708000   -2.38938700
 H                 -0.67302800    1.61125500    0.47148400
 C                 -0.06663800    3.03016800    2.66120200
 H                 -1.47849200    1.92114100    4.67202400
 H                 -3.00962700   -0.03917700    4.51906000
 H                 -3.36221200   -1.16502100    2.36103400
 H                 -1.18520300   -3.16697900    0.53865500
 C                 -1.95986500   -5.47365500    1.65262300
 H                 -4.64191500   -5.47984000    1.52932800
 H                 -6.11535000   -3.65686800    0.63823300
 H                 -5.10783000   -1.57449300   -0.22190900
 H                 -3.65666500    1.95187700    0.24434400
 C                 -5.35295300    3.63548600   -0.93012200
 H                 -6.10553500    2.45074300   -3.23349400
 H                 -5.39386900    0.22179100   -4.07476500
 H                 -3.77579300   -1.12462900   -2.77600300
 P                  1.71119800   -0.46081500   -0.63264400
 C                  1.70196100   -0.27244400    1.19909000
 C                  2.62675200    1.01821500   -1.22232000
 C                  2.98829000   -1.77905800   -0.82753500
 C                  0.87187100   -1.16228000    1.88080600
 C                  0.74861100   -1.11370600    3.26578900
 C                  1.45856200   -0.15619700    3.99441400
 C                  2.29474200    0.73297400    3.32848300
 C                  2.41803600    0.67544100    1.93808200
 C                  2.14929900    2.29140600   -0.88066700
 C                  2.73111600    3.43410900   -1.42368600
 C                  3.78270800    3.32739400   -2.33972300
 C                  4.25377500    2.07184600   -2.69173700
 C                  3.68414500    0.92405200   -2.13268600
 C                  4.13130600   -1.81708500   -0.02861600
 C                  5.08865900   -2.81354200   -0.21928800
 C                  4.91388400   -3.77819800   -1.21345400
 C                  3.78064400   -3.74559700   -2.01764000
 C                  2.82255900   -2.75102900   -1.82179600
 H                  0.28610400   -1.89602400    1.33324200
 C                 -0.16908000   -2.06221700    3.94003100
 H                  1.35127300   -0.11048400    5.07592900
 H                  2.85657900    1.47671500    3.88459700
 H                  3.06987100    1.38210600    1.43233400
 H                  1.33249600    2.40840600   -0.16885500
 C                  2.22502000    4.77512200   -1.02571600
 H                  4.20803900    4.23692300   -2.75192000
 H                  5.07147500    1.97252100   -3.39845400
 H                  4.07377000   -0.05173200   -2.40977900
 H                  4.30110300   -1.08327100    0.75585200
 C                  6.29784600   -2.84470700    0.64144000
 H                  5.66587700   -4.55192700   -1.35005500
 H                  3.63415300   -4.49259600   -2.79075000
 H                  1.93097400   -2.72576500   -2.44258700
 Rh                -0.41400900   -0.74440900   -1.78354200
 C                 -0.71177300   -2.54768000   -2.27855500
 O                 -0.91106900   -3.63889900   -2.58281000
 H                 -0.46672100    0.89999400   -1.70552400
 O                  0.56840000    3.46674100    1.72675900
 H                  0.03214500    3.48393700    3.66824500
 O                 -4.97390400    4.11337200    0.11297600
 H                 -6.06123100    4.18434100   -1.58515600
 O                 -2.37488500   -6.50877200    2.11645100
 H                 -0.87542200   -5.24742400    1.62360100
 O                 -0.79926200   -2.91934600    3.36216600
 H                 -0.25374400   -1.94089600    5.03979100
 O                  2.65287900    5.80827000   -1.48622800
 H                  1.42210600    4.76950900   -0.26376300
 O                  6.52484600   -2.04435900    1.51691000
 H                  7.00607000   -3.67220000    0.42702900
 C                  0.46114400   -0.20656100   -3.72527600
 C                 -0.23163100    0.96127300   -3.33462000
 C                 -1.58656400    1.28485500   -3.90575000
 O                 -1.36510400    2.14592400   -5.03618100
 C                 -2.47245600    2.51050300   -5.70281100
 C                 -2.13788200    3.43226500   -6.84634000
 O                 -3.58111000    2.13552200   -5.40576100
 H                 -0.00469200   -0.85982900   -4.45863600
 H                  1.54797000   -0.19335100   -3.73080000
 H                  0.37208200    1.83822600   -3.09604200
 H                 -2.23684200    1.80356800   -3.19356400
 H                 -2.10204400    0.37647000   -4.23264800
 H                 -1.65369900    4.33365400   -6.46222100
 H                 -3.05090400    3.69427100   -7.37846600
 H                 -1.43322300    2.94187600   -7.52233300

