87

 P                 -2.43922000    0.06642500   -0.17082000
 C                 -1.86557000    1.82080200   -0.16074000
 C                 -3.38894900   -0.00997200    1.40399300
 C                 -3.78174900    0.11698300   -1.43101900
 C                 -0.98831800    2.20825700   -1.17994000
 C                 -0.46691800    3.49264000   -1.18777200
 C                 -0.80269000    4.41785400   -0.20178300
 C                 -1.69185500    4.03644200    0.79503900
 C                 -2.22107500    2.74553300    0.82261100
 C                 -4.76872000    0.20000400    1.45946600
 C                 -5.41404600    0.17019100    2.69221800
 C                 -4.71661900   -0.05152100    3.87397300
 C                 -3.34065600   -0.25536200    3.81315900
 C                 -2.68171500   -0.24279200    2.58884300
 C                 -4.36981600    1.31122100   -1.85448300
 C                 -5.39863000    1.26868000   -2.79052300
 C                 -5.86266400    0.06318500   -3.30571600
 C                 -5.27688700   -1.12366000   -2.87306800
 C                 -4.23767800   -1.10015000   -1.94806500
 H                 -0.70390900    1.49920400   -1.95198000
 Cl                 0.64860400    3.95432200   -2.44854900
 H                 -0.37153600    5.41267600   -0.22291900
 H                 -1.96238000    4.74443800    1.57149400
 H                 -2.90027100    2.46505100    1.62110200
 H                 -5.34676600    0.38608900    0.56033200
 Cl                -7.13731300    0.42335800    2.75253100
 H                 -5.24620100   -0.06838600    4.81989500
 H                 -2.78244400   -0.43394300    4.72619800
 H                 -1.61108200   -0.42333900    2.55165700
 H                 -4.03819200    2.26903200   -1.46544400
 Cl                -6.12283300    2.76111800   -3.32452600
 H                 -6.66624800    0.06085800   -4.03370600
 H                 -5.63152400   -2.07021900   -3.26820400
 H                 -3.76457600   -2.02233300   -1.61890500
 P                  1.43479300   -0.67928400   -0.26352500
 C                  2.56397000   -1.71053700    0.76542000
 C                  1.75394200    1.00715700    0.40026100
 C                  2.31511700   -0.67964700   -1.88016600
 C                  3.71390700   -1.18189200    1.36085700
 C                  4.56476900   -2.02560700    2.06339400
 C                  4.31209200   -3.39051400    2.17252000
 C                  3.17229600   -3.91202900    1.57056200
 C                  2.29279100   -3.07726400    0.88446300
 C                  0.98935900    1.37156600    1.51436700
 C                  1.16763700    2.61729200    2.09666000
 C                  2.07798000    3.53432300    1.57666900
 C                  2.83301800    3.17159000    0.46709200
 C                  2.68315200    1.91343400   -0.11577600
 C                  3.15152400   -1.73533200   -2.25234400
 C                  3.63380500   -1.80009600   -3.55772200
 C                  3.32056400   -0.83071800   -4.50188800
 C                  2.49669200    0.22806700   -4.12274500
 C                  1.98840800    0.29798500   -2.83132200
 H                  3.94997400   -0.12506300    1.28455500
 Cl                 5.99086500   -1.35845200    2.81526200
 H                  5.00137100   -4.02480700    2.71880000
 H                  2.96170800   -4.97475300    1.62660300
 H                  1.40876100   -3.50595600    0.42351500
 H                  0.24987300    0.68510800    1.91744900
 Cl                 0.22441200    3.04503200    3.49941000
 H                  2.18903800    4.50870500    2.03957100
 H                  3.54761400    3.87521300    0.05243700
 H                  3.29032700    1.64486600   -0.97434400
 H                  3.42728900   -2.51116800   -1.54377200
 Cl                 4.65613700   -3.13685200   -4.01415600
 H                  3.71492800   -0.90551400   -5.50895300
 H                  2.24629000    1.00014300   -4.84349600
 H                  1.34603100    1.12958600   -2.55413800
 Rh                -0.84652300   -1.51952700   -0.57169600
 C                 -1.28232700   -2.60859100    0.92672400
 O                 -1.55133000   -3.26660100    1.82922100
 H                 -0.78837400   -0.77414900   -2.02485700
 C                 -0.64554500   -2.30257400   -2.73328400
 C                 -0.09220500   -3.19350300   -1.79143400
 C                 -0.78321400   -4.48332400   -1.43409300
 O                 -0.30123100   -5.54937100   -2.27903200
 C                  0.90003000   -6.04410400   -1.93561700
 C                  1.35401600   -7.10132100   -2.90601900
 O                  1.53130500   -5.66417900   -0.97651900
 H                 -1.64532600   -2.47402800   -3.12517300
 H                  0.02663000   -1.77691900   -3.40857200
 H                  0.99330800   -3.25711200   -1.75100900
 H                 -1.85742600   -4.42340300   -1.62334500
 H                 -0.60993800   -4.78153800   -0.39844800
 H                  1.61799600   -6.62224400   -3.85337400
 H                  0.54666700   -7.80925300   -3.10290100
 H                  2.22634000   -7.61212900   -2.50138900

