87

 P                 -2.24553800   -0.40499900    0.28974500
 C                 -1.96354300    1.38410900   -0.05661300
 C                 -3.13189700   -0.32518000    1.89987800
 C                 -3.60087100   -0.80784700   -0.88973800
 C                 -1.20134300    1.69693300   -1.18832800
 C                 -0.89801400    3.02081500   -1.46572700
 C                 -1.33942100    4.05483800   -0.64250900
 C                 -2.11235600    3.74031100    0.46766200
 C                 -2.42486600    2.41325600    0.76484000
 C                 -4.52606600   -0.28171900    1.97890800
 C                 -5.13498300   -0.17192500    3.22514300
 C                 -4.38839400   -0.09152300    4.39538900
 C                 -2.99948100   -0.12935000    4.30986900
 C                 -2.37424200   -0.25290300    3.07366100
 C                 -4.30744700    0.17321000   -1.58905600
 C                 -5.30564600   -0.21284100   -2.47888300
 C                 -5.62004800   -1.55101500   -2.68401700
 C                 -4.92169800   -2.52288400   -1.97216200
 C                 -3.91883600   -2.15698600   -1.08118300
 H                 -0.83793200    0.90260200   -1.83543500
 Cl                 0.07192800    3.40446600   -2.86614400
 H                 -1.07748000    5.08106100   -0.87546100
 H                 -2.46184800    4.53365500    1.12030400
 H                 -3.01667000    2.18943000    1.64633000
 H                 -5.14087400   -0.33059300    1.08597800
 Cl                -6.87469000   -0.12826200    3.31795000
 H                 -4.89066400   -0.00564100    5.35245000
 H                 -2.40308500   -0.07052600    5.21431700
 H                 -1.29018000   -0.29936800    3.02221000
 H                 -4.09027600    1.22788100   -1.45379300
 Cl                -6.17769700    1.01492400   -3.35747800
 H                 -6.39405400   -1.82216200   -3.39308400
 H                 -5.15188700   -3.57124200   -2.12940900
 H                 -3.36555700   -2.91501700   -0.53276500
 P                  1.65971100   -0.61603900   -0.03177100
 C                  3.01874100   -1.25051300    1.04816500
 C                  1.71306300    1.18215200    0.37661500
 C                  2.46906400   -0.69424600   -1.68215800
 C                  4.27967400   -0.64400700    1.06065200
 C                  5.28610800   -1.17700000    1.85420900
 C                  5.07145700   -2.30903600    2.63726100
 C                  3.81883000   -2.91026500    2.61836300
 C                  2.79443600   -2.38464200    1.83108600
 C                  0.93900700    1.57044700    1.47518300
 C                  0.91928400    2.89863000    1.87281400
 C                  1.64051900    3.87021700    1.18340100
 C                  2.40802900    3.48274100    0.09091300
 C                  2.45411400    2.14761500   -0.30942800
 C                  3.42979200   -1.66960900   -1.96294100
 C                  3.86819600   -1.84348000   -3.27377300
 C                  3.38474900   -1.05940700   -4.31464200
 C                  2.44030300   -0.07531100   -4.02667400
 C                  1.97808100    0.09970000   -2.72804900
 H                  4.48023200    0.24061700    0.46370800
 Cl                 6.85296700   -0.41317800    1.87110200
 H                  5.87594300   -2.70277600    3.24849400
 H                  3.63704900   -3.79127300    3.22525600
 H                  1.81552100   -2.85406200    1.82192300
 H                  0.34274600    0.83463300    2.00779300
 Cl                -0.03992400    3.35879100    3.25446000
 H                  1.59706400    4.90561500    1.50296700
 H                  2.97645300    4.22830300   -0.45571400
 H                  3.06481200    1.86717300   -1.16178800
 H                  3.83745000   -2.29799100   -1.17670700
 Cl                 5.05269400   -3.07567500   -3.61247100
 H                  3.74514800   -1.21681800   -5.32489000
 H                  2.05674200    0.55279800   -4.82463100
 H                  1.23649900    0.86668200   -2.52460300
 Rh                -0.44646900   -1.82669200    0.06712200
 C                 -0.61810600   -2.63814800    1.77349900
 O                 -0.72592100   -3.15237400    2.79588800
 H                 -0.64627700   -1.52593500   -1.54047600
 C                  0.32717700   -3.65933400   -0.84841000
 C                 -0.54185100   -3.11833900   -1.82834900
 C                 -0.00864100   -2.77992300   -3.20789200
 O                  0.05982400   -3.97320300   -4.00295200
 C                 -1.11300300   -4.42158800   -4.48829900
 C                 -0.91170300   -5.66693900   -5.31088200
 O                 -2.17289500   -3.88371000   -4.27955800
 H                  1.39663000   -3.66080800   -1.05831300
 H                 -0.02428300   -4.47703100   -0.22726800
 H                 -1.57337900   -3.45837500   -1.85257700
 H                  1.01809500   -2.41573400   -3.15610500
 H                 -0.64267400   -2.05119800   -3.72019900
 H                 -0.48546300   -6.45403200   -4.68352400
 H                 -0.20207500   -5.46791200   -6.11744600
 H                 -1.86833600   -5.98904600   -5.71889000

