105

 P                 -1.61193600    1.41777600    0.07396000
 C                 -2.93512800    2.62434900    0.49778900
 C                 -2.05725700   -0.03885300    1.10831900
 C                 -2.10269400    0.86684300   -1.61101900
 C                 -4.16708000    2.23998900    1.03092300
 C                 -5.14254600    3.20307000    1.29448900
 C                 -4.90026100    4.55060400    1.02510200
 C                 -3.67624900    4.93630700    0.49193300
 C                 -2.69708700    3.97885300    0.23538300
 C                 -2.95171000   -1.02099400    0.68274100
 C                 -3.26160900   -2.09654600    1.51780500
 C                 -2.67066200   -2.21199600    2.77661000
 C                 -1.76318900   -1.24450500    3.19681000
 C                 -1.45709800   -0.16942900    2.36788600
 C                 -1.21076900    0.01287000   -2.25838900
 C                 -1.47798700   -0.47813600   -3.53107600
 C                 -2.62570300   -0.06968300   -4.20983300
 C                 -3.52201000    0.78360100   -3.57254000
 C                 -3.27425400    1.23972900   -2.27593700
 H                 -4.37754800    1.19759400    1.24833100
 C                 -6.46777700    2.83806500    1.86651100
 H                 -5.67933900    5.27333800    1.24401000
 H                 -3.47856100    5.98240500    0.28205000
 H                 -1.73019500    4.27277400   -0.16700700
 H                 -3.40782900   -0.97988400   -0.30278400
 C                 -4.15118800   -3.16209400    0.98419200
 H                 -2.90027000   -3.07108200    3.39742300
 H                 -1.27638500   -1.33807100    4.16192800
 H                 -0.72609200    0.56992300    2.68569600
 H                 -0.26676600   -0.25329000   -1.79344200
 C                 -0.49551000   -1.45844100   -4.07314200
 H                 -2.81525200   -0.42795200   -5.21642700
 H                 -4.42622500    1.09586800   -4.08475600
 H                 -3.99113600    1.89676600   -1.79176400
 P                  2.06089400    0.17075500    0.30653500
 C                  3.59705900    0.50674800    1.25781000
 C                  2.68872700   -0.12435100   -1.40274700
 C                  1.57406100   -1.50898800    0.89484300
 C                  3.41035000    0.90279700    2.58539700
 C                  4.46391800    1.42030900    3.33214900
 C                  5.73905200    1.51706700    2.77016700
 C                  5.94866500    1.05998600    1.47587300
 C                  4.88306800    0.56679100    0.71718000
 C                  2.58808200   -1.34307800   -2.06932000
 C                  2.86733000   -1.41424700   -3.43893500
 C                  3.29520900   -0.29347500   -4.14181700
 C                  3.48052400    0.90801200   -3.46101800
 C                  3.15922800    0.99458800   -2.11236000
 C                  0.46661400   -2.12200400    0.29468500
 C                 -0.03247400   -3.32541700    0.78303200
 C                  0.55676500   -3.93667300    1.89127900
 C                  1.66538800   -3.34686100    2.48213300
 C                  2.17267900   -2.14372000    1.98782500
 H                  2.41776500    0.85339200    3.02561100
 C                  4.19944200    2.04030500    4.66104400
 H                  6.53881200    1.96068800    3.35395700
 H                  6.93998700    1.10913600    1.03702600
 H                  5.05658500    0.24949300   -0.30667900
 H                  2.23344500   -2.23448500   -1.56383400
 C                  2.58050600   -2.66116900   -4.19443600
 H                  3.47072000   -0.37140000   -5.20984600
 H                  3.83291900    1.78737800   -3.98977100
 H                  3.24783700    1.95048200   -1.59980400
 H                 -0.02561100   -1.68091600   -0.56450800
 C                 -1.26356000   -3.93298900    0.20363200
 H                  0.13071900   -4.86068100    2.26808400
 H                  2.14375400   -3.81783300    3.33489500
 H                  3.04154600   -1.70192800    2.46504600
 Rh                 0.53972200    2.23450600    0.24699100
 C                  0.61427600    2.72430300   -1.59163100
 O                  0.62540000    3.06782900   -2.68741400
 H                  0.20934100    2.45866500    1.84946400
 O                 -7.34755400    3.62684500    2.11387900
 O                 -6.59887700    1.51605700    2.08495800
 H                 -7.48923400    1.38777700    2.45570200
 O                  0.09295400   -2.23892300   -3.35586300
 O                 -0.30824400   -1.37993800   -5.39104600
 H                  0.44565800   -1.97035900   -5.61324300
 O                 -4.41470700   -3.30652700   -0.19273500
 O                 -4.63728900   -3.96961100    1.93164100
 H                 -5.11199400   -4.68331000    1.47022700
 O                  4.90687300    2.88672900    5.15909800
 O                  3.05606700    1.61260900    5.21193300
 H                  2.79362100    2.26876600    5.89121000
 O                  2.27649600   -2.69343200   -5.37268400
 O                  2.68501600   -3.76413800   -3.45240100
 H                  2.37946700   -4.50498900   -4.00488800
 O                 -1.86330900   -4.85189300    0.71917200
 O                 -1.67353400   -3.32343100   -0.91356400
 H                 -2.58623200   -3.62615300   -1.09521100
 C                  2.07193300    3.64678500    0.81465100
 C                  1.02778300    3.85445600    1.76098200
 C                  1.28439300    3.69307600    3.24422300
 O                  2.15355200    4.76896400    3.64484800
 C                  2.45648100    4.82337800    4.94676000
 C                  3.46683000    5.89142600    5.25141100
 O                  1.98954800    4.06074700    5.76789600
 H                  3.00080700    3.19862500    1.16584500
 H                  2.18632600    4.37323100    0.01614600
 H                  0.31125300    4.64413300    1.54487500
 H                  1.77824700    2.74969400    3.47689200
 H                  0.35894900    3.74755300    3.82540200
 H                  4.45453700    5.42252400    5.19472700
 H                  3.31211000    6.25338800    6.26766700
 H                  3.41413000    6.70676500    4.53012200

