119

 P                 -1.98538200   -0.28656500    1.35552400
 C                 -2.76773400    1.21371200    0.62291300
 C                 -3.04712200   -0.64100800    2.81505600
 C                 -2.52828900   -1.55906900    0.13592400
 C                 -1.97103200    2.33919800    0.43516300
 C                 -2.43619800    3.44830700   -0.30241800
 C                 -3.74378000    3.38885300   -0.82079100
 C                 -4.54961800    2.28017900   -0.58651700
 C                 -4.07711900    1.18424800    0.12676500
 C                 -2.86300500   -1.86603900    3.47288000
 C                 -3.59308600   -2.17260600    4.61446500
 C                 -4.50228400   -1.24884700    5.13223500
 C                 -4.67894300   -0.02545900    4.49604000
 C                 -3.95959400    0.27722400    3.33870300
 C                 -1.65365300   -1.79318400   -0.92403100
 C                 -1.97534800   -2.67734400   -1.96940100
 C                 -3.20552300   -3.35906000   -1.88520700
 C                 -4.06455000   -3.13562200   -0.81557600
 C                 -3.74758200   -2.23685200    0.19999700
 H                 -0.94850700    2.31230900    0.79726500
 N                 -1.63298900    4.54620200   -0.52921600
 H                 -4.13535600    4.21876600   -1.39815100
 H                 -5.55922200    2.26820200   -0.98738100
 H                 -4.70034100    0.30640300    0.26518800
 H                 -2.14185100   -2.58121000    3.08202700
 H                 -3.44704300   -3.12929600    5.10652000
 H                 -5.06618100   -1.48406200    6.02956200
 H                 -5.38221600    0.69949400    4.89458100
 H                 -4.11391500    1.23066300    2.84248900
 H                 -0.68852600   -1.29937000   -0.91041200
 N                 -1.10157300   -2.85972900   -3.03087000
 H                 -3.49038300   -4.07720600   -2.64457200
 H                 -5.00112000   -3.68426200   -0.77337600
 H                 -4.42777400   -2.08016500    1.03174300
 P                  1.88818600    0.46519400    0.23043500
 C                  1.46570400    1.65401900   -1.11907900
 C                  2.78216900   -0.84232100   -0.71576600
 C                  3.25959000    1.38314900    1.04809600
 C                  0.21002100    1.53653800   -1.71369500
 C                 -0.19576100    2.38884000   -2.76179000
 C                  0.72160800    3.36777300   -3.19298900
 C                  1.97544600    3.47470900   -2.60197800
 C                  2.36495900    2.62638000   -1.56988000
 C                  3.15506600   -1.98784000   -0.01029800
 C                  3.83816300   -3.05253400   -0.63186700
 C                  4.08347200   -2.94446500   -2.01757400
 C                  3.70818400   -1.80248400   -2.71225700
 C                  3.07111400   -0.73674500   -2.07922100
 C                  4.59038100    0.96148600    1.05057200
 C                  5.54369600    1.64346900    1.80803700
 C                  5.18235400    2.75989200    2.55555200
 C                  3.85932300    3.20439100    2.53770300
 C                  2.90677000    2.51685800    1.79480700
 H                 -0.47097500    0.78443700   -1.33278900
 N                 -1.45538800    2.27776500   -3.33504900
 H                  0.46213900    4.04625100   -3.99692000
 H                  2.66269000    4.23503300   -2.96209800
 H                  3.35099500    2.71635000   -1.12647900
 H                  2.89188900   -2.05942400    1.03882600
 N                  4.24668600   -4.15216400    0.09169100
 H                  4.57154700   -3.75021200   -2.55247300
 H                  3.91871200   -1.74368600   -3.77673300
 H                  2.78923800    0.14655700   -2.64191900
 H                  4.88310000    0.09002900    0.47212500
 H                  6.57308100    1.29800900    1.81034600
 H                  5.92551900    3.28487100    3.14738700
 H                  3.57018000    4.07991200    3.11140800
 H                  1.86992000    2.85069800    1.79741300
 Rh                 0.30067100   -0.37911100    1.84161200
 C                  0.34546700   -2.23212700    1.50770200
 O                  0.35348800   -3.36627100    1.31552000
 H                  0.16080600    1.15194000    2.47580200
 C                 -0.32814900    4.62634000    0.09350900
 H                  0.39471400    3.91080700   -0.31988700
 H                  0.06474600    5.63566000   -0.04435900
 H                 -0.41871200    4.45038900    1.17161400
 C                 -1.91004500    5.38137700   -1.67842200
 H                 -2.15018400    4.76377000   -2.55446700
 H                 -2.74667500    6.07026000   -1.49907700
 H                 -1.02435300    5.97610200   -1.90915600
 C                 -1.64839800    2.86188300   -4.64838200
 H                 -2.66139200    2.63845000   -4.98577800
 H                 -1.54763300    3.95160800   -4.61395700
 H                 -0.93498400    2.47599500   -5.39311700
 C                 -2.23308000    1.08422000   -3.04194100
 H                 -2.41078400    0.99536200   -1.96857300
 H                 -3.20904300    1.17532300   -3.52176300
 H                 -1.74683900    0.16003200   -3.39661200
 C                 -1.32023700   -3.99336800   -3.90440800
 H                 -1.30243300   -4.95431300   -3.36724800
 H                 -2.28360900   -3.90627300   -4.41736500
 H                 -0.54082000   -4.00720500   -4.66741100
 C                  0.26168900   -2.37505800   -2.88625600
 H                  0.27978400   -1.28403600   -2.78566300
 H                  0.78421900   -2.80347300   -2.01553700
 H                  0.82558600   -2.62769900   -3.78563100
 C                  3.83390600   -4.27879600    1.47829000
 H                  4.26642700   -5.18889800    1.89533900
 H                  4.19876700   -3.43761600    2.07590300
 H                  2.74308000   -4.32319300    1.59430900
 C                  4.70382400   -5.32569500   -0.61787900
 H                  4.94635700   -6.10491800    0.10523300
 H                  3.94514500   -5.71984500   -1.31064300
 H                  5.61159800   -5.11087600   -1.19410700
 C                  0.64094800    0.60919700    3.88695800
 C                  1.38043800   -0.58922400    3.74194300
 C                  2.88627800   -0.55948900    3.72272300
 O                  3.41769100   -0.97316200    5.00357600
 C                  3.45227900   -2.29599100    5.20957400
 C                  4.00001400   -2.61833900    6.57647500
 O                  3.08710900   -3.11673800    4.39952400
 H                  1.20324600    1.53719800    3.99652700
 H                 -0.31412800    0.59459000    4.40460000
 H                  0.95179000   -1.50014400    4.15264500
 H                  3.26330700    0.45478200    3.57806600
 H                  3.31468900   -1.21440500    2.96085000
 H                  3.33585800   -2.20520500    7.34016000
 H                  4.98000800   -2.15264300    6.70425300
 H                  4.07413300   -3.69854000    6.69178900

