119

 P                 -1.81342500   -0.50990100    1.45494600
 C                 -2.49755200    1.11755700    0.92413800
 C                 -2.81667900   -0.92595500    2.93679800
 C                 -2.52304300   -1.61235400    0.15842500
 C                 -1.60216900    2.17866600    0.82148400
 C                 -1.98057600    3.40503300    0.23623000
 C                 -3.30571300    3.52513800   -0.22582800
 C                 -4.20663900    2.47585100   -0.07802000
 C                 -3.82054300    1.26604000    0.48947600
 C                 -2.63815700   -2.19977800    3.49704200
 C                 -3.27251800   -2.54806100    4.68407900
 C                 -4.08130900   -1.62083800    5.34199100
 C                 -4.25800600   -0.35236000    4.79847100
 C                 -3.63381300   -0.00603700    3.59970900
 C                 -1.72224700   -1.81720800   -0.96375900
 C                 -2.16368300   -2.57266700   -2.06427700
 C                 -3.44050500   -3.16073400   -1.97517900
 C                 -4.22775100   -2.96884500   -0.84511800
 C                 -3.79086100   -2.19484500    0.22719000
 H                 -0.57142400    2.01835500    1.12072500
 N                 -1.07927400    4.43734800    0.09866400
 H                 -3.63511100    4.44716300   -0.69158800
 H                 -5.22558100    2.60370100   -0.43274800
 H                 -4.52039500    0.43882100    0.55771400
 H                 -1.99012800   -2.91702600    2.99599900
 H                 -3.12929400   -3.54013300    5.10141300
 H                 -4.56828800   -1.88773100    6.27472000
 H                 -4.88649200    0.37399700    5.30489800
 H                 -3.78042000    0.98580400    3.18182200
 H                 -0.72181100   -1.40102400   -0.95927400
 N                 -1.35455800   -2.72295200   -3.18153800
 H                 -3.81934400   -3.78131900   -2.77832300
 H                 -5.20429600   -3.44272400   -0.80194100
 H                 -4.41682600   -2.06047500    1.10429700
 P                  2.13209300   -0.02916100    0.17010100
 C                  1.72868000    1.33407400   -1.01119100
 C                  2.92023300   -1.25943300   -0.95438300
 C                  3.56010900    0.73324600    1.05382000
 C                  0.43261000    1.39835000   -1.51941900
 C                  0.04867700    2.39310600   -2.44374000
 C                  1.02950000    3.32470100   -2.83688500
 C                  2.32230300    3.25228000   -2.32974200
 C                  2.69005000    2.26378300   -1.42281800
 C                  3.32490000   -2.47195300   -0.39246000
 C                  3.89393100   -3.49535800   -1.17394900
 C                  4.00498500   -3.26926300   -2.56133300
 C                  3.60435400   -2.05990500   -3.11240000
 C                  3.07007600   -1.04122000   -2.32640500
 C                  4.86539700    0.24094100    0.99530400
 C                  5.87958000    0.84577400    1.73958100
 C                  5.60347800    1.94797900    2.54239600
 C                  4.30380400    2.45223900    2.59818800
 C                  3.29244000    1.84917400    1.86025900
 H                 -0.29360500    0.67621300   -1.16483800
 N                 -1.24808400    2.45914400   -2.93638500
 H                  0.78932400    4.10865800   -3.54511800
 H                  3.05638400    3.98327000   -2.65648700
 H                  3.70504400    2.21529600   -1.04241500
 H                  3.17978200   -2.61713100    0.67267300
 N                  4.32637300   -4.67849100   -0.59761700
 H                  4.40388200   -4.03691500   -3.21293400
 H                  3.70833100   -1.91103200   -4.18367300
 H                  2.76111400   -0.10530100   -2.77857300
 H                  5.09636900   -0.61309100    0.36547400
 H                  6.89029600    0.45249900    1.68432200
 H                  6.39572200    2.41356700    3.12061300
 H                  4.06518400    3.31081100    3.21880800
 H                  2.28292900    2.25115800    1.92145900
 Rh                 0.56935900   -0.85242600    1.68679000
 C                  0.56432000   -2.64747800    1.16884600
 O                  0.53188700   -3.75249700    0.84244700
 H                  0.70657500    0.68296100    2.30289000
 C                  0.25629700    4.31277300    0.65237100
 H                  0.89000100    3.61244900    0.09098900
 H                  0.73131700    5.29592900    0.63971800
 H                  0.20778700    3.98461700    1.69596700
 C                 -1.31078600    5.42056900   -0.93776300
 H                 -1.64057200    4.93427700   -1.86611400
 H                 -2.06862500    6.16042200   -0.64617900
 H                 -0.37860500    5.95126500   -1.13948500
 C                 -1.46242000    3.20497100   -4.16124700
 H                 -2.51172200    3.11632000   -4.44612800
 H                 -1.25149700    4.26945100   -4.01660700
 H                 -0.83846500    2.84292200   -4.99347300
 C                 -2.11294000    1.30884400   -2.72830800
 H                 -2.23741500    1.10877900   -1.66278700
 H                 -3.10225700    1.53692400   -3.12863800
 H                 -1.73305200    0.39552100   -3.21646500
 C                 -1.70417800   -3.75094700   -4.13889100
 H                 -1.73909000   -4.75627100   -3.69088200
 H                 -2.68039300   -3.54339600   -4.58902200
 H                 -0.96530000   -3.75331200   -4.94141800
 C                  0.05055300   -2.36810900   -3.06006600
 H                  0.16764900   -1.29640000   -2.86335900
 H                  0.56797400   -2.91761700   -2.25693500
 H                  0.55371800   -2.58197500   -4.00448600
 C                  3.92899900   -4.96601600    0.76822100
 H                  4.32455600   -5.94224500    1.05171300
 H                  4.35221100   -4.22633000    1.45603800
 H                  2.83758800   -4.97332900    0.89739200
 C                  4.62292600   -5.79780300   -1.46607100
 H                  4.92067600   -6.65106800   -0.85546100
 H                  3.76269600   -6.09480800   -2.08563400
 H                  5.45895800   -5.56132100   -2.13265100
 C                  0.96115200   -1.22994000    3.82884600
 C                  0.95838100    0.17874800    3.73182800
 C                 -0.18003800    0.97699900    4.35720100
 O                  0.31516200    1.76253400    5.45354500
 C                  1.00613500    2.85596400    5.10162500
 C                  1.49259900    3.60729500    6.31200900
 O                  1.21118900    3.17936400    3.95345600
 H                  0.10519300   -1.72470500    4.28312100
 H                  1.90759400   -1.75689800    3.88496600
 H                  1.92227300    0.68756400    3.75380200
 H                 -0.92781100    0.30890900    4.78914400
 H                 -0.66569600    1.65031000    3.64425400
 H                  2.19251600    2.97986800    6.87029200
 H                  0.65234700    3.83396300    6.97216800
 H                  1.98546400    4.52488300    5.99470000

