103

 P                 -2.73772100   -1.74650400    2.40640300
 C                 -3.43621900   -1.40077400    4.07115800
 C                 -2.30643600   -3.53409600    2.51524300
 C                 -4.24023700   -1.84910800    1.33928100
 C                 -2.52840400   -1.41741900    5.14393600
 C                 -2.95369200   -1.07145400    6.42456200
 C                 -4.28980800   -0.69659700    6.63520500
 C                 -5.17647400   -0.67679400    5.57341600
 C                 -4.76114200   -1.03062000    4.28427500
 C                 -1.51973700   -4.07001000    1.48892400
 C                 -1.21924000   -5.42814500    1.45936200
 C                 -1.68963000   -6.26728300    2.46739500
 C                 -2.45991700   -5.74155400    3.50149500
 C                 -2.77001600   -4.38281000    3.52561200
 C                 -5.11721900   -2.94281000    1.41834000
 C                 -6.17808900   -3.04805400    0.52216700
 C                 -6.36869800   -2.06201100   -0.45715100
 C                 -5.51351800   -0.97539900   -0.51720100
 C                 -4.44841300   -0.86085200    0.38252100
 H                 -1.49508700   -1.69438100    4.95507700
 O                 -2.15800300   -1.05938400    7.51954400
 H                 -4.59371400   -0.42283400    7.63985000
 H                 -6.20787300   -0.38324400    5.74379100
 H                 -5.46624100   -1.01283100    3.45960500
 H                 -1.13165100   -3.41030100    0.71484800
 H                 -0.60617300   -5.82750600    0.65726700
 H                 -1.44830800   -7.32552700    2.45187800
 H                 -2.82167600   -6.38940100    4.29424000
 H                 -3.37628400   -3.98126100    4.33321400
 H                 -4.94353100   -3.71071300    2.16366900
 O                 -7.06626000   -4.07537500    0.50803400
 H                 -7.18801600   -2.18451400   -1.15744600
 H                 -5.65171700   -0.22201500   -1.28682400
 H                 -3.75043500   -0.03228700    0.30879400
 P                 -0.44375000    0.62996100   -0.18893900
 C                 -1.49063400    0.21802400   -1.65204200
 C                  1.24966100    0.27170100   -0.82222700
 C                 -0.48392800    2.47399300   -0.22647700
 C                 -2.04571700   -1.06615100   -1.69009300
 C                 -2.85661500   -1.44774100   -2.75969900
 C                 -3.10475000   -0.54310900   -3.79896900
 C                 -2.54559300    0.72503100   -3.76072700
 C                 -1.73715700    1.11619000   -2.69138900
 C                  2.29298900    0.27163500    0.09991000
 C                  3.61067200    0.04446500   -0.30890600
 C                  3.88654600   -0.20329500   -1.65449800
 C                  2.83604100   -0.20997300   -2.57220000
 C                  1.52681300    0.02964700   -2.17455400
 C                 -1.71212600    3.10810900    0.01155400
 C                 -1.80001400    4.49422100    0.06377500
 C                 -0.65564100    5.27343700   -0.10774600
 C                  0.56718300    4.65500400   -0.34329800
 C                  0.65413400    3.26370800   -0.40876900
 H                 -1.87344200   -1.73177100   -0.84909300
 O                 -3.46373800   -2.65416500   -2.86843600
 H                 -3.74575100   -0.86036700   -4.61472100
 H                 -2.74327100    1.42120200   -4.57020300
 H                 -1.30448200    2.11156800   -2.67034000
 H                  2.10749900    0.44521000    1.15631000
 O                  4.54497600    0.08059700    0.67503900
 H                  4.89759500   -0.39419000   -1.99396900
 H                  3.05181600   -0.40605500   -3.61814000
 H                  0.72643500    0.02454900   -2.90649200
 H                 -2.60786200    2.50560700    0.15220600
 H                 -2.76078400    4.96710100    0.24304300
 H                 -0.72052400    6.35574700   -0.05827800
 H                  1.46206000    5.25357400   -0.48334300
 H                  1.61448600    2.79626200   -0.60388300
 Rh                -0.98914600   -0.25625000    1.90579300
 C                  0.41113800   -1.49570300    2.06982400
 O                  1.25127200   -2.27560800    2.15357600
 H                 -2.19874900    0.88638500    1.88883400
 C                 -0.78906800   -1.37649300    7.34315000
 H                 -0.66705200   -2.38987800    6.94222600
 H                 -0.28611700   -0.65728000    6.68653800
 H                 -0.34135900   -1.32547200    8.33525100
 C                 -3.24730400   -3.58977400   -1.83128100
 H                 -2.18564300   -3.86012500   -1.75968500
 H                 -3.59060000   -3.20417900   -0.86475300
 H                 -3.82920100   -4.47254500   -2.09642200
 C                 -6.87886000   -5.10512800    1.45410200
 H                 -6.96364700   -4.72461500    2.47928400
 H                 -7.66929400   -5.83242900    1.27045000
 H                 -5.90076000   -5.58683800    1.33167000
 C                  5.88136900   -0.18379200    0.31382900
 H                  6.46148800   -0.12301200    1.23417800
 H                  5.98626900   -1.18667300   -0.11751300
 H                  6.25579500    0.55792600   -0.40256200
 C                 -1.63461700    1.56189400    3.19600400
 C                 -0.44910700    0.96021200    3.66613600
 C                  0.87593300    1.64328500    3.48954500
 O                  1.11935700    2.60635900    4.54653200
 C                  1.41739800    2.08886200    5.74443200
 C                  1.62798700    3.17459800    6.76872200
 O                  1.49884200    0.90258400    5.96736600
 H                 -1.56547400    2.53104900    2.70090000
 H                 -2.55900900    1.38425300    3.74275600
 H                 -0.52193000    0.31218000    4.53337700
 H                  0.89618200    2.23604600    2.57138400
 H                  1.70445600    0.93021900    3.49303800
 H                  0.69125400    3.71879800    6.91640800
 H                  2.37218500    3.88868300    6.40900700
 H                  1.95069800    2.72864500    7.70822300


