103

 P                  1.65360000    1.16344600   -0.25054300
 C                  0.43514800    2.54065300   -0.54899900
 C                  3.10278300    1.85390100   -1.14732700
 C                  2.07907700    1.45696300    1.52649200
 C                 -0.87191800    2.24298400   -0.93253100
 C                 -1.81551900    3.25946100   -1.13480800
 C                 -1.44826200    4.58806900   -0.93515100
 C                 -0.14275200    4.89614900   -0.55062200
 C                  0.79314100    3.88588000   -0.37401800
 C                  2.90855500    2.36544500   -2.43829900
 C                  3.99645700    2.72957700   -3.22452300
 C                  5.29430500    2.57960000   -2.73691300
 C                  5.49692200    2.06771900   -1.45919600
 C                  4.40772300    1.70962600   -0.66781900
 C                  1.56411200    0.54863500    2.45918300
 C                  1.67296400    0.78874500    3.83248300
 C                  2.32077100    1.95003400    4.26946500
 C                  2.87305400    2.83088900    3.34770800
 C                  2.76105500    2.59043100    1.98033400
 H                 -1.17083500    1.20542100   -1.06473400
 S                 -3.49593700    2.87565000   -1.58401300
 H                 -2.17823300    5.37511000   -1.09621600
 H                  0.14699900    5.93277800   -0.40850400
 H                  1.81305300    4.14536800   -0.11023200
 H                  1.90018300    2.47628900   -2.83072500
 H                  3.82980200    3.12616900   -4.22140000
 H                  6.14352300    2.85378200   -3.35473100
 H                  6.50200000    1.91683000   -1.08110600
 H                  4.58310600    1.28999100    0.31961900
 H                  1.05580200   -0.33600700    2.08904400
 S                  1.02340400   -0.28386800    5.08048600
 H                  2.40804000    2.14793100    5.33393000
 H                  3.39788300    3.71375500    3.69957000
 H                  3.21334300    3.27936700    1.27438900
 P                 -1.24084800   -1.63690200   -0.10478400
 C                 -2.68785700   -1.40019900   -1.21790500
 C                 -1.91196700   -1.02336300    1.51282400
 C                 -1.28610500   -3.45364900    0.23642500
 C                 -3.81924300   -0.69071600   -0.80690400
 C                 -4.90053200   -0.51637200   -1.67505100
 C                 -4.85378200   -1.08400000   -2.95330000
 C                 -3.72344500   -1.77904300   -3.36716700
 C                 -2.63215300   -1.92443500   -2.51456300
 C                 -1.60419300    0.27129300    1.95605100
 C                 -2.06725200    0.72817100    3.19662500
 C                 -2.83954300   -0.12882600    3.99324500
 C                 -3.16813500   -1.39915300    3.54395700
 C                 -2.71527000   -1.84953500    2.30544300
 C                 -0.35878600   -3.95826100    1.15918200
 C                 -0.33879100   -5.30831200    1.48727900
 C                 -1.24294900   -6.18531700    0.88816500
 C                 -2.16898200   -5.69583500   -0.02581600
 C                 -2.19726800   -4.33760400   -0.34609100
 H                 -3.84596400   -0.26616600    0.18887700
 S                 -6.33513900    0.43250000   -1.26486100
 H                 -5.69730600   -0.96227700   -3.62749700
 H                 -3.68857000   -2.20172800   -4.36638600
 H                 -1.74453200   -2.45759300   -2.84646300
 H                 -0.98241800    0.91123100    1.33680200
 S                 -1.74268400    2.32342500    3.88471200
 H                 -3.18641800    0.21464200    4.96373800
 H                 -3.77897700   -2.04770200    4.16445100
 H                 -2.97567200   -2.84720500    1.96787200
 H                  0.35056600   -3.28084000    1.62992100
 H                  0.38413900   -5.67698900    2.20862000
 H                 -1.22556900   -7.24155200    1.13719800
 H                 -2.88343500   -6.36838800   -0.49043400
 H                 -2.94326400   -3.97229600   -1.04407500
 Rh                 0.83403400   -1.00065000   -0.97435000
 C                  0.22459800   -0.46157400   -2.68254800
 O                 -0.12945500   -0.09598400   -3.71379500
 H                  1.44425700   -1.76517600    0.35522500
 C                 -3.19950400    1.89960000   -3.08930300
 H                 -2.69573500    0.95633600   -2.86373800
 H                 -4.18282900    1.68065600   -3.51039800
 H                 -2.61324800    2.48070700   -3.80346100
 C                 -6.00185300    0.92598900    0.44389700
 H                 -6.86870300    1.50897100    0.75956600
 H                 -5.90045800    0.05530200    1.09604900
 H                 -5.10821600    1.55247600    0.49743200
 C                  0.59029600   -1.76332200    4.13512200
 H                  0.28620900   -2.51172300    4.86961900
 H                 -0.24569700   -1.57705600    3.45766300
 H                  1.45712000   -2.13747600    3.58221900
 C                 -0.94103900    3.20987200    2.52901100
 H                  0.05531900    2.81372300    2.32843200
 H                 -1.55106200    3.18725800    1.62222400
 H                 -0.84720900    4.24422800    2.86603800
 C                  2.26302000   -2.74400000   -0.58767300
 C                  2.56046500   -2.06717000   -1.79564700
 C                  3.84264200   -1.29618800   -1.88304300
 O                  4.88483900   -2.20947900   -2.29508600
 C                  6.13955000   -1.87032700   -1.96375400
 C                  7.12502900   -2.88678900   -2.48371500
 O                  6.43066600   -0.88300000   -1.33264600
 H                  3.01934800   -2.72542800    0.19801000
 H                  1.65594300   -3.64458700   -0.60299500
 H                  2.20347500   -2.50925800   -2.72219600
 H                  4.11090300   -0.87835900   -0.90911700
 H                  3.80443300   -0.47445500   -2.60615700
 H                  7.09228900   -2.90109200   -3.57629400
 H                  6.85154800   -3.88443400   -2.13245400
 H                  8.12630900   -2.62595900   -2.14452700

