93

 H                  7.46426300   10.18427900    3.52091800
 H                  7.37011700    7.74157400    3.90278700
 H                  8.85817700    4.04043300    4.21307700
 H                 11.06775900    3.51346100    3.24218800
 H                 12.80077300    6.79573500    5.41189600
 H                 10.59412200    7.30279600    6.40447100
 H                  3.25821500    3.70769700    4.70151200
 H                  1.04826500    3.10130400    3.75280600
 H                 -0.44077500    7.00745800    4.74285100
 H                  1.76122800    7.61011300    5.68507200
 H                  4.19462200    9.77969800    2.74302300
 H                  4.14130700    7.42071300    3.47304200
 C                  7.68336100    9.78421900    4.50607600
 C                  7.63066800    8.41152800    4.72029900
 C                  9.57826700    5.69608300    5.38097900
 C                  9.72248500    4.64200400    4.47795000
 C                 10.96943800    4.35203300    3.92334700
 C                 12.07581300    5.12417100    4.25799500
 C                 11.93933500    6.18817500    5.15213300
 C                 10.69895600    6.47190600    5.71059300
 C                  2.65787400    5.69276600    5.26121400
 C                  2.44348700    4.42565900    4.71432500
 C                  1.19960500    4.08742200    4.18052100
 C                  0.16125500    5.01279700    4.18977000
 C                  0.36598800    6.28121600    4.73438800
 C                  1.60606500    6.61975900    5.26455800
 C                  4.39571500    7.88628600    5.56537600
 C                  4.47150900   10.55624400    4.73528400
 C                  4.30369700    9.53934000    3.79620500
 C                  4.27692900    8.21197400    4.20779900
 H                  8.42791600    8.35236600    8.02562600
 H                  8.48701000   10.78941200    7.64897000
 H                  4.68502800    8.67346100    7.55361600
 H                  4.77094300   11.02338200    6.81452200
 C                  7.90808100    7.88019300    5.98465600
 C                  8.20917300    8.74751400    7.03726200
 C                  8.24903700   10.12462600    6.82391300
 C                  7.99505200   10.64406800    5.55816900
 C                  4.58127600    8.90707500    6.49846400
 C                  4.62214100   10.23676000    6.08112500
 H                 10.18448900    4.82455000    7.81051900
 H                  8.39146500    4.92401300   11.70932900
 H                 10.25223200    4.28993300   10.22505700
 H                  3.40589400    5.45754700   11.62679700
 H                  1.80665000    5.49897800    7.65200100
 H                  1.51714200    5.14669500   10.07384400
 C                  9.35895400    5.11500800    8.45355400
 C                  8.25514100    5.77509700    7.90795100
 C                  7.21711800    6.10830600    8.77943200
 C                  7.22517200    5.83839800   10.14519900
 C                  8.34060700    5.17069200   10.65397600
 C                  9.39394800    4.81174600    9.81479600
 C                  4.90623600    6.29655100    8.72309900
 C                  4.78762900    6.07389000   10.09466800
 C                  3.54634800    5.65087000   10.56848000
 C                  2.47931200    5.47043400    9.69083900
 C                  2.63931900    5.68088400    8.32307700
 C                  3.87354100    6.08898100    7.80657600
 C                  6.02604900    6.33376500   10.95085300
 O                  6.11594900    6.71844300    8.21822400
 H                  5.03824500    3.57984400    6.24076500
 C                  5.82606600    4.39258000    3.60360600
 O                  5.62531100    4.20535300    2.48415300
 P                  7.92843900    6.04705000    6.12020300
 P                  4.29104200    6.10690800    6.00645700
 Rh                 6.03476800    4.60695500    5.50589200
 C                  6.17308700    7.85993800   11.14734400
 H                  5.30430400    8.25426100   11.68428800
 H                  7.07541900    8.07751000   11.72800900
 H                  6.24864700    8.37441900   10.18419300
 C                  5.93323400    5.65913800   12.31811700
 H                  6.82939800    5.87121400   12.90802500
 H                  5.08120500    6.05062600   12.88089100
 H                  5.82341000    4.57396500   12.22538200
 H                  4.49610900   11.59383700    4.41619800
 H                  8.02950400   11.71662000    5.39215500
 H                 -0.80559600    4.75134900    3.77105700
 H                 13.04654100    4.90055200    3.82621000
 C                  6.24155700    3.02187100    7.06215200
 C                  7.24866300    2.94994400    6.03054500
 C                  7.21224500    1.79244400    5.07192800
 O                  7.84535900    0.61688700    5.63160900
 C                  9.18337600    0.58289200    5.55108600
 C                  9.73624500   -0.65432100    6.20941300
 O                  9.84708700    1.44240900    5.01840900
 H                  5.58549300    2.15947900    7.18978700
 H                  6.48073800    3.50669300    8.00775300
 H                  8.25739800    3.25995000    6.30261500
 H                  7.70789300    2.02918400    4.12726800
 H                  6.18242900    1.48517900    4.87504500
 H                  9.50241900   -0.63198000    7.27714300
 H                 10.81501600   -0.69135600    6.06642400
 H                  9.26597100   -1.54460400    5.78554200

