87

 P                 -2.44613500    0.30624400   -0.31245400
 C                 -3.75089400   -0.56945300   -1.29869700
 C                 -1.84790300    1.56636200   -1.52058000
 C                 -3.47292300    1.33419500    0.81502200
 C                 -4.56841900   -1.54962100   -0.71463500
 C                 -5.48147800   -2.28717700   -1.46234300
 C                 -5.60127800   -2.05806400   -2.82865400
 C                 -4.81623800   -1.08270900   -3.43291000
 C                 -3.90894500   -0.34965500   -2.67314000
 C                 -2.26766000    2.89928200   -1.50662000
 C                 -1.76872500    3.80485700   -2.44238400
 C                 -0.86198100    3.38672900   -3.41125800
 C                 -0.43639200    2.05973600   -3.43328800
 C                 -0.91233400    1.16363200   -2.48286000
 C                 -4.80720500    1.64426600    0.52900600
 C                 -5.53883900    2.46398500    1.38329300
 C                 -4.94447300    2.98965500    2.52838100
 C                 -3.61527200    2.69289200    2.81563300
 C                 -2.88456600    1.86756200    1.96459400
 Cl                -4.51092800   -1.87670600    1.00008900
 H                 -6.09306600   -3.03143300   -0.96399600
 H                 -6.31157300   -2.63621400   -3.41061100
 H                 -4.90921800   -0.88405400   -4.49563800
 H                 -3.30937200    0.41272000   -3.15876300
 H                 -2.98176800    3.23797200   -0.76277400
 H                 -2.09752900    4.83923300   -2.41371100
 H                 -0.47668400    4.09377300   -4.13988400
 H                  0.28883300    1.72931400   -4.17037400
 H                 -0.55461500    0.13656100   -2.47680900
 H                 -5.27825400    1.24434500   -0.36474700
 H                 -6.57532400    2.69090100    1.15359800
 H                 -5.51716700    3.62657000    3.19531300
 H                 -3.14445900    3.09659900    3.70634700
 H                 -1.84999500    1.63860600    2.19613600
 P                  1.44972200   -0.54658900    0.04555600
 C                  1.94460300    1.01138900   -0.82376600
 C                  2.36186400   -1.80637800   -0.94925500
 C                  2.47876000   -0.49080700    1.57011000
 C                  1.47876500    2.25850400   -0.38108700
 C                  1.74113600    3.43686600   -1.07018800
 C                  2.49632700    3.39494200   -2.23706100
 C                  2.98627900    2.17706100   -2.69647600
 C                  2.71099400    1.00542600   -1.99705800
 C                  3.60072600   -2.33671700   -0.57581700
 C                  4.21678500   -3.31174100   -1.35905200
 C                  3.61110500   -3.76218400   -2.52830100
 C                  2.37947900   -3.23618500   -2.91425500
 C                  1.75770800   -2.27416200   -2.12456500
 C                  3.45778800    0.47716800    1.80941300
 C                  4.22262800    0.43146300    2.97330400
 C                  4.03228000   -0.59128300    3.89877200
 C                  3.06830400   -1.56850300    3.66038800
 C                  2.28801400   -1.51210900    2.51004600
 Cl                 0.56699900    2.39166400    1.10163400
 H                  1.34898300    4.37302000   -0.68807300
 H                  2.70018800    4.31320800   -2.77863900
 H                  3.58899400    2.13379700   -3.59820200
 H                  3.10485100    0.06452300   -2.36664900
 H                  4.08632900   -1.99141500    0.33162200
 H                  5.17529400   -3.71811900   -1.05139300
 H                  4.09367800   -4.52189000   -3.13519800
 H                  1.89846100   -3.58163000   -3.82438000
 H                  0.79052200   -1.87411500   -2.42132500
 H                  3.62824300    1.27049500    1.08708500
 H                  4.97286500    1.19574400    3.15189900
 H                  4.63467200   -0.62746800    4.80126300
 H                  2.91421500   -2.38030200    4.36420000
 H                  1.54461400   -2.28650500    2.34156000
 Rh                -0.87318700   -1.20588800    0.45705200
 C                 -1.06552700   -0.82747500    2.31031600
 O                 -1.16206600   -0.60488700    3.43367600
 H                 -1.01102800   -1.78101100   -1.07184500
 C                 -1.13834700   -3.28318600   -0.44212900
 C                 -0.37006000   -3.30029400    0.75146500
 C                 -0.97228200   -3.81617900    2.03109100
 O                 -0.75609200   -5.24106700    2.15621000
 C                  0.46563000   -5.59598500    2.57968600
 C                  0.59982100   -7.09502100    2.65577200
 O                  1.33969300   -4.80782700    2.85752900
 H                 -2.20273500   -3.50747700   -0.39757600
 H                 -0.65682200   -3.57953000   -1.37178900
 H                  0.69651400   -3.49955800    0.64856800
 H                 -2.05676700   -3.68673300    2.03209800
 H                 -0.54327500   -3.34391200    2.91724700
 H                  0.49744000   -7.51904300    1.65330600
 H                 -0.19984200   -7.51009000    3.27355800
 H                  1.57349200   -7.35080500    3.07062800

