97

 H                  0.97616200    5.04066200    0.00952300
 H                  1.13091800    2.89768500   -1.21950900
 H                  4.11137500    2.12892300   -0.19192700
 H                  6.20300800    2.37845500   -1.47963700
 H                  5.05791800   -0.91142900   -3.99620800
 H                  2.96509100   -1.16346400   -2.70704000
 H                 -4.67558300    0.58844000    0.04921400
 H                 -6.90885500    0.29511400   -0.97709700
 H                 -5.23489900   -2.41532400   -3.85941200
 H                 -2.98492400   -2.11254200   -2.82524500
 H                 -2.39039900    4.23853200   -1.38868100
 H                 -2.45208200    1.84642000   -2.00613000
 C                  1.24049500    4.12696300    0.53211900
 C                  1.32428000    2.92027300   -0.14886600
 C                  3.38922300    0.46955900   -1.36610300
 C                  4.31398200    1.46207700   -1.02509700
 C                  5.49440600    1.60197000   -1.75155600
 C                  5.76774100    0.75095400   -2.82006200
 C                  4.85803200   -0.24730500   -3.16122900
 C                  3.67513400   -0.38366400   -2.44009600
 C                 -3.69015900   -0.75024900   -1.32574400
 C                 -4.79866000   -0.07096300   -0.80636900
 C                 -6.05375500   -0.23618400   -1.38315600
 C                 -6.21206500   -1.08045200   -2.48210900
 C                 -5.11435800   -1.75948900   -3.00282700
 C                 -3.85533100   -1.59329600   -2.42800100
 C                 -2.02120500    1.14034200   -0.01259700
 C                 -1.95724000    3.85881700    0.68575000
 C                 -2.21699700    3.47526100   -0.63712300
 C                 -2.24249800    2.13176700   -0.97868200
 H                  2.14758800    0.88089900    2.44102200
 H                  1.95143200    3.01557700    3.66246600
 H                 -1.61402800    0.77910100    2.07654100
 H                 -1.53286700    3.17073400    2.67659800
 C                  1.66396900    1.73497700    0.51801800
 C                  1.87859600    1.78307500    1.89944000
 C                  1.77601300    2.98399900    2.59182300
 C                  1.46701200    4.17094400    1.91519800
 C                 -1.77905300    1.52646400    1.30794800
 C                 -1.74255000    2.87256900    1.65449400
 H                  4.34884600   -1.26522800    0.25883300
 H                  2.97646100   -3.72594500    3.49163100
 H                  4.77065600   -3.00436900    1.96768000
 H                 -2.04854800   -4.19717100    3.84836200
 H                 -4.18453300   -2.32829400    0.63887600
 H                 -4.09691900   -3.94422400    2.50614900
 C                  3.54475400   -1.59155300    0.91115800
 C                  2.27209200   -1.03542400    0.76654600
 C                  1.27321500   -1.49054100    1.62923200
 C                  1.48657600   -2.42708400    2.63853900
 C                  2.76458200   -2.97773200    2.73522800
 C                  3.78126200   -2.56869700    1.87535400
 C                 -1.04872000   -1.74775800    1.75732600
 C                 -0.95802500   -2.66619700    2.80148300
 C                 -2.07644600   -3.46035200    3.05269100
 C                 -3.23463700   -3.32153700    2.29222000
 C                 -3.28882800   -2.40356200    1.24696900
 C                 -2.18148100   -1.60490600    0.95175200
 C                  0.33647300   -2.68736100    3.60787700
 O                  0.02258900   -0.93580100    1.46511300
 P                  1.78461000    0.20482600   -0.50267800
 P                 -2.01864700   -0.60610400   -0.58358500
 C                  0.29341200   -1.51138400    4.61083900
 H                  0.16996100   -0.55739100    4.08728000
 H                 -0.54502700   -1.63642500    5.30405600
 H                  1.22544000   -1.47180400    5.18438500
 C                  0.51424000   -3.99632100    4.37584400
 H                  1.43757200   -3.97315800    4.96115700
 H                 -0.30509400   -4.13934900    5.08585400
 H                  0.54798000   -4.85584300    3.69918700
 C                 -1.86921100    5.24646200    1.03422000
 C                  1.39187300    5.40987700    2.63432400
 H                 -7.19193500   -1.20524200   -2.93250700
 H                  6.68637400    0.86702400   -3.38676200
 Rh                -0.25642000   -1.28930000   -1.96481100
 H                  0.79624600   -1.75677400   -3.11375600
 C                 -0.03437900   -2.93034500   -1.11615700
 O                  0.07928700   -3.94215100   -0.58117400
 C                 -1.76404200    6.41205400    1.32716800
 H                 -1.66338000    7.43943900    1.59532500
 C                  1.34751900    6.44415800    3.25425300
 H                  1.30666100    7.35858500    3.80185300
 C                 -0.61802000    0.32518200   -3.41045500
 C                  0.29033600   -0.54692700   -4.04953100
 C                 -0.18254200   -1.42420400   -5.18835800
 O                 -0.16414800   -0.68784000   -6.42242000
 C                  1.04985600   -0.52727900   -6.98080000
 C                  0.95288500    0.25579800   -8.26380700
 O                  2.06920400   -0.95870500   -6.50033000
 H                 -1.66396600    0.29715600   -3.71295800
 H                 -0.26086800    1.27319200   -3.01911700
 H                  1.32317100   -0.21621900   -4.14994200
 H                 -1.22460800   -1.71194800   -5.03886300
 H                  0.43784800   -2.31579800   -5.30000800
 H                  0.55878300    1.25327100   -8.05256000
 H                  0.25782600   -0.23611700   -8.94835200
 H                  1.94049600    0.33185800   -8.71569800

