99

 H                  1.10795700    2.95765100    3.52288400
 H                  1.26666500    0.81141600    2.32941900
 H                  4.26788400    1.65065800    0.25362000
 H                  6.57885500    1.63737900   -0.61203900
 H                  5.38024400   -1.02761600   -3.76678600
 H                  3.08044600   -1.03077600   -2.89278700
 H                 -2.91096600   -0.85497300   -3.37150600
 H                 -5.10446600   -0.73135800   -4.51497500
 H                 -6.66158000    1.60392300   -1.26397700
 H                 -4.48412200    1.45396900   -0.10866000
 H                 -1.26223200    4.75604200    0.54922500
 H                 -1.17603000    2.83190300   -1.00013800
 C                  1.33112100    2.95489800    2.45828000
 C                  1.41398600    1.73723600    1.78113800
 C                  3.51114400    0.31340100   -1.26213000
 C                  4.50940900    1.06385000   -0.62778500
 C                  5.81358100    1.05219000   -1.11304200
 C                  6.13618100    0.29192600   -2.23621000
 C                  5.15232600   -0.45804100   -2.87322400
 C                  3.84694500   -0.44919500   -2.38538900
 C                 -3.54895900    0.28880000   -1.66346500
 C                 -3.73764100   -0.32289700   -2.90826400
 C                 -4.97079500   -0.24991200   -3.55119400
 C                 -6.02495800    0.44472300   -2.96282600
 C                 -5.84408800    1.05926800   -1.72627800
 C                 -4.61497000    0.97742400   -1.07597900
 C                 -1.96484300    1.42918200    0.42847000
 C                 -2.02978100    3.61693400    2.20500300
 C                 -1.59325300    3.77705500    0.88815700
 C                 -1.54705700    2.69692700    0.01395500
 H                  2.09453200    2.92310500   -1.32290400
 H                  1.97311100    5.06405800   -0.10886600
 H                 -2.74725100    0.29102100    2.08755000
 H                 -2.78097200    2.20177100    3.63865300
 C                  1.69688600    1.70850000    0.41705000
 C                  1.87404000    2.92660900   -0.25636300
 C                  1.81039700    4.13149500    0.42697300
 C                  1.53746300    4.16501700    1.79970100
 C                 -2.40963600    1.26471700    1.74306700
 C                 -2.43562600    2.34643400    2.61762000
 H                  4.18706800   -1.48178600    0.29515600
 H                  2.35007200   -4.27712700    2.97084900
 H                  4.34129800   -3.43220900    1.78876300
 H                 -2.65396300   -4.60252400    2.39746000
 H                 -4.24435600   -1.92101000   -0.55078600
 H                 -4.44545800   -3.96139800    0.83390800
 C                  3.30382400   -1.81973200    0.82599500
 C                  2.08344900   -1.16027800    0.64023900
 C                  0.98974800   -1.64914700    1.35192700
 C                  1.03535300   -2.76012900    2.19433200
 C                  2.26388500   -3.40155200    2.33584600
 C                  3.38902800   -2.92702500    1.66513600
 C                 -1.31264700   -1.78957500    1.11592000
 C                 -1.39766600   -2.91896200    1.92555100
 C                 -2.54416600   -3.70347100    1.79986200
 C                 -3.55829900   -3.34204100    0.91479100
 C                 -3.44714700   -2.19272300    0.13413600
 C                 -2.30181300   -1.39904400    0.21739200
 C                 -0.25591000   -3.14594000    2.91215400
 O                 -0.20182800   -0.98195800    1.18449100
 P                  1.79566500    0.18153500   -0.60105000
 P                 -1.92812200    0.07617200   -0.81280700
 C                 -0.45535500   -2.17964400    4.10232800
 H                  0.37377100   -2.27900600    4.81057200
 H                 -0.49609100   -1.14075100    3.75924000
 H                 -1.39269800   -2.40953900    4.61984800
 C                 -0.21993100   -4.58207300    3.43141300
 H                 -0.07675000   -5.29966900    2.61745400
 H                  0.58993700   -4.70726800    4.15570200
 H                 -1.15127900   -4.82330300    3.95171400
 C                 -2.02033300    4.76904600    3.17503400
 C                  1.44633400    5.48379500    2.52270300
 H                 -6.98408200    0.50880100   -3.46740100
 H                  7.15271000    0.29088200   -2.61771300
 Rh                -0.08697400   -0.04700400   -2.29677900
 H                 -1.07729800    0.76072300   -3.24991300
 C                 -0.21182000   -1.92217200   -2.76578200
 O                 -0.38857900   -2.99089100   -3.15094300
 H                 -1.11211500    4.74824000    3.78955500
 H                 -2.87670000    4.72546000    3.85428200
 H                 -2.04476600    5.73041600    2.65410100
 H                  1.41087500    5.34296500    3.60657100
 H                  0.54352000    6.03199700    2.22753300
 H                  2.30443800    6.12260700    2.29113800
 C                  0.09273100    1.67275200   -3.71565400
 C                  1.12195800    0.67441700   -3.87184500
 C                  1.11523400   -0.17145200   -5.11482200
 O                  1.73357300    0.51548600   -6.22918000
 C                  3.06469100    0.39662700   -6.32422000
 C                  3.59800900    1.19841000   -7.48418100
 O                  3.74095900   -0.26699900   -5.57403200
 H                 -0.56566800    1.86206000   -4.56530200
 H                  0.30808000    2.57881100   -3.15504200
 H                  2.11761700    0.93303900   -3.51720300
 H                  0.09127200   -0.36746600   -5.44280500
 H                  1.63770900   -1.11875400   -4.96431100
 H                  3.41333000    2.26105600   -7.30540700
 H                  3.07398000    0.92156700   -8.40185300
 H                  4.66707200    1.01926600   -7.58745800

