99

 H                  0.83587900    2.91189900    3.36608500
 H                  1.17701700    0.69663600    2.36933600
 H                  4.66254500    1.10488000    0.94786000
 H                  7.05077400    1.15723900    0.30024900
 H                  6.14644200   -1.11144400   -3.23427900
 H                  3.74119900   -1.15943200   -2.57875100
 H                 -2.27016400   -1.48858500   -3.29860800
 H                 -4.15729100   -1.38204600   -4.89719100
 H                 -5.75670400    1.99202800   -2.77385500
 H                 -3.89721400    1.86054400   -1.15247400
 H                 -1.03854100    4.77667300    0.12755400
 H                 -0.74642700    2.76148200   -1.26122800
 C                  1.27299300    2.83664200    2.37312500
 C                  1.45978400    1.57816000    1.80411100
 C                  4.05213700   -0.03845700   -0.77647500
 C                  4.98844900    0.61732800    0.03240800
 C                  6.33070800    0.64681300   -0.33186300
 C                  6.74970800    0.02387600   -1.50758100
 C                  5.82455800   -0.62853500   -2.31691000
 C                  4.47871300   -0.65869100   -1.95382600
 C                 -2.95828500    0.17448900   -2.11201500
 C                 -3.04483000   -0.73263200   -3.17826600
 C                 -4.10217900   -0.67014000   -4.07924600
 C                 -5.07964800    0.31464400   -3.93875200
 C                 -4.99786900    1.22387900   -2.88840000
 C                 -3.94722700    1.15201000   -1.97417500
 C                 -1.71680500    1.43905100    0.13629900
 C                 -2.01145600    3.74130000    1.74450600
 C                 -1.40542000    3.81846000    0.48887500
 C                 -1.24368300    2.68209800   -0.29660200
 H                  2.81973200    2.54948900   -1.14729800
 H                  2.48640500    4.76186700   -0.13007000
 H                 -2.70661400    0.40636500    1.75155600
 H                 -2.93951100    2.41361200    3.15811700
 C                  2.01426400    1.45325400    0.52957100
 C                  2.36958400    2.62067900   -0.16064800
 C                  2.18877400    3.87000600    0.41660900
 C                  1.63593500    3.99844800    1.69446700
 C                 -2.32558800    1.35847800    1.39254100
 C                 -2.46220500    2.49413000    2.18404600
 H                  4.42847000   -1.82760600    1.02252500
 H                  2.07075800   -4.36694100    3.54275800
 H                  4.25617500   -3.69710000    2.62635000
 H                 -2.83478700   -4.44252400    2.34419700
 H                 -3.93694500   -1.82094000   -0.86239800
 H                 -4.41417200   -3.76851500    0.57794700
 C                  3.46292400   -2.09193500    1.44108900
 C                  2.32080400   -1.38925200    1.04883900
 C                  1.10220500   -1.78178000    1.60574200
 C                  0.96754800   -2.83959300    2.50305500
 C                  2.12700900   -3.52801800    2.85716800
 C                  3.36349500   -3.15188200    2.33823100
 C                 -1.16876500   -1.80247900    1.06645600
 C                 -1.42111900   -2.87496800    1.92004400
 C                 -2.60150100   -3.58889700    1.71662400
 C                 -3.49486500   -3.20935000    0.71793100
 C                 -3.22576300   -2.11137800   -0.09590600
 C                 -2.03907900   -1.38952400    0.05574400
 C                 -0.42805000   -3.11471000    3.05403400
 O                 -0.01127200   -1.07269500    1.21830100
 P                  2.27646600   -0.15831000   -0.31853600
 P                 -1.49425300    0.01599000   -1.00512600
 C                 -0.71946900   -2.07732100    4.16281200
 H                  0.00367900   -2.18285000    4.97833400
 H                 -0.65326800   -1.05749000    3.76969800
 H                 -1.72831600   -2.22766100    4.56140600
 C                 -0.54782700   -4.52111100    3.63897300
 H                 -0.34811300   -5.28742900    2.88352400
 H                  0.15430600   -4.65248000    4.46710900
 H                 -1.54992800   -4.68187000    4.04611100
 C                 -2.14999000    4.95664100    2.62456300
 C                  1.41609800    5.36088100    2.29737900
 H                 -5.89942100    0.37323600   -4.64791700
 H                  7.79723200    0.05124200   -1.79162100
 Rh                 0.85515400   -0.71633400   -2.08732000
 H                  0.20731900   -1.05415800   -3.54397900
 C                  0.79739200   -2.53169700   -1.65658700
 O                  0.78896400   -3.64518900   -1.36581300
 H                 -1.37815300    4.96506400    3.40349900
 H                 -3.12141400    4.97321900    3.12765300
 H                 -2.04857900    5.88055300    2.04808200
 H                  1.24435800    5.29699900    3.37547800
 H                  0.54135000    5.84832400    1.84996800
 H                  2.27666000    6.01486600    2.12679000
 C                  1.45173300    1.13104400   -3.13337500
 C                  0.89788500    0.31158900   -4.13897900
 C                 -0.40924300    0.74146800   -4.77126400
 O                 -0.19308700    1.84847900   -5.66152900
 C                  0.34920700    1.54072800   -6.85312800
 C                  0.53073600    2.77660800   -7.69576300
 O                  0.64507900    0.41938600   -7.18457300
 H                  0.89097400    2.00184300   -2.80025300
 H                  2.53308400    1.21274500   -3.06190700
 H                  1.56769000   -0.22049000   -4.80879700
 H                 -1.09535900    1.12052600   -4.01076000
 H                 -0.88625700   -0.07153200   -5.32419400
 H                  1.21990000    3.46114100   -7.19433700
 H                 -0.42515000    3.29360400   -7.80854100
 H                  0.92674500    2.49437800   -8.66991300

