101

 H                  2.15911500    4.48509400   -1.38737400
 H                  2.68021300    2.12475300   -1.78174600
 H                  3.84699300   -1.73540600   -2.24098700
 H                  6.26299500   -1.67783500   -2.85424100
 H                  6.90801400    1.43949600    0.03090000
 H                  4.51004900    1.37689400    0.63858200
 H                 -4.07228400    0.99733100   -1.59341900
 H                 -5.92473400    0.61835400   -3.18257000
 H                 -4.02116200   -2.97744200   -4.56064400
 H                 -2.14348700   -2.57806400   -2.99627200
 H                 -3.10049500    2.61895300    2.46152300
 H                 -2.75147600    0.37187100    1.54046100
 C                  1.87763900    3.74682400   -0.64224900
 C                  2.17206800    2.41093100   -0.86480000
 C                  4.02846800   -0.19140200   -0.76268900
 C                  4.53050400   -1.04718800   -1.74670400
 C                  5.88212100   -1.01081600   -2.08720800
 C                  6.73731700   -0.11754100   -1.44900500
 C                  6.24272400    0.74089800   -0.46699000
 C                  4.89476100    0.70566600   -0.12529000
 C                 -2.98229800   -0.76608500   -2.18429000
 C                 -4.05389600    0.12875200   -2.24527600
 C                 -5.10046400   -0.08713000   -3.14082600
 C                 -5.09481400   -1.20273200   -3.97310000
 C                 -4.03401200   -2.10577200   -3.91342300
 C                 -2.98141200   -1.88316600   -3.03197700
 C                 -1.85545900    1.06565100   -0.29611500
 C                 -2.25884400    3.65047400    0.76603900
 C                 -2.63103900    2.51021600    1.48798400
 C                 -2.43598900    1.23802200    0.96564300
 H                  0.98876300    1.10699200    2.04078900
 H                  0.44171700    3.47423800    2.41297300
 H                 -1.01389600    2.09087200   -1.99597700
 H                 -1.39432500    4.35059300   -1.07466100
 C                  1.85886900    1.43298300    0.09168700
 C                  1.24084200    1.83514100    1.27724100
 C                  0.94213700    3.17739800    1.49404100
 C                  1.24292500    4.15254200    0.53928400
 C                 -1.48382200    2.20388100   -1.02092300
 C                 -1.70189200    3.47560900   -0.50666600
 H                  4.45752100   -1.43598800    1.43892700
 H                  2.18666800   -3.43854600    4.47017500
 H                  4.35396900   -2.85649200    3.45570700
 H                 -2.65610100   -4.17121300    3.24308800
 H                 -3.83565200   -2.49307400   -0.51997500
 H                 -4.22135500   -4.06579000    1.34371400
 C                  3.49753300   -1.65887000    1.89278300
 C                  2.32562700   -1.16189900    1.31679300
 C                  1.11648400   -1.49314300    1.93165900
 C                  1.02164000   -2.30287100    3.06207600
 C                  2.21125200   -2.79396500    3.59790200
 C                  3.43761800   -2.46756000    3.02430900
 C                 -1.13005500   -1.81132300    1.37763000
 C                 -1.33767300   -2.65704800    2.46575500
 C                 -2.46089700   -3.48258200    2.42786000
 C                 -3.34659600   -3.42391200    1.35478400
 C                 -3.12856500   -2.53841400    0.30197000
 C                 -1.99838200   -1.71718100    0.28814400
 C                 -0.37048300   -2.53581800    3.64011200
 O                 -0.02754000   -0.98655800    1.35930700
 P                  2.25063200   -0.31785000   -0.31658900
 P                 -1.52685800   -0.56747200   -1.07309300
 C                 -0.76938200   -1.28071400    4.45031900
 H                 -0.07035100   -1.12831000    5.27932100
 H                 -0.75660100   -0.38745200    3.81694600
 H                 -1.77966700   -1.40105100    4.85541300
 C                 -0.41616700   -3.75872900    4.55482700
 H                  0.26280500   -3.62888500    5.40226800
 H                 -1.41916400   -3.88757400    4.97092000
 H                 -0.13832200   -4.67107200    4.01792700
 C                 -2.40142800    5.01118900    1.31133700
 C                  0.85716900    5.55110000    0.78985300
 H                 -5.91200900   -1.36817900   -4.66821700
 H                  7.78899200   -0.08571800   -1.71671500
 Rh                 0.92728700   -1.39055200   -1.91614200
 H                  0.35162000   -2.12249600   -3.25451000
 C                  0.94850400   -3.03747400   -1.03783100
 O                  0.99153200   -4.03848800   -0.47213600
 C                 -2.56576100    5.32526900    2.59839300
 H                 -2.32724600    5.81423300    0.57968700
 H                 -2.60489900    4.57086300    3.37911200
 H                 -2.66044900    6.35846500    2.91455500
 C                  0.77443800    6.51828500   -0.12681600
 H                  0.58306400    5.77926300    1.81858500
 H                  0.99628800    6.34543000   -1.17622900
 H                  0.47332700    7.52360900    0.14745500
 C                  1.43003400    0.18465800   -3.37114800
 C                  0.95485200   -0.88794600   -4.15434600
 C                 -0.36219600   -0.71521200   -4.88105700
 O                 -0.19690800    0.15233900   -6.01417900
 C                  0.38954900   -0.40139800   -7.09075500
 C                  0.50994600    0.59900400   -8.21088200
 O                  0.76299100   -1.54744000   -7.13381900
 H                  0.80469200    1.06777000   -3.25656100
 H                  2.50170000    0.35625400   -3.31462200
 H                  1.67430900   -1.51624400   -4.67214800
 H                 -1.08820200   -0.20912700   -4.24106600
 H                 -0.77299900   -1.66917600   -5.22090000
 H                  1.13961800    1.43246200   -7.88876900
 H                 -0.47502000    1.00387800   -8.45513200
 H                  0.94757300    0.11437200   -9.08212000

