101

 H                  1.63044300    4.72923900   -1.48206500
 H                  1.97273300    2.37123400   -2.07071500
 H                  3.16198500   -1.76394100   -2.58823800
 H                  5.47744100   -1.83437900   -3.41889900
 H                  6.44838200    1.59484300   -1.01290300
 H                  4.12231200    1.67673800   -0.19204100
 H                 -4.60769200    0.83653800   -0.56517600
 H                 -6.76171600    0.56218200   -1.74001500
 H                 -4.98559500   -2.37211300   -4.32535000
 H                 -2.81604700   -2.07423400   -3.16810200
 H                 -2.99478900    2.57945500    2.90664300
 H                 -2.81750000    0.36541200    1.86392000
 C                  1.48065200    3.96424000   -0.72579700
 C                  1.67538400    2.63380700   -1.05666400
 C                  3.47883600   -0.03697700   -1.33594200
 C                  3.88262000   -1.03022400   -2.23382100
 C                  5.19675300   -1.07789600   -2.69520600
 C                  6.12067600   -0.13447900   -2.25660300
 C                  5.72990300    0.85761200   -1.35827500
 C                  4.41717500    0.90715700   -0.89956000
 C                 -3.56469000   -0.60102300   -1.78887400
 C                 -4.68515600    0.13550400   -1.39132800
 C                 -5.90117400   -0.02147600   -2.05209000
 C                 -6.01384600   -0.92355800   -3.10716800
 C                 -4.90492700   -1.66712200   -3.50379500
 C                 -3.68501600   -1.50304400   -2.85235200
 C                 -2.10258300    1.11615300   -0.02989800
 C                 -2.31017400    3.65818400    1.17046300
 C                 -2.63939000    2.49986500    1.88337500
 C                 -2.54014900    1.24668800    1.29226100
 H                  1.05213000    1.21899000    1.96932700
 H                  0.65171200    3.58385200    2.53686300
 H                 -1.41713100    2.18039700   -1.77113200
 H                 -1.63181000    4.41467300   -0.72446000
 C                  1.53485000    1.62095100   -0.09408300
 C                  1.17068100    1.97962700    1.20341000
 C                  0.95820200    3.31791700    1.52764200
 C                  1.10333300    4.32978200    0.57487600
 C                 -1.77948000    2.27097000   -0.74904500
 C                 -1.90174000    3.52387500   -0.16201200
 H                  4.22007700   -1.31583900    0.64772500
 H                  2.47825000   -3.47023800    3.91453000
 H                  4.44947200   -2.81237800    2.58880500
 H                 -2.47535000   -4.27478300    3.36397200
 H                 -4.14596000   -2.51870600   -0.17680400
 H                 -4.25713100   -4.16390700    1.66755500
 C                  3.34365300   -1.56970000    1.23383300
 C                  2.09062600   -1.06396200    0.86935200
 C                  1.00737600   -1.43292900    1.66445900
 C                  1.09598900   -2.29173300    2.76008100
 C                  2.35745500   -2.79008300    3.07784200
 C                  3.47166600   -2.42189700    2.32677200
 C                 -1.27413400   -1.78498800    1.43735500
 C                 -1.31267700   -2.68046200    2.50272600
 C                 -2.40414400   -3.54704800    2.56221700
 C                 -3.41305900   -3.48532700    1.60261800
 C                 -3.35220900   -2.55942400    0.56264900
 C                 -2.26122100   -1.69458800    0.45957200
 C                 -0.19084800   -2.57454900    3.53174000
 O                 -0.21797300   -0.91271900    1.31621400
 P                  1.75944600   -0.10617800   -0.67795500
 P                 -1.95511200   -0.49616600   -0.89920300
 C                 -0.48943100   -1.35746500    4.43716200
 H                  0.32047200   -1.21917200    5.16092100
 H                 -0.58342600   -0.44256200    3.84307600
 H                 -1.42714900   -1.51440700    4.98060200
 C                 -0.08130500   -3.82909600    4.39629700
 H                  0.71049100   -3.71268700    5.14171200
 H                 -1.01218100   -3.99626800    4.94566400
 H                  0.13346100   -4.71580700    3.79166000
 C                 -2.34183400    4.99678000    1.78415800
 C                  0.81987500    5.72400900    0.95282800
 H                 -6.96288400   -1.04513100   -3.62014200
 H                  7.14352300   -0.16605500   -2.61935400
 Rh                -0.07308700   -0.85253400   -2.29018100
 H                 -1.08112700   -0.34627700   -3.41628300
 C                 -0.07877400   -2.78922000   -2.30388700
 O                 -0.18720700   -3.92633900   -2.43346000
 C                 -2.32895500    5.25440300    3.09384300
 H                 -2.33476500    5.83044600    1.08396700
 H                 -2.28981500    4.46519300    3.83943600
 H                 -2.34856000    6.27383900    3.46382500
 C                  0.62625900    6.74446800    0.11372100
 H                  0.73246300    5.90330400    2.02329800
 H                  0.66481800    6.62693000   -0.96554900
 H                  0.41660500    7.74130700    0.48617100
 C                  0.05116600    0.49879500   -4.06592400
 C                  1.13394500   -0.45007800   -3.97622600
 C                  1.20017800   -1.55917400   -4.98932800
 O                  1.81200100   -1.11561600   -6.22386700
 C                  3.14961500   -1.18075900   -6.27002600
 C                  3.67261500   -0.64417400   -7.57811200
 O                  3.83775200   -1.61373100   -5.37590000
 H                 -0.59588000    0.45107200   -4.94356700
 H                  0.20571300    1.51986100   -3.72615100
 H                  2.10678700   -0.06224400   -3.68090300
 H                  0.19584400   -1.88070000   -5.27651500
 H                  1.76503600   -2.41629600   -4.61612500
 H                  3.42495600    0.41754000   -7.65958100
 H                  3.19192800   -1.16064100   -8.41213900
 H                  4.75239100   -0.77848500   -7.61906600

