97

 H                  2.88447800    4.09829400   -1.48731300
 H                  2.32159300    1.80454100   -2.24533200
 H                  4.33994400    0.32002700   -0.68996500
 H                  6.41425800   -0.45943400   -1.76779900
 H                  4.14967300   -3.29374700   -4.07752500
 H                  2.08240100   -2.53193200   -2.99155500
 H                 -3.75971400   -0.95560900   -2.76785000
 H                 -6.02135700   -0.49153700   -3.66415600
 H                 -6.37345500    2.87518600   -1.02025700
 H                 -4.13433600    2.39413200   -0.10182100
 H                 -0.21914000    4.75449100   -0.87859700
 H                 -0.90923300    2.52597400   -1.78704800
 C                  2.59192500    3.33953700   -0.76465700
 C                  2.27169700    2.05582000   -1.18737900
 C                  3.06106600   -1.04301500   -1.77308200
 C                  4.29338900   -0.46863700   -1.43491800
 C                  5.46563100   -0.91286500   -2.03853800
 C                  5.42227300   -1.93658600   -2.98379300
 C                  4.20438300   -2.51762800   -3.32300000
 C                  3.03008300   -2.07469400   -2.71714500
 C                 -3.79275200    0.68704100   -1.37678100
 C                 -4.33805900   -0.12034700   -2.38178100
 C                 -5.60880300    0.14345800   -2.88641500
 C                 -6.34275000    1.22286300   -2.40042200
 C                 -5.80636200    2.03179000   -1.40165000
 C                 -4.54069300    1.76232700   -0.88647000
 C                 -1.63363900    1.81013200    0.11003100
 C                 -0.82789600    4.28351900    1.11951200
 C                 -0.66849400    4.00015200   -0.23995600
 C                 -1.05757000    2.76794500   -0.73679800
 H                  1.57819700    0.65116100    1.83490100
 H                  2.10991900    2.96533900    2.56936600
 H                 -2.24179400    1.36418000    2.13198600
 H                 -1.50286300    3.55722200    3.02826400
 C                  1.91418300    1.06754000   -0.25754400
 C                  1.84957900    1.40173900    1.10000700
 C                  2.15240200    2.69066300    1.51943700
 C                  2.53336700    3.66181900    0.59279900
 C                 -1.79465600    2.09830000    1.46772200
 C                 -1.38725300    3.33235300    1.97027600
 H                  3.50803300   -2.65986100    0.04361100
 H                  1.55601600   -4.24207800    3.51242500
 H                  3.44107700   -4.24614200    1.92521200
 H                 -3.38763100   -3.22002400    3.70312700
 H                 -4.79777900   -0.87821300    0.39617000
 H                 -5.23072000   -2.42801200    2.27575800
 C                  2.67794800   -2.62817800    0.74081900
 C                  1.64474800   -1.70316300    0.55377000
 C                  0.60835600   -1.71846000    1.48558800
 C                  0.53478800   -2.60373900    2.56087400
 C                  1.57194200   -3.52364200    2.69961900
 C                  2.63680300   -3.52858200    1.80147600
 C                 -1.66120400   -1.24366400    1.59039500
 C                 -1.86641800   -2.10793800    2.66242500
 C                 -3.17462900   -2.53537500    2.88874300
 C                 -4.21883900   -2.08900100    2.08040700
 C                 -3.97762100   -1.21430200    1.02291700
 C                 -2.67582800   -0.78665700    0.75382900
 C                 -0.64846800   -2.45175100    3.51441700
 O                 -0.39378000   -0.79059400    1.30915300
 P                  1.48976800   -0.59800200   -0.92111600
 P                 -2.15055100    0.23089300   -0.68088000
 C                 -0.36463100   -1.25236700    4.44761700
 H                  0.53457600   -1.44258100    5.04246300
 H                 -0.20970200   -0.33551200    3.86951500
 H                 -1.21036200   -1.09433500    5.12499800
 C                 -0.87263800   -3.70414700    4.35997700
 H                 -1.07411500   -4.57979800    3.73501800
 H                  0.00440800   -3.90976100    4.97998000
 H                 -1.71521200   -3.55838200    5.04185500
 C                 -0.37105800    5.59278800    1.64445300
 C                  2.86843200    5.02764200    1.06385900
 H                 -7.32971400    1.43425500   -2.79993800
 H                  6.33769100   -2.27621800   -3.45847800
 Rh                -0.66708500   -0.71072000   -2.26814100
 H                 -1.62762100    0.04740200   -3.28866900
 C                 -1.24677600   -2.55889700   -2.16754200
 O                 -1.69700100   -3.61514200   -2.20531500
 O                  0.14313300    6.44406200    0.95594600
 H                 -0.52519900    5.75341900    2.73070600
 O                  2.85526700    5.35422300    2.22824200
 H                  3.13958900    5.75237900    0.26972100
 C                 -0.39812300    0.50856600   -4.12478800
 C                  0.36056300   -0.71700000   -4.11407200
 C                 -0.04183800   -1.81568000   -5.05910000
 O                  0.49057800   -1.59654100   -6.38604700
 C                  1.73567100   -2.04523400   -6.59753500
 C                  2.19964900   -1.71839000   -7.99362000
 O                  2.39115700   -2.63346400   -5.76984000
 H                 -1.14671400    0.63805800   -4.90833100
 H                  0.09563900    1.44320100   -3.87152000
 H                  1.43475500   -0.62880400   -3.96554700
 H                 -1.12634900   -1.83076500   -5.19353700
 H                  0.29573300   -2.79461900   -4.71107900
 H                  2.24478400   -0.63303700   -8.11649100
 H                  1.48444000   -2.10410000   -8.72379300
 H                  3.18402300   -2.15316400   -8.15956500

