99

 H                  2.24216900   -3.81373200   -1.18689200
 H                  0.16486000   -2.64465800   -1.90931500
 H                 -3.86201700   -0.94390700   -2.57787100
 H                 -5.45966400   -2.51972400   -3.62328300
 H                 -3.93958800   -5.69038900   -1.15348900
 H                 -2.34954200   -4.11442000   -0.10296200
 H                 -0.00523600    3.49884100   -2.78543400
 H                  1.21100500    5.30535700   -3.99950100
 H                  4.75737900    4.40525600   -1.74848000
 H                  3.54745800    2.61873500   -0.54603500
 H                  4.51545100   -1.25616300   -1.88239800
 H                  2.59088300    0.22251000   -2.35311200
 C                  1.53087400   -3.43592700   -0.45966100
 C                  0.37679000   -2.77755800   -0.85129700
 C                 -2.99831700   -2.42239300   -1.27204200
 C                 -3.88167100   -1.98535800   -2.26551900
 C                 -4.78318800   -2.87172800   -2.85093800
 C                 -4.80261400   -4.20587500   -2.45374600
 C                 -3.92558000   -4.65061500   -1.46551900
 C                 -3.02968000   -3.76432700   -0.87478300
 C                  1.68940000    2.94092300   -1.59794000
 C                  1.04099200    3.70700300   -2.57057100
 C                  1.72418200    4.71767900   -3.24464400
 C                  3.06182800    4.96757100   -2.95268900
 C                  3.71491500    4.21074700   -1.98050100
 C                  3.03344800    3.20291400   -1.30486700
 C                  2.04403900    0.46452700   -0.27795800
 C                  4.23126700   -1.20376000    0.25114700
 C                  3.90838700   -0.87433600   -1.06899600
 C                  2.82060400   -0.05171200   -1.32697900
 H                 -0.91381500   -2.06286400    2.21347100
 H                  1.17526900   -3.18976700    2.91185200
 H                  1.75565200    0.46936500    1.86121300
 H                  3.68742500   -1.02214600    2.31354900
 C                 -0.50233300   -2.24610100    0.10246300
 C                 -0.22912100   -2.44029600    1.46018100
 C                  0.93709800   -3.08428900    1.85866700
 C                  1.82831300   -3.56118600    0.89857400
 C                  2.34980000    0.09413500    1.03401300
 C                  3.43846800   -0.73397000    1.29682300
 H                 -4.57469400   -1.78495100    0.67225400
 H                 -4.51550900    0.72847700    4.14703700
 H                 -5.69346600   -0.85357300    2.67279700
 H                 -0.95263300    4.29805400    4.09046100
 H                  1.37643000    4.36973200    0.49500500
 H                  0.55134800    5.48027500    2.53966200
 C                 -4.04695800   -1.08518500    1.31305600
 C                 -2.74309600   -0.70300400    0.98923200
 C                 -2.10844000    0.20059500    1.84490100
 C                 -2.69710400    0.72271400    2.99448100
 C                 -4.00825800    0.33595500    3.27213100
 C                 -4.67572100   -0.55902800    2.43900200
 C                 -0.47184200    1.86430000    1.80569600
 C                 -0.96333800    2.46511600    2.96363300
 C                 -0.58492300    3.78418500    3.20861900
 C                  0.26392200    4.45507600    2.33152500
 C                  0.73671700    3.82660800    1.18282500
 C                  0.36322100    2.51189500    0.89257200
 C                 -1.82589300    1.60600100    3.88347500
 O                 -0.81909200    0.56479000    1.51699300
 P                 -1.85334900   -1.18277000   -0.54410100
 P                  0.70654900    1.66530500   -0.70633100
 C                 -0.88724700    0.68293000    4.69436900
 H                 -0.21530500    1.28177800    5.31794300
 H                 -1.47529600    0.02222500    5.33983400
 H                 -0.27893100    0.06250000    4.02776900
 C                 -2.65623600    2.45055900    4.84852400
 H                 -3.33511200    3.12094700    4.31224400
 H                 -3.24584600    1.80782800    5.50810500
 H                 -2.00505800    3.04989700    5.49097300
 C                  5.39660500   -2.06602800    0.58421400
 C                  3.17876300   -4.06485200    1.25456000
 H                  3.59741600    5.75025900   -3.48095500
 H                 -5.49786400   -4.90045200   -2.91498100
 Rh                -1.23727300    0.98792000   -1.83110900
 H                 -2.42120400    0.77622200   -2.91853900
 C                 -2.30714600    2.24136200   -0.94640100
 O                 -2.94439800    3.01635200   -0.38363400
 O                  5.70712100   -2.39957300    1.70844900
 O                  6.09433000   -2.44627100   -0.49448800
 H                  6.77137700   -3.06862500   -0.17699000
 O                  3.97516500   -4.49783300    0.45081200
 O                  3.47343300   -3.90819700    2.55462800
 H                  4.44077100   -4.01263800    2.62854000
 C                 -0.05844700    0.10946200   -3.47514000
 C                 -1.33044900    0.37012800   -4.03228600
 C                 -1.51722900    1.53617500   -4.97649200
 O                 -1.19101800    1.14689400   -6.32236000
 C                 -2.12745000    0.41835400   -6.95683200
 C                 -1.68612400    0.07377800   -8.35517500
 O                 -3.17473900    0.09229400   -6.45372000
 H                  0.74575100    0.80618800   -3.70741700
 H                  0.24978200   -0.91406000   -3.28789900
 H                 -1.96616700   -0.48481500   -4.26032800
 H                 -0.81685400    2.33647800   -4.73274000
 H                 -2.54093700    1.91579700   -4.95771300
 H                 -0.77173600   -0.52358400   -8.31232000
 H                 -1.45786100    0.98788600   -8.90841900
 H                 -2.47536400   -0.48480400   -8.85562600

