99

 H                  2.65658900   -3.42729200   -1.20131400
 H                  0.68037300   -2.15116500   -2.03697300
 H                 -3.79647900   -0.74532900   -2.69781800
 H                 -5.32659500   -2.32430900   -3.78035400
 H                 -3.35502200   -5.60064400   -1.80855700
 H                 -1.80622900   -4.01594100   -0.72463900
 H                  0.43663200    3.72867500   -2.63661600
 H                  1.73163100    5.63752100   -3.53129900
 H                  5.07995000    4.50358100   -1.09198800
 H                  3.78362800    2.61643400   -0.18264500
 H                  4.94156500   -1.11740300   -1.47385400
 H                  3.02702700    0.32726000   -2.10154000
 C                  1.84302000   -3.15595400   -0.53663400
 C                  0.73926200   -2.45338200   -0.99323300
 C                 -2.69202700   -2.26882400   -1.63140700
 C                 -3.69893800   -1.80838300   -2.48868300
 C                 -4.57529300   -2.70372200   -3.09705900
 C                 -4.45266900   -4.06916900   -2.85243000
 C                 -3.45425600   -4.53669400   -2.00074400
 C                 -2.57803200   -3.64262800   -1.39105400
 C                  2.02219000    3.03045600   -1.36127800
 C                  1.45529800    3.89836200   -2.30030200
 C                  2.18597700    4.97338000   -2.80273100
 C                  3.49224000    5.19153700   -2.37507600
 C                  4.06336500    4.33686900   -1.43430300
 C                  3.33218000    3.26713000   -0.92600600
 C                  2.29680900    0.52728700   -0.08052400
 C                  4.44715800   -1.12105500    0.62199600
 C                  4.25216500   -0.76144900   -0.71613200
 C                  3.17620000    0.04326300   -1.06161600
 H                 -0.98441400   -2.17889900    1.92635500
 H                  1.03796800   -3.34272100    2.76126800
 H                  1.80541400    0.48849300    2.02066000
 H                  3.69804400   -1.00347100    2.62347200
 C                 -0.27937300   -2.07636100   -0.11072900
 C                 -0.18958100   -2.44320600    1.23511800
 C                  0.93594900   -3.11074300    1.70645000
 C                  1.95840900   -3.45269700    0.82208800
 C                  2.48023500    0.13553800    1.24707800
 C                  3.54773500   -0.68946800    1.59518900
 H                 -4.43545000   -1.68099500    0.14805400
 H                 -4.63495200    0.64255600    3.74766600
 H                 -5.69563000   -0.85984600    2.10875400
 H                 -1.09304600    4.22426200    4.07217900
 H                  1.48837600    4.40842100    0.65840000
 H                  0.50530200    5.45718100    2.65927300
 C                 -3.95416600   -1.02173700    0.86327700
 C                 -2.63000000   -0.62610200    0.66005100
 C                 -2.05962200    0.21231900    1.61573700
 C                 -2.73252500    0.68346400    2.74045400
 C                 -4.06186200    0.29163600    2.89583500
 C                 -4.66342600   -0.55657300    1.96835600
 C                 -0.43108300    1.86080400    1.75986400
 C                 -1.00937400    2.42337600    2.89725200
 C                 -0.66088900    3.73707800    3.20438000
 C                  0.24154800    4.43589200    2.40542200
 C                  0.80227700    3.84154700    1.27825500
 C                  0.46291300    2.53093200    0.92711500
 C                 -1.92971500    1.52990000    3.72448000
 O                 -0.74491900    0.56891300    1.41107600
 P                 -1.61018400   -1.02441400   -0.81860900
 P                  0.97607500    1.69261600   -0.63546200
 C                 -1.04783300    0.57747000    4.56440400
 H                 -0.42025300    1.15316800    5.25257300
 H                 -1.67846200   -0.10329100    5.14558700
 H                 -0.39610500   -0.02175800    3.92002000
 C                 -2.82913900    2.33707500    4.65887200
 H                 -3.47094400    3.02669300    4.10166200
 H                 -3.46204500    1.66955700    5.25032500
 H                 -2.22690200    2.91272300    5.36744400
 C                  5.57705300   -1.99039200    1.04495300
 C                  3.26461800   -3.98582400    1.28823100
 H                  4.06385400    6.02524600   -2.77084800
 H                 -5.13000500   -4.76996100   -3.33089900
 Rh                -0.73989200    0.94818800   -2.12291400
 H                  0.27384500    1.50328300   -3.21886100
 C                 -2.03319400    2.36003200   -1.78774500
 O                 -2.74518400    3.25655800   -1.69407800
 O                  5.74803500   -2.39677900    2.17536700
 O                  6.41381300   -2.28979500    0.04240600
 H                  7.05825100   -2.92275900    0.40374600
 O                  4.15033900   -4.35330700    0.54820000
 O                  3.40760000   -3.93259900    2.62123900
 H                  4.36090300   -4.04440400    2.79819100
 C                 -0.02940600    0.27608000   -4.14063900
 C                 -1.45503900    0.18914900   -3.95703800
 C                 -2.34182600    1.12702900   -4.72914700
 O                 -2.58761200    0.64123000   -6.06944400
 C                 -3.60242800   -0.22349700   -6.20225800
 C                 -3.72616000   -0.69937100   -7.62675700
 O                 -4.31799100   -0.57133500   -5.29203200
 H                  0.34246300    0.94090500   -4.92214000
 H                  0.57963300   -0.61731900   -4.03634100
 H                 -1.87093800   -0.80705100   -3.82365300
 H                 -1.85290900    2.09453100   -4.86891400
 H                 -3.30486800    1.27294000   -4.23470600
 H                 -2.83395600   -1.27126900   -7.89556500
 H                 -3.78691100    0.15639300   -8.30285900
 H                 -4.61155800   -1.32560500   -7.72415800

