97

 H                 -0.41550000    4.82827900   -0.70125000
 H                 -1.06289800    3.01826700    0.83207900
 H                 -3.63019300   -0.07244800    2.95143200
 H                 -5.92019400    0.48565000    3.76280100
 H                 -6.73271300    2.48926100    0.05035700
 H                 -4.45880800    1.92798000   -0.75294200
 H                  4.36056200    1.15121600    0.80527700
 H                  6.33648800    0.81849300    2.24946500
 H                  4.06275300   -1.81946200    4.76353400
 H                  2.07227600   -1.45883500    3.33330500
 H                  1.97794700    2.68193500   -3.26595700
 H                  1.66279200    0.59206400   -2.01366800
 C                 -0.86065500    3.91740900   -1.09195400
 C                 -1.22866000    2.89623300   -0.23364200
 C                 -3.90638300    0.88007400    1.04793900
 C                 -4.32375600    0.48237700    2.32177300
 C                 -5.60440600    0.79774500    2.77211400
 C                 -6.47189300    1.51805800    1.95547400
 C                 -6.05946800    1.92292400    0.68654100
 C                 -4.78215500    1.60659500    0.23378400
 C                  3.07669100   -0.12435000    1.97612400
 C                  4.28807100    0.50870200    1.67789100
 C                  5.40382100    0.31723800    2.49025600
 C                  5.32785000   -0.51864400    3.60181900
 C                  4.13002700   -1.16461900    3.90015800
 C                  3.01200800   -0.96410300    3.09552300
 C                  1.91432600    1.49754400   -0.07164600
 C                  2.30573400    3.88922800   -1.51598900
 C                  2.05216500    2.68776600   -2.18085400
 C                  1.86004000    1.51010700   -1.46807700
 H                 -2.42098100    0.68154800   -2.50719700
 H                 -1.71543100    2.46407200   -4.03862300
 H                  2.21103200    2.73261600    1.67443100
 H                  2.56364600    4.81435600    0.41392100
 C                 -1.79109200    1.70675700   -0.71515200
 C                 -1.97778600    1.58432400   -2.09531100
 C                 -1.58544600    2.59352400   -2.96679300
 C                 -0.99869600    3.76755600   -2.47982500
 C                  2.15915100    2.71039200    0.58706200
 C                  2.36998300    3.88661100   -0.11928400
 H                 -4.69716000   -1.24051200   -0.27123700
 H                 -2.94463500   -4.20323300   -2.83339500
 H                 -4.90537000   -3.27612500   -1.66857000
 H                  2.07047500   -4.57840700   -2.44665200
 H                  3.79388600   -1.96573500    0.47584200
 H                  3.93162900   -3.96908700   -0.94923100
 C                 -3.82749000   -1.64100800   -0.78350800
 C                 -2.58957900   -1.01683000   -0.63231100
 C                 -1.49959100   -1.56770700   -1.30707700
 C                 -1.58342400   -2.69666700   -2.11660200
 C                 -2.83175100   -3.31053500   -2.22708500
 C                 -3.94199600   -2.78710200   -1.56865100
 C                  0.81405200   -1.75265500   -1.09317200
 C                  0.85880900   -2.88224300   -1.91210400
 C                  1.99654500   -3.68293500   -1.83859800
 C                  3.04749500   -3.34136000   -0.99076600
 C                  2.97181200   -2.20584700   -0.19004100
 C                  1.83668100   -1.38776700   -0.21362600
 C                 -0.31664000   -3.10782700   -2.86005800
 O                 -0.28898500   -0.93292700   -1.14206200
 P                 -2.22579300    0.39272800    0.48472200
 P                  1.54635800    0.01876200    0.95309200
 C                 -0.14735400   -2.15699300   -4.06762200
 H                 -0.10739100   -1.11322200   -3.73889800
 H                  0.77956000   -2.38913000   -4.60263400
 H                 -0.99178800   -2.26980300   -4.75579100
 C                 -0.38482100   -4.54908800   -3.36193300
 H                  0.52108900   -4.80490800   -3.91868600
 H                 -0.50058100   -5.25639400   -2.53476700
 H                 -1.22544300   -4.67386300   -4.05033600
 N                  2.39696400    5.09735300   -2.23939400
 N                 -0.57129500    4.78082900   -3.33090900
 H                  6.19871000   -0.66623000    4.23296400
 H                 -7.46761400    1.76940100    2.30794600
 Rh                -0.73100400   -0.20829100    2.20508000
 H                 -0.08748900   -0.53559500    3.65791600
 C                 -1.09249600   -2.03146900    2.01239500
 O                 -1.32909200   -3.15083100    1.88686100
 H                  2.88235700    5.82704500   -1.72827000
 H                  2.83072400    4.97614800   -3.14893600
 H                 -0.46754500    4.49437400   -4.29604400
 H                  0.25339800    5.27167200   -2.99239400
 C                 -0.82782300    1.81405700    3.08346600
 C                 -0.51325700    0.96345700    4.16522600
 C                  0.84592200    1.11503900    4.81605500
 O                  0.89256200    2.31188500    5.61037000
 C                  0.26626500    2.24654000    6.79900100
 C                  0.36684000    3.55909500    7.53214300
 O                 -0.29696800    1.26071400    7.20565200
 H                 -0.05189800    2.48368200    2.71551000
 H                 -1.84791100    2.17185800    2.97212000
 H                 -1.30446700    0.65923500    4.84454000
 H                  1.61926600    1.25072500    4.05647600
 H                  1.09785400    0.25953200    5.44818600
 H                 -0.14351700    4.33612300    6.95691700
 H                  1.41459300    3.85304400    7.62905200
 H                 -0.09248300    3.45990600    8.51429900

