93

 H                  2.50969600    3.26565100    2.33789600
 H                  2.56472500    0.80247700    2.20814900
 H                  2.89210900   -3.16832400   -1.77620800
 H                  5.11551400   -3.66202900   -2.80199900
 H                  6.74462900   -0.15540600   -0.93855000
 H                  4.54154600    0.33383200    0.08415500
 H                 -4.43333600    0.57704900   -0.69156900
 H                 -6.60506600   -0.16734400   -1.61074100
 H                 -5.09510500   -4.16770900   -1.97606000
 H                 -2.90201200   -3.41924500   -1.08533900
 H                 -1.33404200    3.83814400    1.32786800
 H                 -1.44650200    1.40191000    1.75012800
 C                  2.22782800    2.76071300    1.42075400
 C                  2.25147900    1.37179900    1.33803300
 C                  3.57153200   -1.39405400   -0.77461600
 C                  3.74297000   -2.51432500   -1.59276500
 C                  4.98068800   -2.79357800   -2.16727300
 C                  6.04693400   -1.93679400   -1.92046000
 C                  5.89965000   -0.81156100   -1.11372300
 C                  4.65979600   -0.54530300   -0.54369500
 C                 -3.50703800   -1.36801900   -0.83258800
 C                 -4.56283500   -0.46188100   -0.98020700
 C                 -5.79035000   -0.87278400   -1.49237300
 C                 -5.96706600   -2.20616600   -1.84689600
 C                 -4.93983200   -3.13165800   -1.69708700
 C                 -3.71477100   -2.70435700   -1.19477600
 C                 -1.84829400    0.88781700   -0.30732000
 C                 -1.73753800    3.63712300   -0.77231100
 C                 -1.53418300    3.15002700    0.51339600
 C                 -1.59319700    1.77577900    0.74082900
 H                  1.17973000    0.99472900   -1.85895200
 H                  1.16053200    3.46715700   -1.72934400
 H                 -2.20854700    0.73264200   -2.43341300
 H                 -2.12121100    3.16837500   -2.83665700
 C                  1.88474600    0.71555200    0.15927000
 C                  1.48964400    1.48427100   -0.94104100
 C                  1.47469000    2.87397100   -0.87726500
 C                  1.84311100    3.49958000    0.30930900
 C                 -2.01077000    1.40524300   -1.60087800
 C                 -1.96929400    2.77278300   -1.83852900
 H                  4.18079700   -2.48448100    1.55613500
 H                  2.34343500   -2.85463200    5.41597300
 H                  4.24030800   -3.27058300    3.90455200
 H                 -2.67189100   -2.23850200    5.40247400
 H                 -4.32473700   -1.63691900    1.50010700
 H                 -4.59741000   -2.26160300    3.86430200
 C                  3.33881300   -2.29557800    2.21541500
 C                  2.21407000   -1.62898800    1.73014900
 C                  1.15530600   -1.41274000    2.61230200
 C                  1.16367200   -1.81745200    3.94341700
 C                  2.29419400   -2.50261100    4.39094300
 C                  3.36951200   -2.73839500    3.53671900
 C                 -1.16159300   -1.16920600    2.58047900
 C                 -1.27798500   -1.53259500    3.92298500
 C                 -2.53423400   -1.93657000    4.36969300
 C                 -3.62263200   -1.95418200    3.50054400
 C                 -3.46943900   -1.59333700    2.16575600
 C                 -2.21979600   -1.20489800    1.66904800
 C                 -0.03206900   -1.40634100    4.79740200
 O                  0.06011600   -0.75141000    2.10352400
 P                  1.92474400   -1.12118700   -0.00698700
 P                 -1.85841200   -0.93926300   -0.12462300
 C                  0.14363400    0.08354000    5.17172800
 H                  0.23072400    0.70453100    4.27408000
 H                 -0.71867200    0.43052400    5.75026200
 H                  1.04940300    0.21584400    5.77268100
 C                 -0.13824800   -2.23643300    6.07558800
 H                 -0.26932900   -3.30010100    5.85366200
 H                  0.76091000   -2.11339200    6.68576700
 H                 -0.98133300   -1.89785800    6.68411100
 Br                -1.69900800    5.49957700   -1.09720700
 Br                 1.80225900    5.38539100    0.42950100
 Br                -7.63204200   -2.76901000   -2.54494200
 Br                 7.73194300   -2.30143100   -2.69810900
 Rh                 0.14591500   -2.28940500   -0.99356500
 H                 -0.70437100   -3.28427300   -1.94580800
 C                  0.24356800   -3.68360300    0.25592400
 O                  0.31322900   -4.53191600    1.02852700
 C                  0.45377100   -1.25005100   -2.91613400
 C                 -0.10642200   -2.49735900   -3.26489900
 C                 -1.49353000   -2.51133900   -3.87479600
 O                 -1.45408700   -2.03220200   -5.22658800
 C                 -0.97348500   -2.90180700   -6.13670600
 C                 -0.98291800   -2.29719200   -7.51572200
 O                 -0.59222600   -4.01145900   -5.85923500
 H                 -0.15993000   -0.35850000   -3.03635000
 H                  1.52272200   -1.10080100   -3.04468100
 H                  0.54679900   -3.28976800   -3.61861900
 H                 -2.14910700   -1.81440700   -3.34723600
 H                 -1.93550600   -3.51124400   -3.86350700
 H                 -0.34185600   -1.41195500   -7.53054300
 H                 -1.99522800   -1.97715700   -7.77386400
 H                 -0.62335800   -3.03202500   -8.23405000

