93

 H                  2.60408000    3.17778000    2.66368200
 H                  2.52577000    0.75902000    2.16213000
 H                  2.76207200   -2.96014000   -1.80759900
 H                  4.89486700   -3.32259200   -2.96184100
 H                  6.18132300    0.62694700   -1.85486500
 H                  4.03419600    1.00596700   -0.69804200
 H                 -4.53796900    1.15551300    0.08644400
 H                 -6.85787000    0.77926800   -0.68205900
 H                 -5.73205000   -3.05818900   -2.23741400
 H                 -3.39529000   -2.67369200   -1.49411300
 H                 -1.34045600    3.94499200    2.11040300
 H                 -1.49323400    1.47225200    2.16693100
 C                  2.22977100    2.82883500    1.70775500
 C                  2.17478200    1.46868000    1.41861300
 C                  3.23780500   -0.94939200   -1.15913500
 C                  3.50668600   -2.16709200   -1.79707000
 C                  4.71794100   -2.38671500   -2.44641700
 C                  5.66795700   -1.37206400   -2.45558600
 C                  5.42792800   -0.15231100   -1.83349500
 C                  4.21315700    0.05317800   -1.18603200
 C                 -3.79760000   -0.73022000   -0.66114300
 C                 -4.78599900    0.23342400   -0.43141900
 C                 -6.09528100    0.02850200   -0.85507000
 C                 -6.42018800   -1.15856300   -1.50383400
 C                 -5.46062500   -2.13749900   -1.73364800
 C                 -4.15221300   -1.91576400   -1.31255000
 C                 -1.94760700    1.28572000    0.06611000
 C                 -1.80968200    4.06575600    0.01844900
 C                 -1.57660200    3.38977200    1.20913100
 C                 -1.65502000    1.99673000    1.22977000
 H                  0.84977200    1.61866500   -1.70193200
 H                  0.98528200    4.05205600   -1.21224000
 H                 -2.34181500    1.44378600   -2.05022900
 H                 -2.25068900    3.92050300   -2.08251400
 C                  1.68852200    1.01731100    0.18896000
 C                  1.25506000    1.95859000   -0.75069000
 C                  1.32387900    3.32244400   -0.48438000
 C                  1.80892500    3.74345300    0.74996800
 C                 -2.13346200    1.98918300   -1.13155400
 C                 -2.08227400    3.37551700   -1.16034600
 H                  3.94574300   -2.43012100    0.83597400
 H                  2.45185300   -3.35055500    4.74918700
 H                  4.18875700   -3.56471700    3.01597200
 H                 -2.52748900   -2.67276900    5.26798600
 H                 -4.45822100   -1.48336200    1.63509000
 H                 -4.56136600   -2.45710000    3.89386800
 C                  3.16778100   -2.33054500    1.58597100
 C                  2.02586800   -1.57625600    1.30877600
 C                  1.06972000   -1.47213200    2.31651600
 C                  1.18231400   -2.07512700    3.56635200
 C                  2.32142300   -2.84619300    3.79748400
 C                  3.30403800   -2.96908300    2.81723500
 C                 -1.22048000   -1.18296200    2.54047800
 C                 -1.23705300   -1.75013800    3.81408700
 C                 -2.46294600   -2.21383700    4.28699800
 C                 -3.61329300   -2.09631600    3.50929100
 C                 -3.55682000   -1.53759600    2.23571100
 C                 -2.34066200   -1.07872700    1.71835500
 C                  0.08211400   -1.77607200    4.58175600
 O                 -0.03778600   -0.70370900    2.03032400
 P                  1.62347200   -0.75934500   -0.29226800
 P                 -2.07534600   -0.54450300   -0.02729800
 C                  0.33540800   -0.36329000    5.15631400
 H                  0.36355300    0.38475100    4.35727300
 H                 -0.46129800   -0.09279500    5.85691700
 H                  1.29407000   -0.33979400    5.68477400
 C                  0.06242800   -2.78839000    5.72557100
 H                 -0.11636400   -3.80430700    5.35971700
 H                  1.01341400   -2.77236100    6.26525200
 H                 -0.71681600   -2.53353600    6.44940400
 Br                -1.74456400    5.95440900   -0.02308600
 Br                 1.88083400    5.59032200    1.14888000
 Br                -8.19899200   -1.44432400   -2.07905600
 Br                 7.31629200   -1.64922800   -3.34481100
 Rh                -0.47044900   -1.65345700   -1.37032300
 H                 -1.60294800   -1.49243900   -2.48002800
 C                 -0.63460100   -3.44088800   -0.62809900
 O                 -0.83024700   -4.51122700   -0.26099000
 C                 -0.51428100   -1.10835500   -3.54581400
 C                  0.49513700   -2.07540200   -3.20104900
 C                  0.33706000   -3.48996000   -3.68858800
 O                  0.82829400   -3.64179700   -5.03999600
 C                  2.14117600   -3.88238200   -5.15966800
 C                  2.54872400   -3.97394500   -6.60681000
 O                  2.89142800   -4.00700300   -4.21939300
 H                 -1.29135400   -1.41169700   -4.24919800
 H                 -0.23624400   -0.06465800   -3.66140800
 H                  1.52347800   -1.72193200   -3.18367600
 H                 -0.71961700   -3.76421500   -3.74232000
 H                  0.86557600   -4.20101000   -3.04978500
 H                  2.37855800   -3.00950100   -7.09264300
 H                  1.93421700   -4.71652900   -7.12088500
 H                  3.60223900   -4.24140800   -6.67036400

