87

 P                  1.89720200   -0.71627800   -0.04953800
 C                  1.77819300    1.06243800    0.43475500
 C                  3.12532900   -0.64871700   -1.42268500
 C                  2.90756700   -1.39294300    1.33323100
 C                  0.83931200    1.37743500    1.42613700
 C                  0.64475500    2.70070400    1.78881000
 C                  1.36137100    3.73340700    1.18599400
 C                  2.30221000    3.41395000    0.21628500
 C                  2.51402200    2.08660100   -0.16047000
 C                  2.68267800   -0.26021500   -2.69443200
 C                  3.57093600   -0.16576200   -3.76028600
 C                  4.91649200   -0.47963900   -3.57605100
 C                  5.36504600   -0.87710300   -2.32055000
 C                  4.47833100   -0.95494100   -1.24730100
 C                  3.69983500   -0.58735000    2.15831800
 C                  4.47656700   -1.15909100    3.16304000
 C                  4.47699000   -2.53969900    3.34792900
 C                  3.69588700   -3.34954100    2.52703800
 C                  2.91126600   -2.77830000    1.52916300
 H                  0.25295300    0.58922900    1.89356800
 Cl                -0.53379400    3.09592000    3.01715100
 H                  1.17662400    4.76154700    1.47700800
 H                  2.86496900    4.20656600   -0.26627400
 H                  3.24440100    1.85865200   -0.93039800
 H                  1.63275900   -0.02571900   -2.85050100
 H                  3.21049900    0.14793200   -4.73500700
 H                  5.61000700   -0.41608600   -4.40864100
 H                  6.41110500   -1.12502000   -2.16934800
 H                  4.84541800   -1.25631200   -0.27120400
 H                  3.71146400    0.48952300    2.01553400
 H                  5.08159400   -0.52362100    3.80233400
 H                  5.08083600   -2.98268400    4.13377000
 H                  3.68645800   -4.42548000    2.66979200
 H                  2.28633600   -3.40622400    0.89800500
 P                 -2.06087300   -0.45163500   -0.53076900
 C                 -1.81077500    1.37822300   -0.66563900
 C                 -3.01641200   -0.66653200    1.02067200
 C                 -3.35824900   -0.62620300   -1.83580900
 C                 -0.77415100    1.79261100   -1.50638400
 C                 -0.55825400    3.14590600   -1.72444000
 C                 -1.33193600    4.11225300   -1.08979100
 C                 -2.36229400    3.69749100   -0.25140400
 C                 -2.61522500    2.34196800   -0.05214100
 C                 -3.91713400   -1.73382500    1.12894000
 C                 -4.49747800   -2.04863500    2.35369700
 C                 -4.18043500   -1.30924400    3.49152100
 C                 -3.27776500   -0.25433400    3.39632900
 C                 -2.69665900    0.06216600    2.17086500
 C                 -2.95430500   -1.06102300   -3.10090000
 C                 -3.86839900   -1.15417400   -4.14862200
 C                 -5.20160900   -0.81726600   -3.93690800
 C                 -5.61417700   -0.37607100   -2.68021800
 C                 -4.69849300   -0.27470300   -1.63785100
 H                 -0.13265400    1.05405300   -1.97878600
 Cl                 0.70880300    3.64132500   -2.81910600
 H                 -1.13134700    5.16467700   -1.25792800
 H                 -2.97727500    4.44001200    0.24705400
 H                 -3.43600800    2.03937400    0.59073000
 H                 -4.16354600   -2.32435400    0.24944200
 H                 -5.19451500   -2.87824800    2.41951400
 H                 -4.62967700   -1.55963100    4.44715400
 H                 -3.01602000    0.32554600    4.27611600
 H                 -1.99198600    0.88676200    2.11445200
 H                 -1.91178600   -1.32336200   -3.26175900
 H                 -3.53886700   -1.49442100   -5.12539200
 H                 -5.91883500   -0.89585700   -4.74786200
 H                 -6.65235000   -0.10601300   -2.51292000
 H                 -5.02778800    0.07419500   -0.66276300
 Rh                -0.11306200   -1.83151900   -0.46262800
 C                 -0.37155500   -2.41227500    1.31782900
 O                 -0.55118200   -2.74492000    2.40060800
 H                  0.15660200   -1.56324200   -2.07785700
 C                  0.16865800   -3.11962000   -2.34929800
 C                 -0.41293900   -3.83976900   -1.28055300
 C                 -1.85865400   -4.24627200   -1.33622000
 O                 -2.04701400   -5.45982300   -2.10252000
 C                 -1.68461000   -6.59516700   -1.48400200
 C                 -1.92210500   -7.79230100   -2.36929100
 O                 -1.23023800   -6.63661100   -0.36659400
 H                 -0.44097900   -2.94320900   -3.23494400
 H                  1.23034600   -3.22795000   -2.55513200
 H                  0.22905300   -4.48939200   -0.69263900
 H                 -2.45688700   -3.49755800   -1.86070700
 H                 -2.26313200   -4.40699600   -0.33372300
 H                 -1.32627600   -7.69763300   -3.28077400
 H                 -2.97332300   -7.83270000   -2.66473600
 H                 -1.64514200   -8.69865200   -1.83316800

