101

 H                  2.21311900    4.82031700   -0.63920900
 H                  2.15614500    2.53452800   -1.60011700
 H                  4.35406400    1.37441300   -0.02228700
 H                  6.61666100    1.11948100   -1.02907100
 H                  5.10765600   -1.92241900   -3.65187200
 H                  2.86604400   -1.69806700   -2.64975500
 H                 -3.15960700   -1.40381700   -2.74332300
 H                 -5.42043500   -1.34447500   -3.77646600
 H                 -6.62917700    1.68908600   -1.00238700
 H                 -4.37669500    1.61870800    0.06430600
 H                 -0.97253900    4.75890600   -0.23546000
 H                 -1.15697600    2.52335600   -1.34609400
 C                  2.04263900    3.96036400    0.00479100
 C                  2.00659300    2.67931500   -0.53154300
 C                  3.45159700   -0.13917400   -1.27597500
 C                  4.51660900    0.65517900   -0.81897400
 C                  5.78110400    0.51609300   -1.37050100
 C                  5.99837100   -0.41965900   -2.38676400
 C                  4.95099700   -1.21603200   -2.84224900
 C                  3.68163800   -1.07869000   -2.28524000
 C                 -3.61964700    0.10173300   -1.27362000
 C                 -3.92092900   -0.73165900   -2.35706700
 C                 -5.18545800   -0.69494400   -2.93636200
 C                 -6.15300300    0.18051800   -2.44536600
 C                 -5.85833600    1.01661500   -1.36594900
 C                 -4.60050000    0.97307300   -0.77974200
 C                 -1.83286800    1.52660600    0.43945400
 C                 -1.58983300    4.01498900    1.67510400
 C                 -1.30132500    3.88222500    0.31408100
 C                 -1.41144700    2.64392800   -0.29522600
 H                  1.46121700    0.91301200    2.32737000
 H                  1.48314200    3.21614600    3.26368800
 H                 -2.46001700    0.80582600    2.37490900
 H                 -2.22250000    3.01833600    3.47335000
 C                  1.81118300    1.56499600    0.29819200
 C                  1.61214400    1.76228100    1.66920500
 C                  1.62987900    3.04538500    2.20117400
 C                  1.85514000    4.14743400    1.37570800
 C                 -2.12933500    1.66481000    1.79795700
 C                 -2.00324100    2.90820100    2.41370100
 H                  4.13242500   -1.76235400    0.46179200
 H                  2.35653900   -3.99335900    3.65586600
 H                  4.29146600   -3.47381500    2.22115400
 H                 -2.69918400   -4.02988800    3.54935800
 H                 -4.38007800   -1.76709700    0.31721200
 H                 -4.58411700   -3.51650200    2.05136300
 C                  3.27239200   -1.96142200    1.09154400
 C                  2.07792800   -1.26153700    0.88813500
 C                  1.01482300   -1.56751100    1.73602800
 C                  1.06734600   -2.53281700    2.74106300
 C                  2.26710600   -3.22420800    2.89604600
 C                  3.36082500   -2.93355900    2.08368800
 C                 -1.30628800   -1.57961400    1.70426000
 C                 -1.38676800   -2.55128700    2.69795200
 C                 -2.58784300   -3.25302300    2.80019100
 C                 -3.65533800   -2.96495300    1.95144700
 C                 -3.54271700   -1.97741100    0.97508300
 C                 -2.34522000   -1.27381800    0.82900500
 C                 -0.17506000   -2.70726800    3.61199700
 O                 -0.14829000   -0.85525000    1.54631300
 P                  1.77350800   -0.09012200   -0.50965200
 P                 -1.95822500   -0.05618000   -0.48851100
 C                 -0.20509900   -1.55677700    4.64430400
 H                 -1.10303200   -1.63310200    5.26622100
 H                  0.67771600   -1.60699100    5.28971600
 H                 -0.21338800   -0.58266300    4.14439600
 C                 -0.17901300   -4.04504000    4.34978000
 H                  0.68384700   -4.11647100    5.01770200
 H                 -1.07138000   -4.13300200    4.97581600
 H                 -0.15447700   -4.88846600    3.65271200
 C                 -1.41751100    5.33751600    2.32447100
 C                  1.89283800    5.50743600    1.96999300
 C                 -7.49947800    0.22392400   -3.06896700
 C                  7.34822200   -0.56064800   -2.98625800
 Rh                -0.22501100   -0.53690300   -2.02528500
 H                 -1.26424000    0.08001600   -3.06276100
 C                 -0.40254700   -2.46928700   -2.08523800
 O                 -0.62156800   -3.58807800   -2.22391200
 O                 -1.01331000    6.31637700    1.74041200
 H                 -1.67722600    5.38140900    3.40126100
 O                  1.76582600    5.71953900    3.15332300
 H                  2.04958700    6.33744600    1.25224600
 O                 -8.39114900    0.94957500   -2.69898100
 H                 -7.64556200   -0.47208700   -3.92114800
 O                  8.30953500    0.08842600   -2.64719200
 H                  7.42694700   -1.32175300   -3.78979700
 C                 -0.11263400    0.85065100   -3.77848200
 C                  0.88762900   -0.18625300   -3.78829500
 C                  0.78667400   -1.26960200   -4.82716100
 O                  1.34365600   -0.84558600   -6.09215900
 C                  2.66725900   -1.00318200   -6.22978900
 C                  3.14043000   -0.48952900   -7.56446500
 O                  3.37825000   -1.49504100   -5.38427100
 H                 -0.82542800    0.87937400   -4.60429800
 H                  0.15347800    1.84574500   -3.43182400
 H                  1.90744000    0.11343800   -3.55602500
 H                 -0.25952300   -1.49766000   -5.04584300
 H                  1.29988900   -2.18198200   -4.51458700
 H                  2.95740300    0.58653600   -7.62518800
 H                  2.57547700   -0.96662100   -8.36856700
 H                  4.20431300   -0.69289200   -7.67515800

