101

 H                  2.47420500    4.41730900   -0.81821800
 H                  2.78490400    2.05918400   -1.50345000
 H                  4.80633300    0.80949300    0.65545500
 H                  7.14426100    0.65006200   -0.21556000
 H                  5.82019100   -2.01407400   -3.30073300
 H                  3.47490900   -1.85669200   -2.43946900
 H                 -2.58368800   -2.08075600   -2.33112500
 H                 -4.52952800   -2.19375300   -3.86717500
 H                 -5.70536100    1.75783800   -2.69914700
 H                 -3.78256000    1.87280700   -1.12062600
 H                 -0.98900200    4.78130100   -0.70731800
 H                 -0.87911900    2.45308400   -1.59929500
 C                  2.25359000    3.61222700   -0.12088100
 C                  2.42212500    2.28791800   -0.50515600
 C                  4.00000100   -0.52177100   -0.84252500
 C                  5.03046000    0.19166400   -0.21034300
 C                  6.32992500    0.10862900   -0.68702000
 C                  6.61092600   -0.68831300   -1.80197700
 C                  5.59267200   -1.39877700   -2.43330700
 C                  4.28607400   -1.31512900   -1.95634800
 C                 -3.05292400   -0.09807000   -1.61877000
 C                 -3.27460300   -1.24288600   -2.40037700
 C                 -4.35988400   -1.30424100   -3.26446400
 C                 -5.22780200   -0.21591500   -3.37360000
 C                 -5.01325900    0.92696800   -2.60158000
 C                 -3.93665700    0.98389700   -1.72430100
 C                 -1.60768300    1.55040500    0.22159300
 C                 -1.67589900    4.16098800    1.22483900
 C                 -1.26648400    3.93031900   -0.09179300
 C                 -1.21248700    2.63471400   -0.57931000
 H                  1.50289300    0.77137600    2.40052200
 H                  1.15270100    3.13970500    3.05028800
 H                 -2.30623200    0.95665500    2.17389700
 H                 -2.33802100    3.27200100    3.06697900
 C                  2.13861700    1.24695700    0.39110500
 C                  1.70089900    1.55902700    1.68343300
 C                  1.51204900    2.88159000    2.05885400
 C                  1.78287100    3.91118300    1.15832200
 C                 -2.00348400    1.78636400    1.54141200
 C                 -2.02759800    3.08726100    2.04091900
 H                  4.43808600   -2.11726000    1.13818900
 H                  2.18944900   -4.06177400    4.22242000
 H                  4.30355500   -3.72175800    3.00978700
 H                 -2.84963800   -3.78178500    3.62135300
 H                 -4.12024900   -1.55688300    0.18803300
 H                 -4.58748400   -3.18475800    1.98282800
 C                  3.50433200   -2.24002300    1.67724800
 C                  2.37759100   -1.50833400    1.29511700
 C                  1.19854700   -1.71573700    2.01485200
 C                  1.08735800   -2.61391500    3.07369500
 C                  2.22838800   -3.34041800    3.41328500
 C                  3.42566300   -3.15051600    2.72752400
 C                 -1.12111500   -1.58342800    1.73821500
 C                 -1.35637500   -2.48124200    2.77837500
 C                 -2.62066600   -3.06589200    2.83923100
 C                 -3.60488300   -2.73042800    1.91204500
 C                 -3.34206400   -1.81135200    0.90008800
 C                 -2.07677500   -1.22898300    0.78350700
 C                 -0.24779900   -2.67239300    3.81039000
 O                  0.10644800   -0.97400600    1.62798900
 P                  2.26832000   -0.48399100   -0.22669300
 P                 -1.53686200   -0.10650000   -0.57236700
 C                 -0.30422700   -1.47544500    4.78753900
 H                 -1.26304500   -1.46674700    5.31617600
 H                  0.50502500   -1.54783500    5.52143100
 H                 -0.19988000   -0.52724900    4.24958900
 C                 -0.41179500   -3.97190300    4.59793700
 H                  0.37589900   -4.06594500    5.35045300
 H                 -1.36267200   -3.97534900    5.13752500
 H                 -0.37695900   -4.84605500    3.94046400
 C                 -1.74326400    5.55536900    1.73267900
 C                  1.53445600    5.31419500    1.56736100
 C                 -6.37728200   -0.27404300   -4.30866600
 C                  8.00254500   -0.77472400   -2.31391600
 Rh                 0.64901700   -1.19015500   -1.75790700
 H                 -0.17417000   -1.70199000   -3.06262100
 C                  0.49634300   -2.90279700   -1.02632200
 O                  0.43079300   -3.95056100   -0.55729400
 O                 -1.50585200    6.52342300    1.04943800
 H                 -2.03708600    5.66058800    2.79621300
 O                  1.07775900    5.62054200    2.64510600
 H                  1.77998800    6.08715200    0.81143500
 O                 -7.17204400    0.62319900   -4.46031100
 H                 -6.46991600   -1.22102100   -4.88050200
 O                  8.93810300   -0.19072100   -1.82209600
 H                  8.13794200   -1.42762500   -3.20095000
 C                  1.23200700    0.42702400   -3.13807200
 C                  0.51803400   -0.48704300   -3.93885700
 C                 -0.82622300   -0.06285700   -4.49420600
 O                 -0.64694900    0.85490900   -5.58204700
 C                 -0.27532700    0.30221800   -6.75322500
 C                 -0.13816800    1.35203000   -7.82377200
 O                 -0.08575300   -0.87960700   -6.89998900
 H                  0.76583400    1.37712300   -2.88494700
 H                  2.31742800    0.43787500   -3.19427800
 H                  1.07254500   -1.16631300   -4.58036400
 H                 -1.39287500    0.49437900   -3.74458100
 H                 -1.41531200   -0.91615700   -4.83922400
 H                  0.61571100    2.08462600   -7.52455800
 H                 -1.08546300    1.88327700   -7.94415700
 H                  0.15005200    0.87697600   -8.75999900

