93

 H                 -6.60225200   -1.29069800    2.71669000
 H                 -4.73124200   -1.16066800    1.10333400
 H                 -1.38908900   -2.51106600    1.73457700
 H                 -1.49137000   -4.58375000    0.43567300
 H                 -3.29129200   -2.45982900   -2.83918400
 H                 -3.17054500   -0.35255800   -1.54322300
 H                  2.48267500   -2.75546200    0.78761200
 H                  2.10880900   -4.88541500   -0.37764300
 H                 -0.09643900   -2.82928100   -3.43246800
 H                  0.25699900   -0.69685400   -2.26658100
 H                  5.50574300    0.88543300    3.24910800
 H                  3.09874900    0.93327500    2.61044800
 C                 -5.70823300   -0.73022100    2.97153100
 C                 -4.65590800   -0.65747400    2.06364100
 C                 -2.24992600   -1.26998500    0.18188800
 C                 -1.79090900   -2.47359500    0.72682200
 C                 -1.85780200   -3.65857200    0.00439800
 C                 -2.39516600   -3.63187200   -1.27787800
 C                 -2.87261900   -2.45329700   -1.83845200
 C                 -2.79663500   -1.27288900   -1.10348900
 C                  1.38950100   -1.56299100   -0.64471000
 C                  1.89904000   -2.76407800   -0.12922400
 C                  1.69879600   -3.96997300   -0.79323100
 C                  0.98231700   -4.00031200   -1.98706600
 C                  0.47100400   -2.81486700   -2.50624500
 C                  0.66880400   -1.60607000   -1.84234300
 C                  3.38877100   -0.12830800    0.76631700
 C                  6.08562000   -0.18122500    1.47716100
 C                  5.17054300    0.43334900    2.32210600
 C                  3.82512600    0.45291200    1.95952400
 H                 -2.49824100    1.24228800    3.87171500
 H                 -4.38533900    1.12269400    5.49418800
 H                  4.01993600   -1.18959900   -1.00379600
 H                  6.41423100   -1.23834600   -0.36610600
 C                 -3.49742500    0.05766100    2.38569600
 C                 -3.40641200    0.69390900    3.62772700
 C                 -4.46346500    0.62495600    4.53259400
 C                 -5.61340800   -0.08877900    4.20556400
 C                  4.33649000   -0.73557300   -0.06887000
 C                  5.68129900   -0.76746500    0.27981300
 H                 -4.51015500    2.09558900    1.08603700
 H                 -3.38543100    4.61584700   -2.19976000
 H                 -4.95040500    4.03557400   -0.39117000
 H                  1.50530300    4.35591400   -3.38944700
 H                  3.77178000    1.67282600   -0.94381000
 H                  3.66452300    3.58650200   -2.48417300
 C                 -3.82277400    2.33429600    0.28000100
 C                 -2.67811000    1.55819300    0.09519500
 C                 -1.82310300    1.90371800   -0.95184300
 C                 -2.03833800    2.98431400   -1.80162600
 C                 -3.17958300    3.75391200   -1.57381000
 C                 -4.06530700    3.42819400   -0.54858700
 C                  0.44459000    1.77267000   -1.49446000
 C                  0.34873800    2.85038700   -2.37546200
 C                  1.53067100    3.50342800   -2.71913500
 C                  2.75110400    3.07016400   -2.20795200
 C                  2.81168500    1.98262300   -1.34159400
 C                  1.64848100    1.30638800   -0.95831100
 C                 -1.03427600    3.18473500   -2.93218300
 O                 -0.70607900    1.11619200   -1.11461700
 P                 -2.08974000    0.23571100    1.22103400
 P                  1.59567300   -0.01272100    0.34134000
 C                 -1.09621700    4.59713700   -3.51130400
 H                 -0.38934700    4.70339400   -4.33888000
 H                 -2.09124100    4.79940900   -3.91757400
 H                 -0.86610500    5.35182600   -2.75277100
 C                 -1.36227900    2.16478200   -4.04663000
 H                 -2.36220100    2.35693500   -4.44962700
 H                 -0.63150900    2.24464200   -4.85799000
 H                 -1.33805500    1.14111700   -3.65880900
 Cl                 7.77000900   -0.22225500    1.91967300
 H                 -6.43467100   -0.15000000    4.91289700
 H                  0.81721700   -4.93928800   -2.50560500
 Cl                -2.44820400   -5.10145400   -2.21721400
 Rh                 0.00837800    0.78790300    2.21740700
 H                  1.06001600    1.24371400    3.35064300
 C                 -0.11842300    2.58683800    1.69482800
 O                 -0.20204600    3.68356900    1.36185700
 C                  0.45787400    0.10423000    4.32467600
 C                 -0.00991100   -0.96774000    3.51761700
 C                  0.94889800   -2.06088000    3.14548700
 O                  1.04696000   -3.07084800    4.17975700
 C                  0.07664100   -3.99295100    4.18253900
 C                  0.25256300   -4.96747500    5.31785200
 O                 -0.82395500   -4.02805400    3.37533100
 H                  1.47728800    0.04251700    4.70621900
 H                 -0.22262300    0.62217100    4.99305800
 H                 -1.04688100   -1.27581700    3.64319900
 H                  1.96552100   -1.66633700    3.05289000
 H                  0.66704200   -2.55688600    2.21426200
 H                  0.13816800   -4.43906000    6.26815800
 H                  1.25902100   -5.39138900    5.29457500
 H                 -0.49536200   -5.75474000    5.23843100

