101

 H                 -0.36706200   -4.39704200    2.28702400
 H                 -0.67019400   -3.10134400    0.20572400
 H                 -3.17218500   -0.24836500   -2.96745000
 H                 -5.34311600   -0.97081100   -3.81270500
 H                 -6.18523800   -2.87167400   -0.04639000
 H                 -3.99003900   -2.15674100    0.80089200
 H                  2.98114500    0.00256500   -3.18369100
 H                  5.22293100   -0.15453300   -4.19722200
 H                  6.87538500   -1.17465600   -0.36531800
 H                  4.64049300   -0.99796600    0.64457900
 H                  2.68709200   -4.64497900    1.64922800
 H                  2.54887800   -3.05230600   -0.22593700
 C                 -0.83046300   -3.41466600    2.31754300
 C                 -1.00771100   -2.68618100    1.15404200
 C                 -3.40919600   -1.14478300   -1.01236800
 C                 -3.82762500   -0.81621100   -2.30978100
 C                 -5.06831700   -1.20876400   -2.78969800
 C                 -5.93648900   -1.95314200   -1.97958700
 C                 -5.52580200   -2.28642800   -0.68248500
 C                 -4.28259500   -1.88684900   -0.20968400
 C                  3.63610100   -0.49937400   -1.19766900
 C                  3.83341500   -0.25739700   -2.56189700
 C                  5.09580800   -0.34054500   -3.13393900
 C                  6.21054500   -0.67423500   -2.35396800
 C                  6.02144100   -0.91194500   -0.98452700
 C                  4.75712100   -0.82018700   -0.42115400
 C                  2.08084400   -1.34871000    1.00976400
 C                  2.21768600   -3.17244100    3.15254200
 C                  2.45847700   -3.59943600    1.84207100
 C                  2.37250800   -2.70100100    0.78910100
 H                 -2.46271500    0.08471800    2.45722700
 H                 -2.07554500   -1.16833800    4.53889900
 H                  1.62702000    0.11252900    2.53087700
 H                  1.71100500   -1.48885500    4.39192400
 C                 -1.59160900   -1.41321700    1.17401400
 C                 -1.99275500   -0.89426200    2.40735100
 C                 -1.78444800   -1.60308400    3.58548200
 C                 -1.18023000   -2.86546600    3.55982200
 C                  1.85633200   -0.92769300    2.32138700
 C                  1.92049700   -1.82777500    3.37997100
 H                 -4.25881700    1.23038500   -0.58387100
 H                 -2.80652900    4.85324700    1.19851800
 H                 -4.60603900    3.58410600    0.09343300
 H                  2.22439000    5.16489000    1.38739200
 H                  4.20910200    1.80381800   -0.38277200
 H                  4.22861600    4.15273100    0.37193000
 C                 -3.45775100    1.77864300   -0.09832800
 C                 -2.22955300    1.15211100    0.12271800
 C                 -1.24169100    1.89848900    0.76120600
 C                 -1.40370100    3.21909500    1.17331300
 C                 -2.63391000    3.82142300    0.91038900
 C                 -3.65120400    3.10491000    0.28396000
 C                  1.07283000    2.04286600    0.83528900
 C                  1.04347500    3.36989900    1.26384000
 C                  2.20095000    4.12398100    1.08172700
 C                  3.33408200    3.55319300    0.50562800
 C                  3.32651000    2.22542900    0.08654400
 C                  2.17863100    1.44120600    0.23726200
 C                 -0.24102600    3.85553800    1.93006700
 O                 -0.04364000    1.25886500    0.99096600
 P                 -1.77587800   -0.54813100   -0.42850300
 P                  1.97000900   -0.25586400   -0.46361100
 C                 -0.26567700    3.31910100    3.37981100
 H                  0.58647600    3.71400400    3.94313000
 H                 -1.19196900    3.62576900    3.87703100
 H                 -0.21495400    2.22546000    3.39142600
 C                 -0.33440100    5.37995800    1.95725800
 H                 -1.25532000    5.69714100    2.45473900
 H                  0.49716700    5.80480900    2.52695800
 H                 -0.31907800    5.80048900    0.94683100
 N                  2.17906000   -4.10037800    4.21348200
 N                 -0.93457900   -3.58589100    4.72716800
 N                  7.46590400   -0.82210100   -2.93259300
 N                 -7.15530700   -2.40757000   -2.47855800
 Rh                 0.20278400   -0.62964700   -2.01641700
 H                  1.30833200   -1.53436200   -2.72381200
 C                  0.21345400    1.09675900   -2.88804900
 O                  0.30756500    2.07301000   -3.48909700
 H                  2.47387500   -3.69833600    5.09729700
 H                  2.71750000   -4.93917800    4.02491400
 H                 -0.97075000   -3.02402000    5.56854000
 H                 -0.07670100   -4.13131300    4.68235700
 H                  7.60044600   -0.31906700   -3.79964100
 H                  8.24705300   -0.70520900   -2.30099400
 H                 -7.86010500   -2.59088100   -1.77650300
 H                 -7.52351100   -1.86469300   -3.24861400
 C                  0.23290900   -2.63070100   -3.02361600
 C                 -0.85946200   -1.78055600   -3.42777900
 C                 -0.86550300   -1.22724900   -4.82551900
 O                 -1.41012900   -2.18263300   -5.76882300
 C                 -2.73687900   -2.14629500   -5.94557700
 C                 -3.18787400   -3.24075800   -6.87935400
 O                 -3.47198900   -1.34322000   -5.41992000
 H                  0.94859900   -2.93713200   -3.78855700
 H                  0.05595000   -3.41142500   -2.28918300
 H                 -1.84515100   -2.04068300   -3.04899200
 H                  0.15412300   -1.04133400   -5.17306000
 H                 -1.44875800   -0.30685100   -4.89650100
 H                 -3.03563500   -4.20952400   -6.39558100
 H                 -2.58868100   -3.22758700   -7.79231300
 H                 -4.24337800   -3.10747100   -7.11156000

