97

 H                 -2.15402100   -4.65976200    1.01767800
 H                 -2.58293700   -2.79943100   -0.56472000
 H                 -3.31269100    0.40005300   -3.06778600
 H                 -5.62688700    0.13259300   -3.94396100
 H                 -6.95130600   -1.13498900   -0.06720700
 H                 -4.63773100   -0.86569000    0.81127600
 H                  4.27200700   -1.81507100   -0.02159800
 H                  6.33266800   -2.24969700   -1.30978700
 H                  4.84823400    0.14790900   -4.53907200
 H                  2.75068700    0.56121700   -3.25979500
 H                  2.44468200   -1.60620500    4.11525800
 H                  2.54351700    0.04159400    2.25641600
 C                 -1.97295000   -3.62999200    1.30766800
 C                 -2.19840400   -2.58049900    0.42806200
 C                 -3.81881100   -0.20632400   -1.07324600
 C                 -4.11465400    0.06828500   -2.41047900
 C                 -5.40870000   -0.08145800   -2.90018800
 C                 -6.42464900   -0.51435200   -2.04896300
 C                 -6.14457400   -0.79613700   -0.70812000
 C                 -4.85213600   -0.64257600   -0.23097600
 C                  3.36077500   -0.59610000   -1.54667500
 C                  4.38226100   -1.38399400   -1.01260900
 C                  5.54732400   -1.62847400   -1.73498100
 C                  5.71073600   -1.07267200   -3.00320300
 C                  4.70335400   -0.27364900   -3.55014200
 C                  3.54149500   -0.05007600   -2.82728300
 C                  1.85105100   -1.34682400    0.75856600
 C                  1.76617700   -3.20021900    2.85774900
 C                  2.18051500   -1.89315600    3.10253900
 C                  2.22338700   -0.97733200    2.05559300
 H                 -1.30683200    0.01211400    2.42829600
 H                 -0.86893700   -1.83939500    3.97619500
 H                  1.15377500   -2.98027900   -0.46348400
 H                  1.09467600   -4.61727400    1.38077700
 C                 -1.94282300   -1.25101000    0.79654000
 C                 -1.49069100   -1.00240300    2.09370200
 C                 -1.25432700   -2.04669600    2.98044300
 C                 -1.46193700   -3.36248100    2.57800600
 C                  1.45986500   -2.67183000    0.53388600
 C                  1.43741400   -3.60130100    1.56385800
 H                 -4.35067200    1.99922400    0.14104200
 H                 -2.24025100    5.12933900    2.16816000
 H                 -4.32309400    4.22393100    1.21671600
 H                  2.77814400    4.94084100    1.61129200
 H                  4.21435400    1.60655500   -0.66574000
 H                  4.55511400    3.85698800    0.29358100
 C                 -3.43175200    2.37738100    0.57725200
 C                 -2.26567900    1.61212400    0.50360500
 C                 -1.10539200    2.15054300    1.06544600
 C                 -1.05483700    3.40202100    1.67703700
 C                 -2.23485900    4.14393400    1.71451800
 C                 -3.41340000    3.63407800    1.17608200
 C                  1.21935900    2.05436800    0.82316000
 C                  1.38958200    3.30883300    1.40748100
 C                  2.60581900    3.95563200    1.19117500
 C                  3.61125300    3.34413500    0.44675500
 C                  3.41976300    2.07542300   -0.09428600
 C                  2.20505500    1.40564400    0.07563300
 C                  0.26914100    3.82135800    2.30756900
 O                  0.03238500    1.37918200    0.99407200
 P                 -2.10981500    0.06272300   -0.47759400
 P                  1.78026900   -0.21748000   -0.68820100
 C                  0.39617900    3.10383100    3.67129000
 H                  1.35133600    3.35848000    4.14256800
 H                 -0.41978700    3.40719600    4.33561400
 H                  0.35436100    2.01686500    3.54439400
 C                  0.34919800    5.33147900    2.52702800
 H                  1.29673700    5.59942700    3.00247600
 H                  0.26220400    5.87833200    1.58301400
 H                 -0.44592300    5.66365300    3.20031300
 O                  1.64827100   -4.04667100    3.92640800
 O                 -1.14585800   -4.42050400    3.37863300
 O                  6.82483200   -1.27455700   -3.75441400
 O                 -7.70531900   -0.68530000   -2.46462100
 Rh                -0.50852300    0.16691400   -2.17880900
 H                  0.28446400    0.12544700   -3.60446400
 C                 -0.45603900    2.03217500   -2.21334500
 O                 -0.45977600    3.18297700   -2.21581200
 H                  1.35392400   -4.90979800    3.59584000
 H                 -0.67283900   -4.08149700    4.15570800
 H                  7.43750500   -1.84522400   -3.26906700
 H                 -7.76920900   -0.46015300   -3.40390700
 C                 -0.99363400   -1.90509800   -2.73200600
 C                 -0.32981200   -1.37840700   -3.86030900
 C                  1.03888300   -1.92492500   -4.20738900
 O                  0.92675300   -3.24549400   -4.76274500
 C                  0.50862400   -3.30684800   -6.03964000
 C                  0.43187700   -4.73568600   -6.51168300
 O                  0.23537500   -2.33654400   -6.70185000
 H                 -0.47481400   -2.63060800   -2.10872900
 H                 -2.07623600   -1.99766300   -2.75644100
 H                 -0.92105200   -1.07363200   -4.71926400
 H                  1.64165700   -2.04931600   -3.30505700
 H                  1.56835400   -1.28493700   -4.91774700
 H                 -0.29631200   -5.28105000   -5.90567200
 H                  1.40129300   -5.22261500   -6.38191200
 H                  0.13555500   -4.75424400   -7.55918900

