97

 H                 -2.02727500   -4.82366500    1.65077000
 H                 -2.19838800   -3.17154300   -0.19742500
 H                 -2.92148000    0.13923700   -3.02082800
 H                 -5.15771300   -0.12605200   -3.98901800
 H                 -6.61440400   -1.67094800   -0.25850000
 H                 -4.34655500   -1.43126100    0.72086400
 H                  4.50404100   -1.41603000    0.65540100
 H                  6.71940600   -1.89736400   -0.31865800
 H                  5.33859100   -0.58346400   -4.15883900
 H                  3.09112100   -0.12289500   -3.18783100
 H                  2.34187400   -1.19880000    4.43418500
 H                  2.62605600    0.23174900    2.42281200
 C                 -1.88083400   -3.76421000    1.83450900
 C                 -1.96552900   -2.83202600    0.81045000
 C                 -3.45961500   -0.63748400   -1.08041600
 C                 -3.72226300   -0.25605900   -2.40013200
 C                 -4.99352600   -0.38537100   -2.94727100
 C                 -6.02950200   -0.90029800   -2.17034800
 C                 -5.79237300   -1.27605400   -0.84588600
 C                 -4.51870300   -1.14312500   -0.31212500
 C                  3.63633600   -0.73603600   -1.19677600
 C                  4.67286000   -1.23218900   -0.40199500
 C                  5.92420300   -1.50158000   -0.94649300
 C                  6.15828400   -1.26474200   -2.30128900
 C                  5.13652700   -0.75996000   -3.10793900
 C                  3.88885400   -0.50542000   -2.55637700
 C                  1.93681200   -1.27684300    1.04252000
 C                  1.64870800   -2.88658900    3.31369300
 C                  2.12531300   -1.58335700    3.44298600
 C                  2.26931900   -0.78878100    2.31020700
 H                 -1.34473200   -0.00293800    2.58076700
 H                 -1.11887200   -1.65466300    4.38903000
 H                  1.21740100   -2.98779200   -0.04686000
 H                  1.01025400   -4.42856200    1.95367500
 C                 -1.76996800   -1.46294000    1.04997900
 C                 -1.49151300   -1.05402600    2.35419500
 C                 -1.38326100   -1.98270500    3.38601100
 C                 -1.55494200   -3.33675700    3.12171900
 C                  1.49693500   -2.59966600    0.93039200
 C                  1.37968900   -3.41025300    2.04878400
 H                 -4.15103700    1.55819300   -0.16026200
 H                 -2.36577900    4.98820800    1.68450400
 H                 -4.32176700    3.86378700    0.69167500
 H                  2.66372700    5.08194900    1.33961200
 H                  4.33614500    1.66878900   -0.65042700
 H                  4.51951200    4.01187600    0.12465000
 C                 -3.28415400    2.02847500    0.29125000
 C                 -2.07450500    1.32921000    0.36571000
 C                 -0.99813900    1.99226300    0.95278000
 C                 -1.05591400    3.29769100    1.44142500
 C                 -2.27296800    3.96679600    1.33047600
 C                 -3.37835900    3.33310400    0.76717200
 C                  1.31899500    2.03568900    0.81643300
 C                  1.39142200    3.34620400    1.28201000
 C                  2.56313600    4.05270600    1.01103500
 C                  3.61367900    3.44862100    0.32314500
 C                  3.51294000    2.12890300   -0.11274700
 C                  2.34484500    1.40056000    0.12084700
 C                  0.20570000    3.85553200    2.09554100
 O                  0.18396200    1.29257100    1.04131300
 P                 -1.78216600   -0.33013200   -0.40003700
 P                  1.99638800   -0.29265900   -0.50186600
 C                  0.31436600    3.26167100    3.51882400
 H                  1.22832500    3.61759300    4.00590200
 H                 -0.54886400    3.56508600    4.12027000
 H                  0.34600700    2.16772800    3.48387500
 C                  0.18203700    5.38006700    2.18842600
 H                  1.09044000    5.74705200    2.67458500
 H                  0.10281200    5.84119600    1.19896100
 H                 -0.66154600    5.71363500    2.79931700
 O                  1.41647600   -3.60336900    4.44869200
 O                 -1.35875500   -4.29566400    4.08063700
 O                  7.35776000   -1.50786900   -2.89007000
 O                 -7.28923800   -1.06365300   -2.65171400
 Rh                 0.20179200   -0.58802600   -2.02895400
 H                  1.22003400   -1.62600200   -2.67988600
 C                  0.33990500    1.08749600   -2.98363900
 O                  0.53104100    2.00357400   -3.65192300
 H                  0.91607800   -4.39953700    4.20588000
 H                 -1.17804200   -3.84996500    4.92291000
 H                  7.97168700   -1.86086200   -2.23039900
 H                 -7.30702000   -0.79111900   -3.58055800
 C                  0.06167400   -2.63520200   -2.91106000
 C                 -0.95218300   -1.72292000   -3.38394300
 C                 -0.89169000   -1.26337700   -4.81384400
 O                 -1.46882700   -2.24255800   -5.71228600
 C                 -2.78906000   -2.15456800   -5.91228500
 C                 -3.27439100   -3.26270200   -6.81206600
 O                 -3.49420600   -1.29819300   -5.43069300
 H                  0.74949100   -3.05816200   -3.64544800
 H                 -0.18917700   -3.34769400   -2.12911500
 H                 -1.96222500   -1.87824300   -3.01027800
 H                  0.14529000   -1.16178300   -5.14360000
 H                 -1.41470000   -0.31569400   -4.96008800
 H                 -3.12859500   -4.22419900   -6.31246600
 H                 -2.69013100   -3.27774300   -7.73486300
 H                 -4.33056700   -3.11580300   -7.03257500