109

 H                 -1.80992600    4.47890300    2.09762300
 H                 -1.88862500    2.00757000    2.31687000
 H                 -2.70270200   -2.61795300    1.42858200
 H                 -4.61105700   -3.29502000    2.80037400
 H                 -6.08799100    0.73836800    2.72865800
 H                 -4.17247800    1.41568600    1.30605200
 H                  4.56594400    1.21774100    0.15921200
 H                  6.81915300    0.87948900    1.14960600
 H                  5.35131300   -2.52472000    3.31692500
 H                  3.11898500   -2.17588700    2.35444200
 H                  1.30939900    4.43792900    1.40316900
 H                  1.33686300    2.03005700    1.88245700
 C                 -1.74274500    3.83881300    1.22373700
 C                 -1.79001500    2.46027900    1.33129900
 C                 -3.28176700   -0.55151900    1.27511400
 C                 -3.45404500   -1.87568200    1.69152500
 C                 -4.53828900   -2.26659300    2.46890900
 C                 -5.47103300   -1.30468000    2.86956800
 C                 -5.33760600    0.01498900    2.42730300
 C                 -4.25905600    0.38388800    1.63270400
 C                  3.67585700   -0.45791200    1.19107000
 C                  4.73459800    0.39884100    0.85326900
 C                  5.99506800    0.21854800    1.39637000
 C                  6.23315700   -0.83522000    2.28802000
 C                  5.19423900   -1.70233500    2.62927800
 C                  3.92711000   -1.50209200    2.08134200
 C                  1.96869800    1.44645200   -0.08463900
 C                  1.90504200    4.19245300   -0.66347600
 C                  1.59737000    3.74461300    0.62184700
 C                  1.61452500    2.37939000    0.89038200
 H                 -1.49204900    1.64783800   -1.94881700
 H                 -1.33007200    4.07520400   -2.15004900
 H                  2.56298900    1.21427900   -2.14962700
 H                  2.47615700    3.64203600   -2.65047800
 C                 -1.72773600    1.63979100    0.19129400
 C                 -1.56123200    2.25074900   -1.04843600
 C                 -1.47898300    3.63868500   -1.16972600
 C                 -1.58061800    4.43641200   -0.03258400
 C                  2.27987400    1.91395500   -1.36780700
 C                  2.24064900    3.26986700   -1.65879200
 H                 -4.15908700   -1.26669000   -0.99068900
 H                 -2.48479900   -2.59921900   -4.70654500
 H                 -4.41389200   -2.35654400   -3.19267100
 H                  2.55051700   -3.10513300   -4.54708900
 H                  4.28990000   -1.96136300   -0.79469900
 H                  4.41356500   -3.18941700   -2.93907200
 C                 -3.30797600   -1.33927500   -1.65962600
 C                 -2.06716900   -0.83493900   -1.25714600
 C                 -1.01433400   -0.94774500   -2.16125700
 C                 -1.11189900   -1.57616200   -3.40254600
 C                 -2.35699000   -2.09204900   -3.75578300
 C                 -3.44786100   -1.96030000   -2.89753200
 C                  1.29348300   -1.14585600   -2.11072400
 C                  1.33111000   -1.80889800   -3.33456700
 C                  2.47471000   -2.55723500   -3.61349600
 C                  3.52935100   -2.60632500   -2.70363400
 C                  3.46216500   -1.91447800   -1.49557900
 C                  2.32251900   -1.17458400   -1.17364000
 C                  0.14367900   -1.59910300   -4.27130000
 O                  0.18603800   -0.40299200   -1.77321200
 P                 -1.69523900   -0.17810100    0.42692400
 P                  2.01356800   -0.31711100    0.42554800
 C                  0.29767800   -0.21017800   -4.93254500
 H                 -0.56094400   -0.00439400   -5.58025700
 H                  0.35752200    0.57811300   -4.17507100
 H                  1.21128900   -0.18019500   -5.53551700
 C                  0.07173900   -2.66916300   -5.35903600
 H                 -0.04061700   -3.66994700   -4.93036600
 H                 -0.77119300   -2.47812900   -6.02927900
 H                  0.97632100   -2.65045900   -5.97353900
 O                  1.89113300    5.50006900   -1.03915900
 O                 -1.51671900    5.79542900   -0.03961200
 O                  7.49913800   -0.92906000    2.76476800
 O                 -6.52238100   -1.55946400    3.68978200
 Rh                 0.22749700   -1.04592600    1.80425100
 H                  1.26993600   -0.81910100    2.99377600
 C                  0.30291000   -2.97065700    1.53134200
 O                  0.51581800   -4.09865300    1.46163200
 C                  1.73593600    6.46502100   -0.01633200
 H                  1.83446900    7.43618700   -0.50280200
 H                  0.75017900    6.39038900    0.45699700
 H                  2.51824700    6.35686300    0.74436700
 C                 -1.34904900    6.42731100   -1.29322400
 H                 -1.32985100    7.49851000   -1.08982500
 H                 -0.40600800    6.12417700   -1.76420300
 H                 -2.18637500    6.19989900   -1.96353300
 C                  7.77984600   -1.97616400    3.66722400
 H                  7.17069400   -1.89325600    4.57524000
 H                  7.60788200   -2.95625000    3.20635200
 H                  8.83352400   -1.87759400    3.92705400
 C                 -6.72138300   -2.90404600    4.09085700
 H                 -7.59693800   -2.89465900    4.74008900
 H                 -6.91833500   -3.54455300    3.22272300
 H                 -5.85414200   -3.29239200    4.63696300
 C                  0.19939600   -0.08031300    3.83871200
 C                 -0.98603400   -0.83067700    3.52507700
 C                 -1.34899300   -2.06510000    4.30002900
 O                 -2.24538400   -1.66125700    5.36392900
 C                 -3.30372700   -2.43791200    5.61657300
 C                 -4.29078600   -1.74373000    6.52081900
 O                 -3.47624900   -3.53942500    5.14461500
 H                  0.80116400   -0.40957300    4.68690800
 H                  0.18997300    1.00107000    3.73139900
 H                 -1.86656400   -0.24805300    3.26203600
 H                 -0.46690900   -2.53475000    4.75060100
 H                 -1.86688900   -2.80459100    3.68828600
 H                 -5.00494000   -1.20470500    5.88649500
 H                 -3.79520400   -1.02464200    7.17337400
 H                 -4.83520900   -2.48779700    7.10313500

