95

 H                 -0.75497400   -4.38311800    2.53760300
 H                 -0.94220200   -3.04522700    0.45794900
 H                 -3.78594500   -1.66927900    1.47747700
 H                 -6.16420200   -2.10695300    0.97492400
 H                 -5.67682600   -0.31504600   -2.90686100
 H                 -3.31382500    0.13384000   -2.40777200
 H                  4.71613400   -1.63079200    0.02113500
 H                  6.74314600   -2.17950500   -1.27409800
 H                  4.75601000   -0.99972300   -4.89477700
 H                  2.71173800   -0.47324000   -3.59865500
 H                  2.29530600   -4.93367100    1.40258700
 H                  2.24777100   -3.36488100   -0.51669200
 C                 -0.95721100   -3.31742100    2.59477600
 C                 -1.06439300   -2.56675300    1.42837800
 C                 -3.37965300   -0.72932500   -0.42503800
 C                 -4.19418000   -1.36642500    0.51884200
 C                 -5.53332300   -1.61364300    0.24319300
 C                 -6.07320000   -1.22273900   -0.98625500
 C                 -5.27181300   -0.58727600   -1.93962800
 C                 -3.93358500   -0.34574800   -1.65354500
 C                  3.56892900   -1.02834500   -1.70526600
 C                  4.71641000   -1.50186100   -1.05771600
 C                  5.86226900   -1.80608500   -1.78679000
 C                  5.87925800   -1.62857500   -3.16900500
 C                  4.74766100   -1.14443300   -3.81907400
 C                  3.59678000   -0.84769600   -3.09170900
 C                  2.19375000   -1.59391300    0.71568600
 C                  2.21884800   -3.36156300    2.87548000
 C                  2.26181900   -3.86194200    1.56838900
 C                  2.23514600   -2.97926900    0.50053100
 H                 -1.67361200    0.48280200    2.80077000
 H                 -1.41657100   -0.83929600    4.86964700
 H                  2.14303000   -0.03890600    2.21215800
 H                  2.12610600   -1.60895400    4.11812000
 C                 -1.33513800   -1.19475000    1.48732700
 C                 -1.45684900   -0.57993900    2.73625600
 C                 -1.32179900   -1.32843100    3.90486400
 C                 -1.08261800   -2.69857800    3.83782400
 C                  2.17002700   -1.10662300    2.02383000
 C                  2.17276100   -1.98486700    3.10167100
 H                 -3.87445600    1.73645800    0.04807800
 H                 -1.71633900    5.19612300    1.36876800
 H                 -3.81510200    4.12821400    0.64679400
 H                  3.29419900    4.85969700    0.75231100
 H                  4.54825800    1.21256200   -1.11332000
 H                  4.97592100    3.55941900   -0.49145700
 C                 -2.93985100    2.18857600    0.36284300
 C                 -1.77349100    1.42144400    0.40981600
 C                 -0.61029700    2.05718500    0.83813900
 C                 -0.54073800    3.39987700    1.20092200
 C                 -1.71789600    4.14222000    1.11121800
 C                 -2.90529500    3.53977600    0.70105500
 C                  1.68838500    1.90306500    0.54201900
 C                  1.89082200    3.23501700    0.90023100
 C                  3.09252800    3.82197100    0.50830100
 C                  4.04389000    3.08831100   -0.19771800
 C                  3.80642300    1.76069000   -0.54240500
 C                  2.60447900    1.14256800   -0.18268000
 C                  0.79867800    3.90933500    1.72669600
 O                  0.52071700    1.27475300    0.90524600
 P                 -1.60185700   -0.33538200   -0.11768700
 P                  2.06599600   -0.51921800   -0.77147900
 C                  0.94408500    3.43980100    3.19246600
 H                  0.86551300    2.35001100    3.26348500
 H                  1.91688200    3.74478600    3.59173000
 H                  0.15419800    3.88221200    3.80820300
 C                  0.89653000    5.43307300    1.67503700
 H                  0.79955700    5.80716900    0.65108700
 H                  0.11426400    5.88684800    2.28979000
 H                  1.85395100    5.76946400    2.08272000
 C                  2.14501700   -4.26767700    3.98973200
 H                 -0.97930000   -3.28367400    4.74675300
 H                  6.77358200   -1.86622400   -3.73644300
 C                 -7.45905300   -1.48683500   -1.27313900
 Rh                 0.05450900   -0.70264700   -2.00402800
 H                  0.92012300   -1.73589100   -2.84944500
 C                  0.11934300    1.01137900   -2.91275700
 O                  0.24051600    1.96537000   -3.54034400
 N                  2.05356500   -4.99317600    4.88708900
 N                 -8.57372200   -1.70022000   -1.49867400
 C                 -0.31752800   -2.70092700   -2.94812300
 C                 -1.34582000   -1.72756300   -3.20967100
 C                 -1.49162100   -1.18779500   -4.60646900
 O                 -2.29069000   -2.06488900   -5.43285200
 C                 -3.61689900   -1.88905500   -5.35500600
 C                 -4.35106300   -2.87986600   -6.21953400
 O                 -4.14363400   -1.04027400   -4.67301000
 H                  0.23539700   -3.09980300   -3.80004300
 H                 -0.46969000   -3.44357200   -2.17005500
 H                 -2.28808600   -1.85784600   -2.68251400
 H                 -0.52054100   -1.14049900   -5.10586300
 H                 -1.95258400   -0.19764000   -4.61281600
 H                 -4.16518000   -3.89150900   -5.84911900
 H                 -3.97709300   -2.82891400   -7.24464900
 H                 -5.41796100   -2.66436200   -6.19218200

