95

 H                 -1.44549500   -3.62282100    3.97953300
 H                 -1.62380400   -2.88311400    1.63100500
 H                 -3.28966700   -0.73492300   -2.12818300
 H                 -5.55717400   -1.47102200   -2.73061800
 H                 -6.58637400   -1.73358900    1.42672200
 H                 -4.28862500   -1.01923800    2.04239900
 H                  2.59206900   -1.29703500   -3.31383200
 H                  4.63236400   -2.23404100   -4.40179100
 H                  6.56470100   -2.43880200   -0.57033300
 H                  4.53832000   -1.50248300    0.50413200
 H                  1.61944100   -4.55997900    2.32706100
 H                  1.86044500   -3.37291300    0.16006700
 C                 -1.51755300   -2.56362500    3.75200700
 C                 -1.61134300   -2.14386100    2.42949000
 C                 -3.61214500   -0.83445400    0.00144600
 C                 -4.00210800   -0.95789600   -1.33763700
 C                 -5.28774100   -1.35744200   -1.68324200
 C                 -6.21244500   -1.64228900   -0.67891600
 C                 -5.84865500   -1.51148900    0.66301000
 C                 -4.56118200   -1.11109500    0.99471900
 C                  3.44096100   -1.33475300   -1.34392700
 C                  3.47310500   -1.54652200   -2.72498300
 C                  4.61468800   -2.07156200   -3.32857200
 C                  5.72623200   -2.39229400   -2.55453900
 C                  5.69931200   -2.18644200   -1.17525800
 C                  4.56187600   -1.66009300   -0.57128800
 C                  1.87615300   -1.40132500    1.03811900
 C                  1.60920100   -2.75203700    3.47804400
 C                  1.68200300   -3.47768600    2.28748700
 C                  1.80759100   -2.80191500    1.08363400
 H                 -1.73109900    1.21471300    2.92714200
 H                 -1.51524100    0.47460700    5.26923300
 H                  1.91055900    0.38595500    2.24773500
 H                  1.65270700   -0.79960000    4.38238100
 C                 -1.70336800   -0.78232600    2.11145100
 C                 -1.65746500    0.15366100    3.14908500
 C                 -1.54097800   -0.26495800    4.47401100
 C                 -1.48014300   -1.62231800    4.77993700
 C                  1.84084500   -0.69625700    2.24156200
 C                  1.70801600   -1.36374500    3.45453300
 H                 -4.10452200    1.69089100    0.07182200
 H                 -1.92936500    5.36773200    0.45368300
 H                 -4.04537400    4.16710700    0.07555700
 H                  3.08808600    4.96363200   -0.09391700
 H                  4.40761300    1.03176500   -1.16803100
 H                  4.80921900    3.46544300   -1.01839100
 C                 -3.16389500    2.21264100    0.21982400
 C                 -1.99063600    1.47524200    0.39092200
 C                 -0.80560600    2.19075400    0.57407400
 C                 -0.74138900    3.58156800    0.63436200
 C                 -1.93077100    4.28301000    0.43571600
 C                 -3.12911700    3.60513800    0.22403700
 C                  1.50982400    2.00543700    0.27280100
 C                  1.69820300    3.38392700    0.35582800
 C                  2.90266800    3.89530600   -0.12670400
 C                  3.87598900    3.05021000   -0.65264500
 C                  3.65460700    1.67769800   -0.72809000
 C                  2.45230700    1.13024900   -0.27504800
 C                  0.59726800    4.20638500    1.01779100
 O                  0.34120400    1.44467100    0.73275300
 P                 -1.86701700   -0.35939300    0.32384800
 P                  1.92802400   -0.60135300   -0.60962000
 C                  0.75583900    4.06824800    2.54963100
 H                  1.72510200    4.46707900    2.86713500
 H                 -0.04019100    4.61928700    3.06151900
 H                  0.69747200    3.01743000    2.85286000
 C                  0.67508900    5.68417400    0.63672700
 H                  0.56927800    5.82478900   -0.44343800
 H                 -0.11043300    6.25125500    1.14373300
 H                  1.62895200    6.11346300    0.95569100
 O                  1.42925000   -3.45064700    4.63067300
 H                 -1.41275200   -1.94726900    5.81486000
 H                  6.61372400   -2.80640600   -3.02314400
 O                 -7.47991100   -2.05295800   -0.94735200
 Rh                 0.00739200   -0.73889100   -1.93594400
 H                 -1.24107700   -1.00016000   -2.94841200
 C                  0.10400000    1.02559000   -2.51415400
 O                  0.18987700    2.11703100   -2.86778700
 H                  1.27543800   -2.82283800    5.35168900
 H                 -7.59422100   -2.11695300   -1.90643000
 C                 -0.08671300   -2.92910000   -1.78550800
 C                 -1.08145300   -2.57734700   -2.72493600
 C                 -0.90161700   -2.89997300   -4.19251400
 O                 -1.39945400   -4.22050200   -4.46824300
 C                 -2.73811400   -4.32682600   -4.54086900
 C                 -3.15047400   -5.74755800   -4.82419800
 O                 -3.49435400   -3.39690900   -4.39222300
 H                  0.84981800   -3.35131200   -2.14709700
 H                 -0.38405100   -3.21959700   -0.78239100
 H                 -2.11818000   -2.63101400   -2.39608500
 H                  0.15826100   -2.92639200   -4.45213100
 H                 -1.42441200   -2.18904200   -4.83532600
 H                 -2.82692200   -6.39047000   -4.00143400
 H                 -2.66087500   -6.10310700   -5.73379700
 H                 -4.23284000   -5.79544700   -4.93189000

