101

 H                 -6.85203900    1.63425900   -0.42840400
 H                 -4.53681300    1.34421500    0.39315900
 H                 -1.23249000    2.37506000   -1.58021700
 H                 -0.83961500    4.54115200   -0.51706200
 H                 -1.93820000    2.88533500    3.28891600
 H                 -2.37022500    0.69444900    2.20949200
 H                  2.05721100    2.05706400   -2.18507000
 H                  2.33694400    4.32988300   -1.23333300
 H                  1.69900200    2.74728300    2.70619200
 H                  1.47050300    0.50385900    1.78107000
 H                  6.45328300    0.09820000   -1.77825600
 H                  4.37542800    0.14179800   -0.43309700
 C                 -6.14566600    1.04244600   -1.00241300
 C                 -4.84370400    0.87936600   -0.54045000
 C                 -1.84604100    1.37640300    0.22646900
 C                 -1.40876100    2.47644100   -0.51224700
 C                 -1.18893500    3.71278800    0.08756900
 C                 -1.38260600    3.85205000    1.46268100
 C                 -1.79841900    2.75363100    2.22091400
 C                 -2.03175500    1.53270500    1.60643900
 C                  1.74791500    1.10201800   -0.27042400
 C                  1.98283600    2.20444200   -1.10954400
 C                  2.14198800    3.47710800   -0.59098400
 C                  2.04627900    3.68680900    0.78952900
 C                  1.79393300    2.60968800    1.63557100
 C                  1.65138300    1.32847200    1.09957800
 C                  3.12260100   -0.56755000   -2.03785700
 C                  5.46874500   -0.59420800   -3.56679900
 C                  5.51118200   -0.20013900   -2.22793900
 C                  4.34577100   -0.18007800   -1.47163700
 H                 -3.59627000   -1.02564800   -3.05866600
 H                 -5.93087300   -0.75032400   -3.88093900
 H                  2.13705700   -1.20745500   -3.83457300
 H                  4.21691900   -1.25212600   -5.18879700
 C                 -3.92383700    0.12267400   -1.27599700
 C                 -4.32434700   -0.45962200   -2.48127100
 C                 -5.63044900   -0.29771800   -2.94111400
 C                 -6.54076600    0.45225100   -2.20281500
 C                  3.08964400   -0.94521100   -3.38118500
 C                  4.25850900   -0.96084100   -4.14383100
 H                 -4.60718700   -1.69695400    0.39959900
 H                 -2.77234700   -4.12995300    3.41648600
 H                 -4.76353600   -3.45362300    2.13249500
 H                  2.19036900   -4.57473400    2.94266600
 H                  3.82238600   -2.47108100   -0.41348600
 H                  3.98274700   -4.25231300    1.28156000
 C                 -3.72417600   -1.97996700    0.96388200
 C                 -2.50243700   -1.36221100    0.69105000
 C                 -1.39620900   -1.76600800    1.44126100
 C                 -1.45102400   -2.74377000    2.43242100
 C                 -2.68459100   -3.35339900    2.66388500
 C                 -3.81031700   -2.97308100    1.93837600
 C                  0.91888100   -1.96030300    1.22812100
 C                  0.98161600   -2.95237100    2.20662600
 C                  2.10362300   -3.77976200    2.20963400
 C                  3.11695100   -3.59830900    1.27146900
 C                  3.02958600   -2.58738700    0.31817900
 C                  1.91952600   -1.73585300    0.27751400
 C                 -0.16672300   -3.01433800    3.21014000
 O                 -0.19703500   -1.15401900    1.15579900
 P                 -2.20754000   -0.17368700   -0.68277900
 P                  1.54751600   -0.54023600   -1.07713900
 C                 -0.21128500   -4.34778000    3.95394100
 H                 -1.03088000   -4.35425500    4.67797800
 H                 -0.34471800   -5.18822900    3.26541700
 H                  0.71245400   -4.50083700    4.51906700
 C                  0.02251200   -1.87063200    4.23273200
 H                 -0.80326400   -1.86997900    4.95192300
 H                  0.96468700   -2.00185200    4.77492800
 H                  0.04273100   -0.89761000    3.73144800
 H                  6.37909900   -0.60402000   -4.15828500
 H                 -7.55619600    0.58456000   -2.56360000
 O                  2.20206600    4.97334100    1.20745700
 O                 -1.17857500    5.00697500    2.15005700
 Rh                -0.70072400   -0.93366300   -2.32183000
 H                 -0.02929300   -1.74772700   -3.55993800
 C                 -0.98318900    0.48942400   -3.48940900
 O                 -1.18883500    1.35453700   -4.22363900
 C                  2.11813200    5.21692300    2.59692300
 H                  2.89269800    4.66370900    3.14148200
 H                  2.28226400    6.28752000    2.72493600
 H                  1.12873800    4.94740900    2.98573700
 C                 -0.86587700    6.16408700    1.39798400
 H                 -0.80387100    6.98094900    2.11788000
 H                  0.09528700    6.05446300    0.88293300
 H                 -1.65465100    6.38103200    0.66804700
 C                 -0.92773100   -3.00433100   -1.57391800
 C                 -0.48233200   -3.17082300   -2.89914200
 C                  0.90438900   -3.73924800   -3.12005800
 O                  0.92120500   -5.14774300   -2.84381900
 C                  0.37913500   -5.93308100   -3.79203200
 C                  0.44138200   -7.38301500   -3.38787600
 O                 -0.09021600   -5.51264400   -4.82040400
 H                 -0.23766500   -3.22743700   -0.76034900
 H                 -1.98030300   -3.14293400   -1.34589500
 H                 -1.20235700   -3.42109400   -3.67292700
 H                  1.61118800   -3.30678700   -2.40670000
 H                  1.25729700   -3.57469400   -4.14165600
 H                 -0.14662200   -7.53174200   -2.47842000
 H                  1.47337000   -7.66316700   -3.16396200
 H                  0.04652200   -7.99964200   -4.19366100

