93

 H                  4.58288600   -1.06623200    3.23452800
 H                  3.81312400   -1.22868100    0.89745500
 H                  1.83131300   -4.39625300    1.28047700
 H                  2.63762600   -6.65217500    0.66254400
 H                  2.99702700   -5.40945200   -3.43420200
 H                  2.19518400   -3.13525100   -2.80769400
 H                  1.45611500    2.75431100   -3.09518000
 H                  2.06993200    4.84619000   -4.26788600
 H                  3.45950300    6.50934600   -0.55935700
 H                  2.81407500    4.43880200    0.61766000
 H                  1.64417100    1.66414000    4.58583300
 H                  0.50578700    1.66517500    2.39904200
 C                  3.55099800   -1.33009900    3.02535100
 C                  3.11650800   -1.41849000    1.70795300
 C                  1.95114600   -3.62585600   -0.73150500
 C                  2.08250500   -4.61855200    0.24647100
 C                  2.53614400   -5.88751600   -0.10135300
 C                  2.86303100   -6.17481000   -1.42594100
 C                  2.73809100   -5.19080900   -2.40296600
 C                  2.28740400   -3.91842800   -2.05708300
 C                  2.09375100    3.45002400   -1.15935500
 C                  1.88725200    3.58432400   -2.53899600
 C                  2.23696700    4.75841700   -3.19879600
 C                  2.80972300    5.81229600   -2.48954200
 C                  3.01831700    5.68973700   -1.11828000
 C                  2.65724100    4.51864400   -0.45398800
 C                  2.31967400    1.93292300    1.26381100
 C                  3.60886700    1.94539200    3.75366400
 C                  2.22834900    1.78506400    3.67856200
 C                  1.58520800    1.78029300    2.44270000
 H                 -0.13391700   -2.23686800    2.26992800
 H                  0.63097700   -2.04248100    4.60318200
 H                  4.30140900    2.17028100    0.43700500
 H                  5.43115600    2.19579900    2.62952700
 C                  1.78881300   -1.75243600    1.41654700
 C                  0.89980200   -1.97217800    2.47230700
 C                  1.33325300   -1.86941500    3.79335700
 C                  2.65928100   -1.55583300    4.07206800
 C                  3.71445100    2.05598300    1.34682500
 C                  4.35279700    2.07673600    2.58225300
 H                 -0.55011900   -4.35505100   -0.60409700
 Br                -5.13899800   -2.69947400    0.09563600
 H                 -3.02066400   -4.48757700   -0.41807100
 Br                -4.77200300    3.25136400    0.46879400
 H                 -0.04620200    4.41324400   -0.24907200
 H                 -2.45949600    4.81911500    0.08881800
 C                 -1.12823000   -3.46088600   -0.39349600
 C                 -0.49173200   -2.24130000   -0.20911500
 C                 -1.28991500   -1.12059300    0.05458700
 C                 -2.68240900   -1.12241400    0.09839600
 C                 -3.26572300   -2.39368200   -0.05614200
 C                 -2.51382100   -3.53752000   -0.30092500
 C                 -1.13679700    1.24045100    0.14686200
 C                 -2.52269100    1.40403100    0.23344400
 C                 -2.95264700    2.74127100    0.23164100
 C                 -2.07207900    3.80759800    0.08200200
 C                 -0.71496200    3.57379800   -0.09030100
 C                 -0.21409000    2.27508300   -0.06229100
 C                 -3.45940900    0.18447800    0.33410100
 O                 -0.57237000    0.01093200    0.30478900
 P                  1.31623400   -1.94422900   -0.35394200
 P                  1.55809200    1.85384400   -0.40466500
 C                 -4.02489000    0.13501200    1.77289500
 H                 -4.69001500   -0.72131400    1.89881200
 H                 -3.20075800    0.04299400    2.48762700
 H                 -4.58462100    1.04250600    2.00471700
 C                 -4.55775200    0.31449800   -0.76982000
 H                 -4.42189500    1.22593400   -1.35191400
 H                 -4.50395500   -0.51776300   -1.47212100
 H                 -5.56104700    0.33280500   -0.33863700
 H                  4.10501300    1.95814600    4.71935800
 H                  2.99678700   -1.47714000    5.10119300
 H                  3.09283700    6.72529000   -3.00394500
 H                  3.21955900   -7.16463600   -1.69376900
 Rh                 1.86728700   -0.28153500   -1.93045100
 H                  2.42521000    0.51392600   -3.22617500
 C                  0.20251500   -0.37319900   -2.77020900
 O                 -0.83465600   -0.43816700   -3.26548100
 C                  4.02860900   -0.57826500   -1.59566600
 C                  3.93337800   -0.04481200   -2.89820200
 C                  4.49407800    1.34072700   -3.14643100
 O                  5.92983000    1.30628400   -3.15768500
 C                  6.49116900    0.80903200   -4.27535500
 C                  7.99397900    0.81701600   -4.17136000
 O                  5.85729800    0.41381600   -5.22203600
 H                  4.43084100    0.05708700   -0.80805300
 H                  4.19830000   -1.64470800   -1.47255800
 H                  4.00354600   -0.71653000   -3.74898400
 H                  4.23429300    2.01180400   -2.32446000
 H                  4.14018900    1.76369900   -4.09018000
 H                  8.30495100    0.17576600   -3.34247400
 H                  8.34700900    1.82863300   -3.95759600
 H                  8.42206600    0.45524800   -5.10476100

