93

 H                 -1.07806800   -4.73858100    3.40239300
 H                 -1.22527400   -3.80971400    1.12012800
 H                 -3.19527200   -1.62845800   -2.51497600
 H                 -5.43089900   -2.40112100   -3.23668100
 H                 -6.54192600   -3.00423300    0.86970800
 H                 -4.31201500   -2.22478600    1.59287900
 H                  4.53378100   -1.94705700    0.76798100
 H                  6.68253300   -2.53985800   -0.30469900
 H                  4.88101700   -2.09142000   -4.17877600
 H                  2.71625100   -1.49549500   -3.09278300
 H                  2.25276200   -5.27955300    2.32498700
 H                  2.21498400   -3.96433000    0.23924900
 C                 -1.34488800   -3.69552200    3.26227400
 C                 -1.42713000   -3.17137100    1.97730900
 C                 -3.59982100   -1.87559500   -0.41314200
 C                 -3.93031700   -1.93117100   -1.77281400
 C                 -5.19082400   -2.36190500   -2.17893900
 C                 -6.13110700   -2.75222000   -1.22882700
 C                 -5.81031500   -2.70284400    0.12626600
 C                 -4.55336000   -2.26448500    0.53444200
 C                  3.48696900   -1.68611200   -1.10085700
 C                  4.60847600   -1.97999400   -0.31586600
 C                  5.81709300   -2.31322600   -0.91946900
 C                  5.91664600   -2.35491800   -2.30984100
 C                  4.80647900   -2.06087000   -3.09627100
 C                  3.59434000   -1.72913500   -2.49372900
 C                  1.90002300   -2.07352800    1.23122400
 C                  1.93866500   -3.56935000    3.59872900
 C                  2.10136100   -4.20528200    2.36953500
 C                  2.07393700   -3.46346900    1.19376800
 H                 -2.27381300    0.02779200    2.75000600
 H                 -2.08148200   -0.89200200    5.02922800
 H                  1.59164600   -0.37082400    2.52241400
 H                  1.60406700   -1.69223300    4.59601500
 C                 -1.77259900   -1.82996500    1.77274600
 C                 -2.00025500   -1.01496000    2.88525200
 C                 -1.89854600   -1.53600200    4.17414700
 C                 -1.58042000   -2.87727000    4.36553200
 C                  1.72979000   -1.44552500    2.46696600
 C                  1.74531200   -2.19256600    3.64305500
 H                 -4.30911700    0.59557200   -0.35373300
 H                 -2.55055500    4.39607600    0.55775900
 Br                -5.15861500    3.41580300   -0.33121700
 H                  2.51567800    4.43683400    0.52918300
 H                  4.25601300    0.70271600   -0.63420500
 Br                 5.09998800    3.51465700   -0.48642800
 C                 -3.44231500    1.16641400   -0.03830300
 C                 -2.23547300    0.52476100    0.24255200
 C                 -1.16079300    1.31786800    0.64702600
 C                 -1.22925700    2.70098800    0.79149300
 C                 -2.43823300    3.32132600    0.48059700
 C                 -3.52177300    2.55089800    0.07186300
 C                  1.16883300    1.33787100    0.59851800
 C                  1.22637500    2.72004400    0.76819100
 C                  2.41434200    3.36289900    0.42797000
 C                  3.48905800    2.62018900   -0.04928800
 C                  3.40927300    1.24384200   -0.22712200
 C                  2.22304000    0.57824900    0.08744500
 C                 -0.00110800    3.40883000    1.35843400
 O                  0.01747600    0.66280200    0.92480900
 P                 -1.91528900   -1.27543500    0.02286500
 P                  1.87988300   -1.17557400   -0.37315700
 C                  0.01061200    3.18059300    2.88747300
 H                 -0.87799000    3.63255200    3.34007300
 H                  0.01229400    2.11130300    3.12309400
 H                  0.90339900    3.63507600    3.32913300
 C                 -0.01422300    4.90909200    1.07058900
 H                  0.86073400    5.39202000    1.51451600
 H                 -0.02065200    5.11119200   -0.00492200
 H                 -0.89407800    5.37618600    1.52149800
 H                  1.95500100   -4.14698400    4.51805900
 H                 -1.50847600   -3.28290300    5.37017800
 H                  6.86044300   -2.61690300   -2.77786200
 H                 -7.11165200   -3.09592200   -1.54316300
 Rh                 0.02571700   -1.41471500   -1.77786100
 H                 -1.00963700   -1.76073300   -2.97838600
 C                  0.09208100    0.35337100   -2.36863000
 O                  0.15778200    1.45122400   -2.70763200
 C                  0.25556100   -3.60957800   -1.82637000
 C                 -0.51890200   -3.29301200   -2.96453600
 C                  0.10876000   -3.33365300   -4.33994400
 O                  0.05467600   -4.66763100   -4.87478400
 C                 -1.14221200   -5.04898200   -5.35721000
 C                 -1.08135500   -6.45208300   -5.90173600
 O                 -2.12254100   -4.34558500   -5.34502600
 H                  1.31250900   -3.82593700   -1.97437500
 H                 -0.21139100   -4.10432500   -0.98049700
 H                 -1.57156000   -3.57377000   -2.95334900
 H                  1.17100200   -3.09191000   -4.27879100
 H                 -0.38937000   -2.65460400   -5.03498500
 H                 -0.79441000   -7.14187900   -5.10396200
 H                 -0.31895900   -6.51396100   -6.68204600
 H                 -2.05574700   -6.72625100   -6.30267100

