97

 H                 -1.27681400   -3.10111400    4.37892300
 H                 -1.54468600   -2.82547000    1.94201700
 H                 -3.56689700   -1.84151400   -1.90704400
 H                 -5.94701100   -2.51026300   -2.21830800
 H                 -6.84140200   -1.12974200    1.75041900
 H                 -4.47926500   -0.45743700    2.05305100
 H                  2.37792000   -1.82245600   -2.60347000
 H                  4.31549300   -2.89707500   -3.70800200
 H                  6.08819100   -3.63432200    0.13449100
 H                  4.17461000   -2.53105400    1.23534900
 H                  1.82322100   -4.39990800    3.86889500
 H                  1.74912700   -3.76673800    1.48541100
 C                 -1.45826200   -2.11391200    3.96576300
 C                 -1.60640700   -1.95865900    2.59239400
 C                 -3.87616400   -1.09814400    0.08327700
 C                 -4.29726700   -1.68220600   -1.11552100
 C                 -5.62868400   -2.05703700   -1.28471600
 C                 -6.54437800   -1.85770600   -0.25511900
 C                 -6.12962200   -1.28169800    0.94491800
 C                 -4.80112000   -0.90352400    1.11544400
 C                  3.14095100   -2.10282800   -0.60908400
 C                  3.19920000   -2.21228600   -2.00505500
 C                  4.28588600   -2.82080400   -2.62545700
 C                  5.32605500   -3.33980100   -1.85697400
 C                  5.27829900   -3.23614300   -0.46920500
 C                  4.19585000   -2.61627500    0.15285600
 C                  1.77570600   -1.64089800    1.86874700
 C                  1.84124700   -2.36375500    4.57669200
 C                  1.81062500   -3.34991900    3.59196200
 C                  1.76319100   -2.99092400    2.24925600
 H                 -2.06862200    1.40640100    2.47927100
 H                 -1.76824200    1.13231000    4.90921400
 H                  1.77729600    0.39125500    2.58910600
 H                  1.82096100   -0.24809900    4.97047700
 C                 -1.83579400   -0.69381700    2.03896800
 C                 -1.88885100    0.41588800    2.88692200
 C                 -1.72584700    0.26094000    4.26274000
 C                 -1.51779100   -1.00299600    4.80472000
 C                  1.78478000   -0.65989400    2.86349100
 C                  1.81540600   -1.02180900    4.20862700
 H                 -4.34758200    1.44686600   -0.28857100
 C                 -2.16014000    5.41745400   -0.66999700
 H                 -4.21523700    3.90029400   -0.64468100
 C                  3.51709000    4.52416100   -0.51629900
 H                  4.36169400    0.07305300   -0.20669500
 H                  5.00641800    2.44835200   -0.44278200
 C                 -3.38730800    1.95208600   -0.26291200
 C                 -2.22464700    1.23359000   -0.01409100
 C                 -1.00943900    1.93294800    0.00367500
 C                 -0.87339000    3.29021200   -0.26040600
 C                 -2.08339700    3.99467600   -0.47399200
 C                 -3.31353200    3.32319300   -0.47323000
 C                  1.32648700    1.54571800    0.02519900
 C                  1.62671600    2.88738600   -0.20850300
 C                  2.99913000    3.19178300   -0.35761500
 C                  3.96346900    2.17449600   -0.32919200
 C                  3.60006200    0.84529400   -0.17952200
 C                  2.26211200    0.50020600    0.00103200
 C                  0.51455600    3.94288400   -0.32745300
 O                  0.05869700    1.15168600    0.33315400
 P                 -2.11792300   -0.58592900    0.22141400
 P                  1.65717800   -1.24961900    0.07904500
 C                  0.64834600    4.96091800    0.82320900
 H                 -0.12739400    5.72622900    0.74951500
 H                  0.54624100    4.45225500    1.78706900
 H                  1.62223500    5.45352700    0.79111600
 C                  0.65133800    4.60788800   -1.71641200
 H                  0.53538800    3.85012400   -2.49749100
 H                 -0.11118800    5.37398700   -1.85809100
 H                  1.62713200    5.08068800   -1.82885600
 H                  1.87494600   -2.64141000    5.62584300
 H                 -1.39143100   -1.12318100    5.87657300
 H                  6.17015900   -3.82391000   -2.33810000
 H                 -7.58058000   -2.15495200   -0.38399900
 Rh                -0.64115800   -1.64505700   -1.28730300
 H                  0.00638300   -2.53662900   -2.47468000
 C                 -0.56621700   -0.16784000   -2.42412300
 O                 -0.51713600    0.76370000   -3.09886900
 C                 -2.32627000    6.60333100   -0.82211300
 H                 -2.45228800    7.65362100   -0.96155300
 C                  4.04727700    5.60192800   -0.63664400
 H                  4.49693700    6.56321900   -0.74699100
 C                 -1.11849100   -3.64160800   -0.48099500
 C                 -0.65194400   -3.88003600   -1.79057800
 C                  0.66330400   -4.61232100   -1.96062600
 O                  0.50343500   -6.00774000   -1.65925600
 C                 -0.10084400   -6.74306600   -2.61050400
 C                 -0.21833800   -8.18289700   -2.18298300
 O                 -0.49034100   -6.29053900   -3.65827100
 H                 -0.47584300   -3.92350100    0.35175700
 H                 -2.18680700   -3.67378300   -0.28387500
 H                 -1.37364700   -4.06497600   -2.58120900
 H                  1.39949800   -4.25055300   -1.23924800
 H                  1.06203400   -4.50991700   -2.97317500
 H                 -0.83974600   -8.24653400   -1.28589500
 H                  0.76853700   -8.57799700   -1.93067600
 H                 -0.66468000   -8.76327800   -2.98879600

