97

 H                 -0.53241100   -4.69079800    3.41956000
 H                 -0.61365200   -3.83099100    1.09845600
 H                 -3.00094000   -1.69952600   -2.67772200
 H                 -5.18547100   -2.55242600   -3.39386500
 H                 -6.09378100   -3.65589000    0.66272800
 H                 -3.89703500   -2.80479100    1.38809400
 H                  4.68779200   -1.80642300    1.16465200
 H                  6.94977000   -2.19921200    0.26008500
 H                  5.41400800   -1.87338000   -3.73785300
 H                  3.14014500   -1.50142300   -2.83145500
 H                  2.68466100   -5.07516800    2.86015100
 H                  2.55005900   -3.92749300    0.67447300
 C                 -0.95229000   -3.70947100    3.22222900
 C                 -1.00154900   -3.22880000    1.91805100
 C                 -3.29481200   -2.18414300   -0.59031600
 C                 -3.67945200   -2.11620000   -1.93593000
 C                 -4.92305100   -2.59183100   -2.34291500
 C                 -5.79422000   -3.14519100   -1.40761400
 C                 -5.41865700   -3.22270100   -0.06897200
 C                 -4.17647600   -2.74399700    0.34083900
 C                  3.75549400   -1.64022200   -0.77453300
 C                  4.84062900   -1.83082300    0.08943200
 C                  6.11768400   -2.04792600   -0.42041500
 C                  6.32789000   -2.06632600   -1.79778800
 C                  5.25687800   -1.86544400   -2.66388200
 C                  3.97667300   -1.65550900   -2.15561800
 C                  2.12623800   -1.99175300    1.52684700
 C                  2.24656900   -3.29768200    3.99925100
 C                  2.46163900   -4.01310200    2.82150800
 C                  2.38619400   -3.36730800    1.59344200
 H                 -2.42976600   -0.20177800    2.51020600
 H                 -2.28883500   -1.03316300    4.82927800
 H                  1.69242100   -0.21963000    2.67870700
 H                  1.76956800   -1.38019200    4.85019600
 C                 -1.54014900   -1.96718300    1.64515400
 C                 -2.00075500   -1.18098800    2.70465100
 C                 -1.92971600   -1.65346100    4.01360400
 C                 -1.41386700   -2.92010300    4.27348700
 C                  1.90119700   -1.28448800    2.70815200
 C                  1.95385200   -1.93951800    3.93819300
 H                 -4.13654700    0.23361500   -0.73882600
 H                 -2.67286400    4.15176100    0.19388000
 Br                -5.14936900    2.99297500   -0.84761600
 H                  2.37790400    4.45665300    0.44201600
 H                  4.35472000    0.76733100   -0.45469400
 Br                 5.04985900    3.61857500   -0.40878100
 C                 -3.33084000    0.85963200   -0.37182800
 C                 -2.11273500    0.29888500    0.01455200
 C                 -1.12854400    1.16220000    0.48915100
 C                 -1.28116600    2.54314400    0.58034400
 C                 -2.49506100    3.08349800    0.16045500
 C                 -3.49927000    2.23901800   -0.30208000
 C                  1.18249800    1.29919400    0.58633600
 C                  1.16234900    2.68891800    0.69694500
 C                  2.33257400    3.37559900    0.38475500
 C                  3.46314300    2.66538900   -0.00682800
 C                  3.46001100    1.28005800   -0.12106700
 C                  2.29239900    0.56874500    0.16803600
 C                 -0.12883500    3.33366000    1.19473800
 O                  0.05232300    0.58173000    0.88958900
 P                 -1.65697900   -1.48413200   -0.12526900
 P                  2.06823000   -1.23966700   -0.14921300
 C                 -0.19516100    3.15625900    2.72906000
 H                 -1.12860700    3.57932000    3.11411400
 H                 -0.15769900    2.09690400    3.00273700
 H                  0.64808400    3.66855500    3.20346200
 C                 -0.20011900    4.82074900    0.85315200
 H                  0.62277400    5.36232100    1.32803500
 H                 -0.15397000    4.98770800   -0.22745300
 H                 -1.12720400    5.25598900    1.23632600
 H                  2.29771600   -3.80129500    4.95983800
 H                 -1.36417700   -3.28930000    5.29343200
 H                  7.32465200   -2.23434200   -2.19351200
 H                 -6.76200200   -3.52252200   -1.72334900
 Rh                 0.33264700   -1.91844700   -1.61316900
 H                  1.45028500   -2.94264900   -2.10163900
 C                  0.35919000   -0.40613600   -2.82965300
 O                  0.47149900    0.43293600   -3.60612400
 C                  0.37724900   -4.08493800   -2.18897200
 C                 -0.70509200   -3.34186400   -2.78006900
 C                 -0.67728700   -3.08498900   -4.26181200
 O                 -1.17763500   -4.22067400   -5.00519600
 C                 -2.50651100   -4.27172900   -5.17122700
 C                 -2.91261900   -5.52059600   -5.91056400
 O                 -3.27030800   -3.42289800   -4.77504000
 H                  1.11082500   -4.53601800   -2.85921700
 H                  0.18906600   -4.69571300   -1.31065900
 H                 -1.69956500   -3.51876100   -2.37681400
 H                  0.34949800   -2.95323200   -4.61250400
 H                 -1.27060100   -2.20881200   -4.53261100
 H                 -2.66275900   -6.39661900   -5.30607200
 H                 -2.35776100   -5.59651900   -6.84846100
 H                 -3.98399200   -5.49538100   -6.10319000

