97

 H                 -0.75859600   -4.23530600    3.08855500
 H                 -1.00879600   -3.28760100    0.82575700
 H                 -4.43531700   -1.40873800    1.39372300
 H                 -6.68026500   -2.21401800    0.73919000
 H                 -5.43198100   -2.37850800   -3.36829500
 H                 -3.17023800   -1.56935200   -2.70577200
 H                  2.59341800   -0.69780000   -3.20750400
 H                  4.70330600   -1.12268100   -4.43418400
 H                  6.60455700   -2.25788800   -0.75346900
 H                  4.51119500   -1.80487000    0.47365900
 H                  2.46950000   -4.81487800    2.32357900
 H                  2.31285600   -3.56056200    0.20542800
 C                 -1.13527600   -3.22453800    2.96790700
 C                 -1.27711400   -2.69106800    1.69155400
 C                 -3.66224700   -1.43107000   -0.62069400
 C                 -4.65352500   -1.61749500    0.34959400
 C                 -5.91618400   -2.07143900   -0.01863700
 C                 -6.19876900   -2.34435100   -1.35653500
 C                 -5.21662900   -2.16382000   -2.32626000
 C                 -3.95045100   -1.71117400   -1.95991000
 C                  3.40389600   -1.23066200   -1.28623100
 C                  3.47708400   -1.03808200   -2.67140200
 C                  4.66245400   -1.27869100   -3.36063600
 C                  5.78878700   -1.72476600   -2.67329000
 C                  5.72741100   -1.91715300   -1.29494400
 C                  4.54500200   -1.66551700   -0.60286900
 C                  1.97934500   -1.65015800    1.15618000
 C                  2.14390800   -3.08112700    3.56285200
 C                  2.28499900   -3.74491800    2.34521400
 C                  2.18987600   -3.03700000    1.15207200
 H                 -2.43948700    0.39115700    2.52623300
 H                 -2.15058100   -0.54434200    4.78647600
 H                  1.64957600    0.07438800    2.41051300
 H                  1.77810700   -1.18857500    4.51932700
 C                 -1.75518400   -1.38853200    1.51319000
 C                 -2.06534600   -0.62233200    2.64091700
 C                 -1.90761200   -1.15227700    3.92020900
 C                 -1.44869500   -2.45526100    4.08597400
 C                  1.82417700   -0.99690700    2.38143500
 C                  1.90329400   -1.71059200    3.57551400
 H                 -4.39377400    1.09689700   -0.53483700
 H                 -2.59703700    4.85998800    0.46153000
 C                 -4.84526800    3.72233600   -0.35761300
 H                  2.46477200    4.82665300    0.39129100
 H                  4.16080300    1.07641000   -0.77535400
 C                  4.66498300    3.67182100   -0.53602300
 C                 -3.52635100    1.65497200   -0.19653500
 C                 -2.33072400    0.99916700    0.07725000
 C                 -1.24779900    1.76860300    0.50503500
 C                 -1.29862300    3.15033700    0.66827700
 C                 -2.50029200    3.78414100    0.36674400
 C                 -3.61407800    3.04842300   -0.06152800
 C                  1.08023400    1.74518000    0.43556900
 C                  1.15762700    3.12743800    0.61818500
 C                  2.35083200    3.75417700    0.28028400
 C                  3.43459700    3.01145200   -0.20697400
 C                  3.31504200    1.62675700   -0.37806800
 C                  2.12432300    0.96636400   -0.07183200
 C                 -0.05323200    3.82733800    1.23168200
 O                 -0.08177500    1.09022300    0.76691400
 P                 -1.99331200   -0.78213800   -0.21081400
 P                  1.80340200   -0.81378600   -0.47017400
 C                 -0.02844100    3.57782100    2.75727900
 H                 -0.04319900    2.50556600    2.97874800
 H                  0.87781600    4.00989600    3.19392300
 H                 -0.90323300    4.03945600    3.22699400
 C                 -0.04592100    5.33184900    0.96644300
 H                  0.84012000    5.79477700    1.40949100
 H                 -0.05818300    5.55016500   -0.10587100
 H                 -0.91549300    5.80485600    1.43118100
 H                  2.21314900   -3.63197300    4.49598500
 H                 -1.32682300   -2.86808800    5.08288900
 H                  6.71216600   -1.92047200   -3.20938800
 H                 -7.18421600   -2.70045600   -1.64060800
 Rh                -0.34659600   -1.12002000   -1.85424600
 H                  0.39103500   -1.54048000   -3.23284700
 C                 -0.57874900    0.59309200   -2.57205300
 O                 -0.72975800    1.65188500   -2.99530200
 C                 -5.88077300    4.29005700   -0.60322400
 H                 -6.79635100    4.78961300   -0.82689400
 C                  5.69929000    4.22873900   -0.80989800
 H                  6.61407500    4.71878000   -1.05650100
 C                 -0.54654400   -3.31305100   -1.69141700
 C                 -0.12874600   -3.08573700   -3.02005400
 C                  1.24275000   -3.58134800   -3.43040100
 O                  1.23799900   -5.01058700   -3.57284900
 C                  0.66363000   -5.48136800   -4.69522800
 C                  0.70952000   -6.98667300   -4.73180500
 O                  0.18054600   -4.77523500   -5.54511100
 H                  0.16272100   -3.76473900   -0.99946500
 H                 -1.59337100   -3.53354900   -1.49978400
 H                 -0.86778900   -3.10091400   -3.81604000
 H                  1.97312300   -3.37846600   -2.64383300
 H                  1.57820100   -3.13192300   -4.36873100
 H                  0.13338500   -7.38826400   -3.89402500
 H                  1.74028400   -7.33102400   -4.61987900
 H                  0.29201200   -7.33750300   -5.67415300

