99

 H                  4.42500800   -1.56474700   -2.95540600
 H                  2.12169300   -0.85026500   -2.35000500
 H                  1.16598600    0.46469600    2.84418200
 H                  0.82152400   -0.48102900    5.09596400
 H                 -0.75606000   -4.07490300    3.35153500
 H                 -0.46257800   -3.10842600    1.09774000
 H                 -3.68789900   -3.43689800    0.46190600
 H                 -3.93013500   -4.59496200    2.62481300
 H                 -3.20979000   -0.89527100    4.68374600
 H                 -2.98618000    0.27031200    2.53127800
 H                 -7.92112900   -2.02644700   -0.58589700
 H                 -5.86337000   -1.40125100    0.62832400
 C                  4.09743100   -1.61097500   -1.92152600
 C                  2.80832600   -1.20810000   -1.58498600
 C                  0.38701400   -1.26446800    1.81326600
 C                  0.73647100   -0.52773100    2.94921700
 C                  0.54903700   -1.06394900    4.22147200
 C                  0.02403100   -2.34454100    4.36956800
 C                 -0.32747400   -3.08385600    3.24270600
 C                 -0.15880300   -2.54224900    1.97272900
 C                 -3.31943600   -1.49819000    1.33835000
 C                 -3.57024200   -2.87737900    1.38769200
 C                 -3.71589000   -3.53047500    2.60665200
 C                 -3.59197700   -2.81912700    3.79888200
 C                 -3.31783400   -1.45551900    3.75995800
 C                 -3.18490900   -0.79667800    2.53925300
 C                 -4.65192000   -1.26220700   -1.15238700
 C                 -6.98839500   -1.96762900   -2.52735900
 C                 -7.00333300   -1.84842900   -1.13770300
 C                 -5.84426900   -1.49693000   -0.45389100
 H                  2.92450200   -1.76280700    1.76940100
 H                  5.20294500   -2.50185000    1.16390600
 H                 -3.73089800   -1.19083600   -3.09479900
 H                 -5.79224100   -1.82076700   -4.31196600
 C                  2.37524500   -1.25513000   -0.25416300
 C                  3.24809400   -1.72080100    0.73343000
 C                  4.53358600   -2.13581500    0.39168600
 C                  4.96009600   -2.08000400   -0.93273400
 C                 -4.64900700   -1.38079000   -2.54542600
 C                 -5.81186100   -1.73074100   -3.23054400
 H                  3.06933900    1.24043100   -0.09075100
 H                  1.18438400    5.01289300    0.67338500
 C                  3.55056400    3.88295100    0.09806400
 H                 -3.84291300    4.92592700    0.22188500
 H                 -5.42208300    1.11280100   -0.90799700
 C                 -6.02083300    3.72555200   -0.78998700
 C                  2.17970800    1.79831100    0.18586000
 C                  0.97412100    1.13586800    0.39982200
 C                 -0.13658000    1.90925400    0.74429000
 C                 -0.10895500    3.29665900    0.86272400
 C                  1.10540600    3.93293800    0.61730400
 C                  2.23442100    3.18705300    0.28891300
 C                 -2.45603800    1.86057200    0.52016800
 C                 -2.55237600    3.24814800    0.63600400
 C                 -3.71903300    3.84985600    0.17548200
 C                 -4.74020900    3.07038300   -0.36105800
 C                 -4.61804400    1.68770700   -0.46056200
 C                 -3.45575200    1.04870000   -0.02485600
 C                 -1.39542600    3.98426500    1.30673600
 O                 -1.31229000    1.23117000    0.95304200
 P                  0.67541700   -0.65455900    0.10406400
 P                 -3.09127700   -0.74002800   -0.32335400
 C                 -1.39344400    5.47611600    0.97708300
 H                 -1.30284400    5.64964200   -0.09966400
 H                 -2.31326500    5.94809600    1.33304000
 H                 -0.56518900    5.97802500    1.48483600
 C                 -1.53051900    3.79910900    2.83570900
 H                 -2.46992200    4.23907100    3.18544500
 H                 -1.52275800    2.73792100    3.10464500
 H                 -0.69695100    4.29061200    3.34781700
 H                 -7.89412600   -2.24350700   -3.05833500
 H                  5.96267000   -2.40325600   -1.19472100
 H                 -3.70338700   -3.32691700    4.75209700
 H                 -0.11935600   -2.76293800    5.36123500
 Rh                -0.91449900   -0.99790200   -1.60422600
 H                 -1.58749000   -1.42512900   -3.00697800
 C                 -0.67433500    0.72666600   -2.29105600
 O                 -0.53083400    1.80007700   -2.67979600
 F                  3.38948400    5.14927500   -0.31354300
 F                  4.31832600    3.25532200   -0.80276200
 F                  4.25381800    3.93195000    1.24191000
 F                 -5.82579200    4.99782100   -1.16912500
 F                 -6.92060900    3.75129300    0.20730300
 F                 -6.59354200    3.07858900   -1.81353200
 C                 -0.77491700   -3.19092700   -1.46252400
 C                 -1.02602400   -2.91964200   -2.82858600
 C                  0.09703100   -2.98669200   -3.83706800
 O                  0.20701700   -4.31617100   -4.37922300
 C                 -0.71188700   -4.64158600   -5.30564000
 C                 -0.49043100   -6.04136500   -5.81646700
 O                 -1.59106800   -3.89727100   -5.66584300
 H                  0.24469700   -3.44199900   -1.17444000
 H                 -1.55607000   -3.64964200   -0.86178400
 H                 -1.99222900   -3.22023100   -3.23285600
 H                  1.05525100   -2.79697200   -3.35092900
 H                 -0.05307400   -2.28352300   -4.65894200
 H                 -0.56616900   -6.74977600   -4.98760000
 H                  0.51563000   -6.12821700   -6.23389900
 H                 -1.23588300   -6.27089200   -6.57606500

