99

 H                  4.04805600   -1.02441600   -4.03990400
 H                  1.79410600   -0.49567500   -3.12060000
 H                  1.06372600    0.33269600    2.42991400
 H                  0.93923700   -1.01919000    4.48897000
 H                 -0.00045900   -4.50370500    2.14577900
 H                  0.13941600   -3.17549900    0.10235500
 H                 -3.87792700   -3.42001700    0.08417300
 H                 -3.82359600   -4.80829400    2.11034900
 H                 -2.40965000   -1.44573300    4.37509800
 H                 -2.43683100   -0.05991500    2.35553800
 H                 -7.93557900   -1.95311500   -0.51238800
 H                 -5.79456000   -1.39293700    0.58452700
 C                  3.86639300   -1.09736900   -2.97219800
 C                  2.60482800   -0.80076400   -2.46134900
 C                  0.59168300   -1.31882300    1.11973800
 C                  0.82125200   -0.72451300    2.36350300
 C                  0.75584500   -1.48905100    3.52713700
 C                  0.46021800   -2.84784500    3.45764500
 C                  0.23021300   -3.44557400    2.22007300
 C                  0.29590100   -2.68490300    1.05809700
 C                 -3.15395000   -1.63463200    1.06143400
 C                 -3.53572500   -2.98348600    1.01870200
 C                 -3.51653900   -3.76844000    2.16696700
 C                 -3.11440100   -3.21989600    3.38178000
 C                 -2.73153600   -1.88348900    3.43505500
 C                 -2.74641200   -1.09666100    2.28614600
 C                 -4.71083700   -1.15930100   -1.26688000
 C                 -7.14098900   -1.79458400   -2.50921000
 C                 -7.05814400   -1.74693200   -1.11736600
 C                 -5.85277500   -1.43115400   -0.50001900
 H                  3.20954400   -1.36320300    0.83875600
 H                  5.44621500   -1.89924000   -0.07351900
 H                 -3.92502000   -0.98917400   -3.25796300
 H                 -6.07402600   -1.55580000   -4.36297000
 C                  2.36181800   -0.88768300   -1.08666400
 C                  3.39316100   -1.28615600   -0.22954000
 C                  4.65097000   -1.58796300   -0.74351900
 C                  4.88884000   -1.49264900   -2.11360700
 C                 -4.80629600   -1.20803900   -2.66014100
 C                 -6.01549300   -1.52296800   -3.27955900
 H                  3.00206800    1.58860600   -0.58926500
 H                  1.05563100    5.12694300    0.84902300
 C                  3.39914000    4.20469200   -0.07111800
 H                 -3.98608000    4.84573600    0.79936300
 H                 -5.51814700    1.13670300   -0.67851700
 C                 -6.19866900    3.67235500   -0.18822100
 C                  2.12246100    2.05947500   -0.16071100
 C                  0.96678800    1.31543300    0.06257600
 C                 -0.13419600    1.98098600    0.60447200
 C                 -0.15057400    3.33927400    0.90911800
 C                  1.01206000    4.06145400    0.65239700
 C                  2.13404600    3.42229900    0.12986900
 C                 -2.46504000    1.83778400    0.57628700
 C                 -2.60229900    3.19293200    0.88077000
 C                 -3.82690300    3.79175300    0.60246300
 C                 -4.86036400    3.03802700    0.05513600
 C                 -4.69747600    1.68490400   -0.22840400
 C                 -3.48132900    1.04894900    0.02537300
 C                 -1.41983300    3.89467300    1.54531600
 O                 -1.25883700    1.22115200    0.81223600
 P                  0.69520200   -0.42004900   -0.47697300
 P                 -3.09269500   -0.68187100   -0.52071100
 C                 -1.50719500    5.41481800    1.41931200
 H                 -1.52078800    5.73072900    0.37160000
 H                 -2.40907600    5.78899000    1.91141400
 H                 -0.65693400    5.88815000    1.91804900
 C                 -1.41097900    3.50584300    3.04156200
 H                 -2.33306900    3.84555800    3.52391100
 H                 -1.33550200    2.42048000    3.16437000
 H                 -0.55607200    3.96965300    3.54424500
 H                 -8.08287500   -2.04184100   -2.98881500
 H                  5.87079800   -1.72973700   -2.51106900
 H                 -3.09856900   -3.83012400    4.27953600
 H                  0.40494300   -3.43895700    4.36704400
 Rh                -1.06404400   -0.55866000   -2.08572500
 H                 -1.76846800   -0.73738400   -3.52270600
 C                 -1.06878600    1.29473300   -2.37584700
 O                 -1.07265300    2.43512000   -2.52331100
 F                  3.14940800    5.49892000   -0.32080800
 F                  4.12459600    3.72525100   -1.09018900
 F                  4.18343500    4.16407300    1.01896000
 F                 -6.10275200    5.00276700   -0.33078300
 F                 -7.04432000    3.44894300    0.83140400
 F                 -6.78547100    3.18605500   -1.29059900
 C                 -0.92995900   -2.10408200   -3.73214900
 C                 -0.70695100   -2.68418700   -2.45489500
 C                 -1.73784100   -3.62255100   -1.89785700
 O                 -1.56448700   -4.97199200   -2.39532700
 C                 -0.62598400   -5.70070300   -1.77788000
 C                 -0.50115800   -7.06787000   -2.39867300
 O                  0.03358500   -5.30203400   -0.84567300
 H                 -1.80916700   -2.42845500   -4.28918900
 H                 -0.08960100   -1.83834800   -4.36554500
 H                  0.32293400   -2.89851300   -2.17354800
 H                 -2.74010200   -3.33625300   -2.23130000
 H                 -1.71474600   -3.65790300   -0.80642300
 H                 -0.15091600   -6.96611500   -3.42932800
 H                 -1.47802700   -7.55584100   -2.42831600
 H                  0.20572300   -7.66361200   -1.82343200

