99

 H                  9.57493900    6.70954000    3.05266000
 H                  8.63245600    5.56697700    5.03388400
 H                 10.81887700    6.90035300    7.39449500
 H                 12.77161500    5.73010000    8.34944900
 H                 10.15324600    2.95420700   10.32482600
 H                  8.19676300    4.12088000    9.36413500
 H                  2.81132800    4.09509000    6.82936600
 H                  0.77729500    2.98447800    5.88690100
 H                  0.80848900    5.74335300    2.60037800
 H                  2.82328700    6.84628300    3.53656700
 H                  6.53835800    5.71199900    1.61739300
 H                  5.34447900    4.99081100    3.65067400
 C                  9.35802100    7.27134300    3.95495800
 C                  8.82888600    6.63565900    5.07005300
 C                  9.37204900    5.58684100    8.30994000
 C                 10.66895600    6.03475800    8.03366200
 C                 11.77008300    5.37589500    8.57356600
 C                 11.58959000    4.26782800    9.39931600
 C                 10.30319700    3.81917700    9.68656900
 C                  9.20106200    4.47299300    9.14086900
 C                  2.94554500    5.53256700    5.24429200
 C                  2.36437300    4.44514300    5.90096400
 C                  1.23298300    3.82564100    5.37526000
 C                  0.68534400    4.29531300    4.18628200
 C                  1.25305600    5.38167700    3.52180500
 C                  2.38009300    5.99811500    4.05097300
 C                  5.29356400    6.96146700    4.53121000
 C                  6.66066700    7.77623800    2.22543500
 C                  6.29838800    6.44015600    2.38633200
 C                  5.62953800    6.03370300    3.53599400
 H                  8.58803400    9.30247100    7.16293200
 H                  9.49594400   10.44301900    5.16546900
 H                  5.40978100    9.03521900    5.11872700
 H                  6.64261200    9.73774900    3.10321400
 C                  8.54596300    7.35211200    6.23931700
 C                  8.78893000    8.72911200    6.26285500
 C                  9.30443900    9.37466700    5.14301900
 C                  9.58954100    8.64399000    3.99383900
 C                  5.65965700    8.29881200    4.36184200
 C                  6.34535100    8.70024200    3.21702900
 H                  9.12401100    7.21245000   10.29974300
 H                  6.58591500   10.47142400   11.45706400
 H                  8.46795000    8.95583500   11.92928900
 H                  2.19602500   10.70563900    8.96283400
 H                  1.59617700    7.46961200    6.22218900
 H                  0.69693900    9.31127300    7.59440300
 C                  8.28733200    7.87012800   10.08449700
 C                  7.57534400    7.71341500    8.89354300
 C                  6.50914700    8.58490300    8.66429400
 C                  6.13223500    9.59845200    9.54178600
 C                  6.85107100    9.70884600   10.73244400
 C                  7.91649700    8.85215000   11.00066800
 C                  4.47094300    8.66976800    7.53037600
 C                  3.99373600    9.70605600    8.33096600
 C                  2.61592400    9.91845700    8.34569700
 C                  1.76614500    9.12879100    7.57500800
 C                  2.27448600    8.09539500    6.79277400
 C                  3.64757800    7.83772400    6.76810900
 C                  5.02593400   10.54407100    9.08046000
 O                  5.82281400    8.41856400    7.48066500
 P                  7.85242000    6.38872100    7.65057100
 P                  4.40933200    6.33888100    6.01828000
 C                  5.64733000   11.54566800    8.07988000
 H                  6.41999300   12.14199600    8.57629800
 H                  6.10600400   11.01996400    7.23580000
 H                  4.87601800   12.21827500    7.69053400
 C                  4.40507600   11.31570400   10.24381200
 H                  5.16336500   11.92099600   10.74814900
 H                  3.63975100   12.00722400    9.88050700
 H                  3.95062500   10.64037900   10.97540200
 H                  7.19914100    8.09682500    1.33917300
 C                 10.06167400    9.35924200    2.76438000
 C                 -0.49495500    3.59580100    3.57400500
 H                 12.45068100    3.75449300    9.81574900
 Rh                 5.57512000    5.00890900    7.54658800
 H                  6.16413800    3.82414900    8.48696600
 C                  4.67325200    5.70344900    9.02557000
 O                  4.09841100    6.14503600    9.91888200
 F                 -0.10797900    2.67229800    2.68091700
 F                 -1.29484300    4.45462200    2.92522500
 F                 -1.23580200    2.96624000    4.49590800
 F                  9.02902200    9.86210700    2.05604900
 F                 10.73598900    8.54997600    1.93665300
 F                 10.85760600   10.39593400    3.06170400
 C                  6.15142300    3.56895000    5.97789300
 C                  6.31362100    2.87323600    7.19639500
 C                  5.31411500    1.81234800    7.60029500
 O                  5.66794500    0.54635600    7.01813800
 C                  6.68015100   -0.10412100    7.62119900
 C                  6.95778000   -1.41836500    6.94011600
 O                  7.27443000    0.32722500    8.57882300
 H                  5.26566600    3.35347700    5.38219100
 H                  7.02698200    3.88373200    5.41875100
 H                  7.33050900    2.66602900    7.52772800
 H                  4.32752400    2.04819100    7.19803800
 H                  5.25731400    1.69845600    8.68479300
 H                  7.23990200   -1.23822600    5.89962200
 H                  6.05368500   -2.03191700    6.93558900
 H                  7.76189800   -1.93333000    7.46312900

