99

 H                  9.12759600    6.74585400    2.83685200
 H                  8.13598300    5.52802900    4.75822400
 H                 10.61060700    6.42745800    6.94834200
 H                 12.56964300    5.25736000    7.87548200
 H                  9.97437900    2.81409400   10.28328600
 H                  8.02135100    3.97987300    9.36993700
 H                  2.58082400    4.29919100    6.53140300
 H                  0.43841800    3.44061700    5.61722200
 H                  0.69825400    6.24063200    2.37706700
 H                  2.81827200    7.12063300    3.30011000
 H                  6.34775700    6.24246700    1.25292000
 H                  5.24682000    5.32556200    3.26822700
 C                  9.02870600    7.23255000    3.80062500
 C                  8.48067300    6.55267500    4.88140100
 C                  9.17492900    5.29161900    8.09460100
 C                 10.46562700    5.63904600    7.68040500
 C                 11.57366000    4.97981100    8.20679500
 C                 11.40615700    3.97143800    9.15266000
 C                 10.12603900    3.61798200    9.57208600
 C                  9.01698400    4.27444100    9.04475200
 C                  2.85275400    5.75817600    4.97275400
 C                  2.16906600    4.72313100    5.62022000
 C                  0.97099800    4.23693800    5.10744400
 C                  0.45177200    4.78137300    3.93620700
 C                  1.11696200    5.81459900    3.28254000
 C                  2.31001000    6.30442800    3.80452000
 C                  5.19932300    7.21570200    4.30797200
 C                  6.48337100    8.24423600    2.04230000
 C                  6.12966600    6.89588200    2.09247200
 C                  5.50946600    6.38135000    3.22528700
 H                  8.67768500    8.99962000    7.23184400
 H                  9.60388100   10.23045900    5.29434100
 H                  5.32487500    9.22645100    5.07989400
 H                  6.49644800   10.11575200    3.09900900
 C                  8.35012800    7.17505800    6.12608500
 C                  8.76101100    8.50397900    6.26908500
 C                  9.28782200    9.19742600    5.18476800
 C                  9.42214500    8.55810000    3.95521300
 C                  5.55460200    8.56419600    4.25080100
 C                  6.20318200    9.07139400    3.12555200
 H                  8.94290200    6.70950300   10.22441800
 H                  6.58799700   10.03644000   11.56062300
 H                  8.36949200    8.38128600   11.95146900
 H                  2.24180300   10.61093500    9.05234400
 H                  1.56811200    7.59325400    6.08955800
 H                  0.71423200    9.35122300    7.58592300
 C                  8.15539800    7.43234000   10.03728800
 C                  7.45695300    7.40124200    8.82819500
 C                  6.46582800    8.36135100    8.63881800
 C                  6.12608100    9.33027500    9.57958200
 C                  6.82326100    9.31269800   10.78727600
 C                  7.83016000    8.37553100   11.01009300
 C                  4.46409200    8.61157700    7.49254300
 C                  4.01427300    9.60535100    8.36083400
 C                  2.64367300    9.85523300    8.38561800
 C                  1.77830600    9.14156300    7.55912500
 C                  2.26217600    8.15216900    6.70776900
 C                  3.62910200    7.85806300    6.66963400
 C                  5.07073300   10.35382700    9.16950600
 O                  5.80780800    8.32843800    7.42911200
 P                  7.66142900    6.14954800    7.49344500
 P                  4.38033300    6.43969500    5.75893000
 C                  5.74563100   11.38891700    8.24037100
 H                  6.53476600   11.92076700    8.78200700
 H                  6.19435000   10.89902500    7.37002200
 H                  5.00734200   12.11601000    7.88670100
 C                  4.46909700   11.07604600   10.37368700
 H                  5.24604500   11.61602500   10.92212800
 H                  3.73664200   11.81987500   10.04758000
 H                  3.97873700   10.37632600   11.05771500
 H                  6.99288500    8.64638400    1.17199600
 C                  9.92570600    9.34258100    2.78070200
 C                 -0.81022700    4.21029000    3.35537800
 H                 12.27214400    3.45611400    9.55661900
 Rh                 5.59446800    4.80386800    6.97638900
 H                  4.83783800    3.81404300    5.98253300
 C                  4.57994700    4.84421300    8.63189700
 O                  3.89792900    4.78903400    9.55451100
 F                 -0.56018000    3.12642700    2.60508800
 F                 -1.44324100    5.09436900    2.57158000
 F                 -1.66627400    3.83085900    4.31505400
 F                  8.98122000   10.17454200    2.29788300
 F                 10.30108900    8.55287600    1.76600800
 F                 10.97366500   10.11189500    3.10936400
 C                  6.14891500    2.97254000    5.80629700
 C                  6.60133100    2.95681300    7.17311700
 C                  5.96473000    1.98788300    8.13139400
 O                  6.55380100    0.67135700    8.02262300
 C                  7.66177300    0.46423400    8.74728900
 C                  8.21181300   -0.91898100    8.51306300
 O                  8.14826800    1.28673800    9.48771500
 H                  5.44789100    2.19696000    5.49343800
 H                  6.84296700    3.24410200    5.01600600
 H                  7.66457600    3.11435100    7.33922100
 H                  4.90912400    1.84130800    7.88895700
 H                  6.05809600    2.32165000    9.16729600
 H                  8.52688200   -1.01133400    7.47023300
 H                  7.43403700   -1.66509600    8.69087800
 H                  9.06033300   -1.08864200    9.17396700

