99

 H                 -1.06646600   -3.81309900    3.51730100
 H                 -1.36679400   -3.02941200    1.19871400
 H                 -3.58452400   -1.45483400   -2.35640200
 H                 -5.92004600   -2.17391400   -2.84665900
 H                 -6.94834200   -1.60369600    1.28537700
 H                 -4.63023200   -0.88675000    1.76714900
 H                  2.18726300   -0.99052500   -3.19820300
 H                  4.20185800   -1.64517300   -4.48400900
 H                  6.21944300   -2.60556100   -0.81548300
 H                  4.22224100   -1.92437300    0.46652900
 H                  2.09420400   -4.66240500    2.62731000
 H                  1.91669500   -3.55612300    0.42964900
 C                 -1.38241900   -2.79130900    3.33215400
 C                 -1.55252800   -2.35016800    2.02430100
 C                 -3.96219300   -1.11873500   -0.27074800
 C                 -4.33383200   -1.48720100   -1.56725500
 C                 -5.64088600   -1.88879300   -1.83707300
 C                 -6.58194700   -1.93028600   -0.81225000
 C                 -6.21679200   -1.56835800    0.48396600
 C                 -4.91301600   -1.16483700    0.75514300
 C                  3.06257200   -1.41996500   -1.28012500
 C                  3.07614400   -1.34244500   -2.67831500
 C                  4.20781100   -1.71166300   -3.40036300
 C                  5.33977600   -2.17290800   -2.73241100
 C                  5.33787700   -2.25195000   -1.34152500
 C                  4.20960200   -1.87186300   -0.61819800
 C                  1.73846300   -1.56541100    1.24780200
 C                  1.92631200   -2.82715800    3.74601400
 C                  1.97395500   -3.58425600    2.57662100
 C                  1.86730800   -2.95923600    1.33890800
 H                 -2.46276900    0.86171800    2.65538200
 H                 -2.12745100    0.08632600    4.97081800
 H                  1.56494900    0.26180900    2.38103700
 H                  1.71331800   -0.85190700    4.57262900
 C                 -1.95261100   -1.03562500    1.76227300
 C                 -2.15415400   -0.16400800    2.83687000
 C                 -1.96899900   -0.60274900    4.14664100
 C                 -1.58954500   -1.91774200    4.39712700
 C                  1.67654300   -0.81726400    2.42631800
 C                  1.76707000   -1.44698200    3.66594900
 H                 -4.52356800    1.44957500   -0.36708900
 H                 -2.45397800    5.14799600    0.25014600
 C                 -4.86799600    4.14521200   -0.45452200
 H                  2.56534900    4.78860700   -0.04455400
 H                  3.97292300    0.86833400   -0.99735800
 C                  4.69569000    3.47024500   -1.07529500
 C                 -3.61216200    1.98528900   -0.11264800
 C                 -2.44950000    1.26897300    0.16446100
 C                 -1.30128700    1.99087300    0.48545400
 C                 -1.26299000    3.37977700    0.53917500
 C                 -2.44081700    4.06180000    0.23377300
 C                 -3.61721200    3.38336200   -0.09441800
 C                  1.01107000    1.81489200    0.31095200
 C                  1.18187500    3.19691100    0.37855800
 C                  2.39337400    3.71638400   -0.07150800
 C                  3.40458500    2.88666000   -0.55930600
 C                  3.18741200    1.50861000   -0.60605000
 C                  1.97984400    0.94193000   -0.18794000
 C                  0.04787300    4.01557600    0.99365200
 O                 -0.16693200    1.26029800    0.75850600
 P                 -2.23787800   -0.54536100    0.00842400
 P                  1.53409100   -0.83717500   -0.42656500
 C                  0.13444800    3.87770500    2.53102400
 H                  1.08644200    4.28074700    2.89207000
 H                 -0.68572300    4.42769100    3.00454800
 H                  0.06549100    2.82747000    2.83266000
 C                  0.13246400    5.49360400    0.61672000
 H                  0.07921000    5.63439400   -0.46737400
 H                 -0.68274100    6.05351800    1.08374100
 H                  1.06643500    5.92973500    0.98202200
 H                  2.00375500   -3.31275100    4.71414100
 H                 -1.44591500   -2.25937900    5.41786700
 H                  6.22052600   -2.46988200   -3.29330800
 H                 -7.59899900   -2.24821200   -1.02029700
 Rh                -0.70526000   -1.12064700   -1.68065500
 H                 -0.06843900   -1.69765200   -3.05442100
 C                 -0.87818000    0.53894900   -2.52776700
 O                 -0.99480700    1.56260500   -3.03987300
 H                 -5.76500800    3.60427200   -0.14086800
 H                 -4.93523000    4.29401100   -1.53784500
 H                 -4.88222900    5.13187300    0.01660700
 H                  4.62752500    3.67631900   -2.14950800
 H                  5.53038900    2.78035500   -0.92546500
 H                  4.93524100    4.41173500   -0.57321200
 C                 -1.02084600   -3.27451600   -1.32347300
 C                 -0.65966100   -3.18283600   -2.68522100
 C                  0.65800700   -3.79460700   -3.11433000
 O                  0.56653900   -5.22843600   -3.12598400
 C                 -0.09274400   -5.76169200   -4.17039300
 C                 -0.13419300   -7.26433900   -4.06878800
 O                 -0.57972300   -5.10726600   -5.05872300
 H                 -0.30386100   -3.71030200   -0.62928600
 H                 -2.06722300   -3.41557000   -1.06584500
 H                 -1.43869100   -3.22097700   -3.44130000
 H                  1.43948000   -3.56838500   -2.38540900
 H                  0.96786500   -3.45061000   -4.10464300
 H                 -0.68049600   -7.55278600   -3.16691500
 H                  0.88051200   -7.65985300   -3.98159500
 H                 -0.62618000   -7.67234200   -4.95020700

