97

 H                 -2.47946400   -4.66890000    2.55109300
 H                 -2.66049500   -3.37228800    0.46323200
 H                 -3.35475100   -1.04588500   -2.82999200
 H                 -5.68382400   -1.51603400   -3.58306400
 H                 -6.98468100   -1.56923800    0.51097200
 H                 -4.67193400   -1.10539000    1.25588900
 H                  2.68755200   -0.92830500   -3.08811100
 H                  4.74243400   -1.76897800   -4.18254700
 H                  6.08176600   -3.36793000   -0.42774800
 H                  4.05382500   -2.49211400    0.67662600
 H                  0.98143000   -4.41565400    3.01944900
 H                  0.84667600   -3.44259100    0.75242000
 C                 -2.21769900   -3.61511800    2.54909800
 C                 -2.31259800   -2.88401400    1.36985200
 C                 -3.86741800   -1.04333600   -0.74590900
 C                 -4.16041000   -1.16199500   -2.10719000
 C                 -5.46431200   -1.42546700   -2.52397700
 C                 -6.47933500   -1.57297600   -1.58361800
 C                 -6.19331200   -1.45734800   -0.22337700
 C                 -4.89320100   -1.19533000    0.19532400
 C                  3.23298200   -1.64882400   -1.13029200
 C                  3.43951800   -1.45668400   -2.50385200
 C                  4.59129000   -1.93312300   -3.12019400
 C                  5.54331000   -2.62709400   -2.37451800
 C                  5.34185300   -2.83028400   -1.01263200
 C                  4.19613800   -2.33823300   -0.38900500
 C                  1.75228500   -1.57006600    1.31518400
 C                  1.87268100   -2.65876600    3.89331300
 C                  1.35164200   -3.41065100    2.84203400
 C                  1.27727500   -2.86304300    1.56606600
 H                 -1.32031600    0.14895800    2.54216600
 H                 -1.12378900   -1.15454600    4.61440200
 H                  2.64867300    0.18145500    2.20085900
 H                  2.72704400   -0.77087600    4.47579500
 C                 -1.99909400   -1.51830500    1.34876100
 C                 -1.56935400   -0.90670200    2.52890300
 C                 -1.46564200   -1.64299100    3.70718200
 C                 -1.79523500   -2.99427500    3.72275800
 C                  2.26997300   -0.82172000    2.37629000
 C                  2.32178100   -1.36195800    3.65993800
 H                 -4.41640800    1.42011500   -0.18601200
 H                 -2.27723500    5.00661200    0.72915600
 C                 -4.69981300    4.05292000    0.12543200
 H                  2.74734200    4.63161700    0.09045900
 H                  4.12605500    0.75316000   -1.06979800
 C                  4.81233200    3.32992700   -0.99417700
 C                 -3.47608800    1.88551000    0.09427100
 C                 -2.30971600    1.13973700    0.22918100
 C                 -1.14282800    1.83330700    0.57738800
 C                 -1.08070500    3.21355500    0.76801400
 C                 -2.26462000    3.92673900    0.60505100
 C                 -3.45215200    3.27033600    0.28285900
 C                  1.17136500    1.65642900    0.30899600
 C                  1.35074300    3.03090200    0.46432600
 C                  2.55435100    3.56471500    0.01297300
 C                  3.53499400    2.73806100   -0.53474700
 C                  3.33122400    1.35888600   -0.64441100
 C                  2.12999600    0.78994600   -0.23335500
 C                  0.25808200    3.80634400    1.19361400
 O                 -0.00545400    1.07907700    0.71641200
 P                 -2.14710300   -0.63209700   -0.25834400
 P                  1.66636100   -0.98704200   -0.42648100
 C                  0.43312300    3.55766100    2.70942200
 H                 -0.36255300    4.06059500    3.26864400
 H                  0.39423200    2.48740000    2.93765000
 H                  1.40086300    3.94540700    3.04405600
 C                  0.33446400    5.30709100    0.91653700
 H                  0.21404600    5.52493700   -0.14922100
 H                 -0.44047400    5.83993600    1.47465400
 H                  1.29440500    5.70943800    1.25172500
 H                  1.92087100   -3.08056000    4.89271000
 H                 -1.71768300   -3.56364300    4.64412800
 H                  6.43907300   -3.00733900   -2.85520900
 H                 -7.49490500   -1.77775900   -1.90768900
 Rh                -0.53993100   -1.02000300   -1.90820600
 H                  0.23437900   -1.46614500   -3.26817800
 C                 -0.51098300    0.75282500   -2.49049500
 O                 -0.51651600    1.85999800   -2.80624200
 O                 -5.77817900    3.57117500   -0.12807100
 H                 -4.58325100    5.14931900    0.26066200
 O                  5.72962700    2.69639300   -1.45958700
 H                  4.88213600    4.43300900   -0.88102500
 C                 -1.06055300   -3.16572200   -1.88631100
 C                 -0.42622700   -2.96284100   -3.12958000
 C                  0.92250200   -3.61278200   -3.35989500
 O                  0.76511700   -5.02385400   -3.57474500
 C                  0.31854900   -5.38023300   -4.79337000
 C                  0.19820800   -6.87765700   -4.90486500
 O                  0.05504700   -4.58989900   -5.66533800
 H                 -0.53245400   -3.72342700   -1.11586300
 H                 -2.14458000   -3.23719400   -1.85858400
 H                 -1.03940000   -2.87118900   -4.02183900
 H                  1.54474900   -3.52997000   -2.46612600
 H                  1.44708200   -3.17890700   -4.21480800
 H                 -0.52552900   -7.24096100   -4.17064200
 H                  1.15986200   -7.34530500   -4.68065900
 H                 -0.12544400   -7.13966300   -5.91083400

