87

 P                 -1.63295000   -1.05511000    0.33664900
 C                 -1.70132600    0.65206400   -0.35058300
 C                 -2.60121000   -0.93173900    1.89482000
 C                 -2.80555300   -1.95091100   -0.76399400
 C                 -0.86188000    0.89282400   -1.44509700
 C                 -0.83528500    2.14648300   -2.03374300
 C                 -1.61324000    3.19279700   -1.54356400
 C                 -2.44246300    2.95345800   -0.45371000
 C                 -2.49661800    1.69067900    0.13730700
 C                 -2.18163200   -0.02321500    2.87786700
 C                 -2.79080500    0.00767300    4.12678800
 C                 -3.81659800   -0.88957800    4.42524700
 C                 -4.23359000   -1.80171200    3.46145500
 C                 -3.63561700   -1.82130500    2.20097700
 C                 -3.84014600   -1.30202300   -1.44774200
 C                 -4.74107000   -2.03288900   -2.21630500
 C                 -4.63136800   -3.42031100   -2.29526000
 C                 -3.61164400   -4.07497600   -1.61057600
 C                 -2.69457500   -3.34277800   -0.85991200
 H                 -0.22252100    0.09986200   -1.82203700
 Br                 0.29422100    2.44087400   -3.52600200
 H                 -1.56441500    4.17099000   -2.00854300
 H                 -3.05123700    3.75998500   -0.05727800
 H                 -3.15489300    1.52239600    0.98377900
 H                 -1.38505400    0.68322100    2.65642500
 H                 -2.46020700    0.73040000    4.86676300
 H                 -4.28712000   -0.87443200    5.40327200
 H                 -5.03258700   -2.50225900    3.68382500
 H                 -3.97705300   -2.53570900    1.45685600
 H                 -3.94025000   -0.22219900   -1.38146000
 H                 -5.53400200   -1.51788900   -2.75002400
 H                 -5.34116600   -3.98809400   -2.88898500
 H                 -3.52046700   -5.15556100   -1.65140200
 H                 -1.90418900   -3.86785900   -0.33165000
 P                  2.31964200   -0.75196000    0.37635900
 C                  1.96046100    1.06077300    0.34729700
 C                  3.30483100   -0.94157300   -1.16429000
 C                  3.60765200   -0.85523000    1.68696000
 C                  1.09002700    1.55386300    1.32632600
 C                  0.73098300    2.89185800    1.31721700
 C                  1.22414600    3.76990800    0.35487700
 C                  2.10329800    3.28154700   -0.60339700
 C                  2.47013800    1.93510500   -0.61372800
 C                  2.61395700   -1.06480000   -2.37577900
 C                  3.30327500   -1.14702700   -3.58063300
 C                  4.69656700   -1.12364500   -3.58788900
 C                  5.39276800   -1.01257700   -2.38783000
 C                  4.70240400   -0.91559200   -1.18085400
 C                  3.88293700   -2.11490300    2.23078200
 C                  4.87362700   -2.26556800    3.19660500
 C                  5.58995500   -1.15522500    3.63920900
 C                  5.31873600    0.10245700    3.10653500
 C                  4.33535200    0.25301600    2.13069200
 H                  0.68339800    0.88125100    2.07527100
 Br                -0.47702300    3.53939200    2.62846600
 H                  0.91779300    4.80988800    0.35929400
 H                  2.49002800    3.95003500   -1.36586600
 H                  3.14205100    1.57042000   -1.38416000
 H                  1.52764300   -1.10280300   -2.37515600
 H                  2.75141100   -1.23755000   -4.51074500
 H                  5.23707100   -1.19644000   -4.52641900
 H                  6.47827200   -0.99853200   -2.38713000
 H                  5.25615800   -0.81927500   -0.25190900
 H                  3.30658200   -2.97172200    1.88815600
 H                  5.08107900   -3.24808900    3.60928100
 H                  6.35600500   -1.26965900    4.39982900
 H                  5.87333200    0.97037900    3.44953700
 H                  4.13535400    1.23626700    1.71405000
 Rh                 0.52715800   -2.12950500    0.72356700
 C                  0.88025200   -3.25421900   -0.76604300
 O                  1.09561900   -3.93251200   -1.66884300
 H                  0.49994000   -1.36957000    2.17155600
 C                  0.18219000   -2.86496700    2.88358200
 C                 -0.43853100   -3.70040900    1.93184100
 C                  0.13662000   -5.04815100    1.58831500
 O                 -0.41727000   -6.06872700    2.44892600
 C                 -1.65401200   -6.47614800    2.12321700
 C                 -2.15189600   -7.52253400    3.08600400
 O                 -2.27734700   -6.04796900    1.17993500
 H                  1.14842100   -3.13717200    3.30198500
 H                 -0.44884300   -2.26811800    3.53900400
 H                 -1.52384400   -3.65280600    1.86356000
 H                  1.21398500   -5.07434200    1.76641100
 H                 -0.07139400   -5.34220400    0.55760300
 H                 -2.22289900   -7.08977100    4.08739300
 H                 -1.44267100   -8.35210400    3.13401300
 H                 -3.12930400   -7.87648800    2.76209100

