87

 P                 -1.81298100   -0.97458900    0.09849500
 C                 -1.63479500    0.81436200   -0.32109500
 C                 -2.69530800   -0.94479100    1.71007000
 C                 -3.18058800   -1.45582800   -1.04337300
 C                 -0.78924500    1.09214600   -1.40102400
 C                 -0.58201900    2.40275400   -1.79958900
 C                 -1.18408400    3.46596700   -1.13172900
 C                 -2.02269400    3.18926200   -0.05786800
 C                 -2.25622900    1.87388600    0.34352100
 C                 -2.15228400   -0.21178300    2.77466400
 C                 -2.68281900   -0.31444500    4.05497400
 C                 -3.75367000   -1.17437100    4.30003100
 C                 -4.29978500   -1.90858500    3.25132900
 C                 -3.78095800   -1.79021000    1.96174100
 C                 -4.26815300   -0.60740400   -1.28612600
 C                 -5.30448500   -1.01153100   -2.11980400
 C                 -5.26991000   -2.27117700   -2.71851100
 C                 -4.19611800   -3.12217600   -2.48040100
 C                 -3.15413100   -2.71497800   -1.64714000
 H                 -0.28343000    0.27937000   -1.91406100
 Br                 0.55854400    2.74797600   -3.27219900
 H                 -0.99424700    4.48528700   -1.44865000
 H                 -2.49614500    4.00710300    0.47618900
 H                 -2.91618500    1.68106800    1.18353200
 H                 -1.31144500    0.45397700    2.60043700
 H                 -2.25112600    0.27018200    4.86188600
 H                 -4.15984200   -1.26878500    5.30201000
 H                 -5.13525900   -2.57762000    3.43276400
 H                 -4.22097300   -2.36417600    1.15070900
 H                 -4.29965400    0.37577200   -0.82367800
 H                 -6.13986500   -0.34339800   -2.30520100
 H                 -6.07897100   -2.58449700   -3.37104600
 H                 -4.16157000   -4.10239800   -2.94546600
 H                 -2.31253700   -3.37616900   -1.46207000
 P                  2.11676200   -1.19330100   -0.07468900
 C                  2.02382500    0.62089900    0.25744800
 C                  3.05222500   -1.21290300   -1.65657500
 C                  3.38001100   -1.73392500    1.14802700
 C                  1.25604400    1.03054100    1.35454700
 C                  1.09953200    2.38278400    1.61391100
 C                  1.69441000    3.35200400    0.80913800
 C                  2.46985900    2.94040300   -0.26685300
 C                  2.63561100    1.58344400   -0.54620600
 C                  2.34178900   -1.04622800   -2.85083900
 C                  3.00902800   -0.97991900   -4.06953500
 C                  4.39683200   -1.09594100   -4.10988300
 C                  5.11149300   -1.27235300   -2.92822600
 C                  4.44508200   -1.32487900   -1.70563200
 C                  3.52799700   -3.10937400    1.36216100
 C                  4.46210900   -3.58578500    2.27569600
 C                  5.25821100   -2.69086400    2.98782600
 C                  5.12406600   -1.32202400    2.77442300
 C                  4.19118100   -0.84277400    1.85635100
 H                  0.77360500    0.28683000    1.98319900
 Br                 0.03654500    2.93932900    3.08383400
 H                  1.54467700    4.40380500    1.02512100
 H                  2.93309800    3.68237600   -0.90935700
 H                  3.22921100    1.28378800   -1.40386200
 H                  1.25758800   -0.97299600   -2.82866200
 H                  2.44303100   -0.84544100   -4.98575700
 H                  4.91889900   -1.05273300   -5.06061100
 H                  6.19259800   -1.36729200   -2.95441300
 H                  5.01200200   -1.45153300   -0.78818300
 H                  2.89577700   -3.80103500    0.81035100
 H                  4.55620100   -4.65370200    2.44391600
 H                  5.97760800   -3.06054500    3.71165600
 H                  5.74305500   -0.62122500    3.32605100
 H                  4.09523700    0.22714800    1.69598800
 Rh                 0.16167100   -2.40644900    0.08568500
 C                  0.32996700   -3.24293400   -1.60580600
 O                  0.43345600   -3.77914500   -2.61815200
 H                  0.32094800   -2.11860800    1.70187700
 C                 -0.86605700   -4.13115800    0.95460300
 C                  0.01147400   -3.69541000    1.97891200
 C                 -0.55162900   -3.29241600    3.32808900
 O                 -0.82757500   -4.47018100    4.10569200
 C                  0.24016300   -5.07188300    4.65891100
 C                 -0.17753200   -6.28880300    5.44352600
 O                  1.37381700   -4.67824000    4.53314100
 H                 -1.93710700   -4.00287700    1.11019300
 H                 -0.58483000   -4.98647600    0.34845000
 H                  0.99255000   -4.15609300    2.05520300
 H                 -1.51581400   -2.79450800    3.22222200
 H                  0.14301700   -2.65831700    3.88527200
 H                 -0.64989800   -7.01086200    4.77239100
 H                 -0.91536200   -6.00857700    6.19906900
 H                  0.69776800   -6.73273200    5.91501500
