95

 H                 -0.69456700   -0.83707500    4.32478100
 H                 -1.10915600    0.34922000    2.21244400
 H                 -3.75383000   -1.04517400   -2.82363700
 H                 -6.16263000   -1.47085100   -3.28363700
 H                 -6.97860600   -1.36135200    0.93302300
 H                 -4.58489600   -0.93053000    1.38890200
 H                  2.54843700   -1.20677200   -2.90172600
 H                  4.48615700   -2.12786900   -4.13460300
 H                  5.98631200   -3.83876200   -0.49113100
 H                  4.07202200   -2.89126900    0.75011000
 H                  1.29561600   -4.66686200    3.29384700
 H                  1.05245200   -3.72800300    1.02207600
 C                 -1.14302000   -1.36955700    3.49204300
 C                 -1.36888400   -0.70095100    2.28993500
 C                 -4.01798200   -0.95355400   -0.69305100
 C                 -4.47046000   -1.10933400   -2.00676000
 C                 -5.81970500   -1.34964200   -2.26102400
 C                 -6.72164600   -1.44031500   -1.20477700
 C                 -6.27653900   -1.28888900    0.10834800
 C                 -4.93070400   -1.04660900    0.36481500
 C                  3.18309400   -1.97825300   -0.98950400
 C                  3.31229100   -1.77440000   -2.37105900
 C                  4.39766400   -2.29626700   -3.06573800
 C                  5.36221900   -3.04377300   -2.39048200
 C                  5.23749400   -3.25813000   -1.02115100
 C                  4.15583900   -2.72496200   -0.32005700
 C                  1.87195700   -1.80222500    1.54352000
 C                  2.10588900   -2.85354600    4.13042100
 C                  1.60319200   -3.64388600    3.09855600
 C                  1.47002800   -3.11530700    1.81914900
 H                 -2.71777600   -3.25999400    0.50896800
 H                 -2.32098500   -4.43650500    2.63848800
 H                  2.68920400    0.00571300    2.39218800
 H                  2.87085200   -0.91604600    4.67312400
 C                 -1.92751800   -1.37400800    1.20128600
 C                 -2.26033500   -2.72894300    1.33976800
 C                 -2.04645800   -3.39033600    2.54352100
 C                 -1.48378200   -2.71091400    3.62284500
 C                  2.37336800   -1.01549900    2.58480500
 C                  2.48067200   -1.53751000    3.87266000
 H                 -4.41368700    1.50827800   -0.18743700
 C                 -2.18166700    5.42804200    0.33358600
 H                 -4.27026300    3.96776100    0.09379800
 C                  3.42321400    4.56678100    0.14594100
 H                  4.36144100    0.14516700   -0.28881600
 H                  4.96964400    2.54765000   -0.13011600
 C                 -3.44752200    1.98401800   -0.06070500
 C                 -2.28547400    1.22015600   -0.05011000
 C                 -1.05839400    1.88582000    0.10436000
 C                 -0.91909600    3.26740000    0.18782600
 C                 -2.12920900    3.99457200    0.19493900
 C                 -3.37049800    3.36310400    0.08220400
 C                  1.28564500    1.51549000    0.06112600
 C                  1.56913800    2.87928500    0.11436800
 C                  2.93862600    3.21288300    0.05075700
 C                  3.93142700    2.23812200   -0.08749000
 C                  3.58759700    0.89653800   -0.16816200
 C                  2.25247300    0.50953800   -0.08956200
 C                  0.46086200    3.93514700    0.22820500
 O                  0.01074500    1.04539300    0.17451700
 P                 -2.24039200   -0.58614500   -0.43117700
 P                  1.68465000   -1.25066300   -0.20105300
 C                  0.62018900    4.69221000    1.56461600
 H                 -0.14857400    5.46001900    1.67331500
 H                  0.53993500    3.99538300    2.40459000
 H                  1.58913900    5.19268000    1.61768900
 C                  0.56652800    4.88199100   -0.99002700
 H                  1.53171500    5.38981700   -1.01289700
 H                  0.44632200    4.30945500   -1.91427600
 H                 -0.20032000    5.65724500   -0.95348500
 H                  2.20137900   -3.26093000    5.13225100
 H                 -1.30533300   -3.22828600    4.56045800
 H                  6.20590800   -3.45952000   -2.93221400
 H                 -7.77174000   -1.63217800   -1.40197200
 Rh                -0.86885900   -1.19387100   -2.23704300
 H                 -0.10402800   -1.76892500   -3.55486900
 C                 -0.38185200    0.53995400   -2.70191300
 O                 -0.07607900    1.62614100   -2.93036300
 N                 -2.29475200    6.57370600    0.45424900
 N                  3.88114200    5.62660000    0.23016300
 C                 -1.42821200   -3.28877200   -1.98145300
 C                 -0.66441800   -3.25959900   -3.16764700
 C                  0.71717000   -3.88109800   -3.15698300
 O                  0.61695100   -5.31272700   -3.18656800
 C                  0.31987000   -5.85071200   -4.38444900
 C                  0.25679800   -7.35311500   -4.29826000
 O                  0.13340800   -5.19761800   -5.38093500
 H                 -0.96324100   -3.67713400   -1.07668400
 H                 -2.50926100   -3.38801200   -2.04231100
 H                 -1.18113800   -3.33873500   -4.12080100
 H                  1.23426400   -3.65209100   -2.22301100
 H                  1.32245400   -3.54728400   -4.00336400
 H                 -0.52193200   -7.64645400   -3.58957900
 H                  1.20706900   -7.74292200   -3.92545700
 H                  0.04055500   -7.76219200   -5.28376400

