95

 H                 -1.21117400   -0.64620600    4.76203400
 H                 -1.22401000    0.24773000    2.46537600
 H                 -2.75433700   -1.43075300   -2.84375100
 H                 -4.98359500   -1.98678400   -3.71026200
 H                 -6.44406800   -2.42829700    0.31053500
 H                 -4.20382800   -1.88660300    1.18462300
 H                  3.38004900   -1.75699600   -2.62027900
 H                  5.62212700   -2.59409200   -3.25307400
 H                  6.66673900   -2.92549100    0.89991800
 H                  4.44445600   -2.05805200    1.53369200
 H                  1.16934900   -4.09584200    3.69176300
 H                  1.21808900   -3.44229400    1.30157100
 C                 -1.40843600   -1.31408700    3.92912900
 C                 -1.40780400   -0.81010400    2.62914600
 C                 -3.31762200   -1.62378800   -0.76801500
 C                 -3.56157400   -1.64125900   -2.14574900
 C                 -4.82900800   -1.94500400   -2.63838900
 C                 -5.86699900   -2.22833300   -1.75597700
 C                 -5.63639200   -2.20981600   -0.38138200
 C                 -4.36996400   -1.90952800    0.11184500
 C                  3.76048300   -1.84855700   -0.50192900
 C                  4.10576900   -2.00592600   -1.85014800
 C                  5.36541700   -2.47989200   -2.20459800
 C                  6.28931000   -2.81378400   -1.21630700
 C                  5.95160500   -2.66467100    0.12600100
 C                  4.69544900   -2.17860600    0.48391000
 C                  1.97684300   -1.46578500    1.69165200
 C                  1.89363600   -2.19067600    4.39007900
 C                  1.51044600   -3.10469900    3.40979100
 C                  1.53809600   -2.73983700    2.06882100
 H                 -2.05390000   -3.69032400    0.94672000
 H                 -2.08944700   -4.57124200    3.25429800
 H                  2.69990200    0.43995700    2.40197000
 H                  2.59729500   -0.19483600    4.78423300
 C                 -1.65333700   -1.65622600    1.54672000
 C                 -1.87037600   -3.02042800    1.78519300
 C                 -1.89446000   -3.51673800    3.08332300
 C                 -1.66674600   -2.66126000    4.16062300
 C                  2.35253000   -0.55144800    2.67864400
 C                  2.30398700   -0.91252200    4.02419400
 H                 -4.11358100    0.68254900   -0.30333900
 C                 -2.51160200    4.92401900   -0.00503200
 H                 -4.34927800    3.14427700   -0.21208600
 C                  3.20375900    4.83357600   -0.20742400
 H                  4.65937400    0.53128000   -0.46642800
 H                  4.97014700    2.99625200   -0.48424100
 C                 -3.23399900    1.30421600   -0.17925800
 C                 -1.97429700    0.72368800   -0.05254000
 C                 -0.87948000    1.58432900    0.10022200
 C                 -0.94097400    2.97430800    0.04186300
 C                 -2.24301500    3.50912400   -0.04950500
 C                 -3.36888600    2.68586700   -0.14732100
 C                  1.47349900    1.55478600    0.04939600
 C                  1.57515100    2.93851400   -0.03617400
 C                  2.88829000    3.42759600   -0.21143000
 C                  3.98256100    2.56841400   -0.35344900
 C                  3.80758200    1.18953800   -0.33066000
 C                  2.53798000    0.66188500   -0.12346200
 C                  0.33192900    3.83578600    0.04483700
 O                  0.29538800    0.94110600    0.34511000
 P                 -1.64393900   -1.09923500   -0.20485900
 P                  2.11001800   -1.13343900   -0.10894100
 C                  0.38845300    4.67918200    1.33536400
 H                 -0.48106100    5.33724000    1.40603100
 H                  0.40764100    4.02796600    2.21452100
 H                  1.28177500    5.30881000    1.34622000
 C                  0.30414700    4.72951300   -1.21727800
 H                  1.18644100    5.36809000   -1.26895800
 H                  0.26874200    4.10605800   -2.11569900
 H                 -0.56331300    5.39009400   -1.21511700
 H                  1.86183000   -2.47284600    5.43810300
 H                 -1.67944600   -3.04716600    5.17542700
 H                  7.26905200   -3.19095200   -1.49225600
 H                 -6.85421900   -2.46992200   -2.13755200
 Rh                 0.38505000   -1.85707300   -1.57249100
 H                  1.40989500   -3.04229000   -1.85516200
 C                  0.61268600   -0.52477000   -2.96222200
 O                  0.86394500    0.18489700   -3.83060300
 N                 -2.79017600    6.04629200    0.04946400
 N                  3.52180900    5.94643100   -0.18730400
 C                  0.24393800   -4.07278700   -1.84685400
 C                 -0.73170600   -3.32464400   -2.59887200
 C                 -0.60511000   -3.28207800   -4.09713600
 O                 -1.17632400   -4.46008300   -4.71143400
 C                 -2.49511700   -4.41436800   -4.94658100
 C                 -2.98439700   -5.70794900   -5.54489200
 O                 -3.19057800   -3.45551100   -4.70600600
 H                  0.95695700   -4.68398900   -2.40273100
 H                 -0.04489900   -4.53232500   -0.90546800
 H                 -1.75858300   -3.35497400   -2.24035600
 H                  0.44596300   -3.29339200   -4.39628100
 H                 -1.09526500   -2.40235000   -4.52028400
 H                 -2.83242600   -6.51982000   -4.82873600
 H                 -2.40688700   -5.94554600   -6.44124700
 H                 -4.04209600   -5.61809700   -5.78721700

