93

 H                 -0.42844000   -3.85957300    3.95685000
 H                 -0.47823100   -3.30450100    1.54294600
 H                 -3.76466300   -2.49587300    1.65978300
 H                 -5.88750300   -3.57744000    1.02570100
 H                 -5.02415300   -2.84383200   -3.12401800
 H                 -2.91635800   -1.76100700   -2.49923400
 H                  4.75313400   -1.17931600    1.45236400
 H                  7.04316100   -1.62772700    0.65022500
 H                  5.61837900   -1.68866500   -3.40116800
 H                  3.31595300   -1.26470900   -2.59497500
 H                  2.81950700   -4.09235900    3.58598300
 H                  2.74339000   -3.30062700    1.24376500
 C                 -0.88066600   -2.92987200    3.62588200
 C                 -0.91139200   -2.62045500    2.27069400
 C                 -3.19171800   -2.04393900   -0.37218400
 C                 -4.03832100   -2.56638500    0.61146800
 C                 -5.23941300   -3.17505500    0.25298600
 C                 -5.60758100   -3.26691300   -1.08673700
 C                 -4.77017900   -2.75225500   -2.07406800
 C                 -3.56928900   -2.14514100   -1.71787400
 C                  3.87468800   -1.19918100   -0.51848100
 C                  4.93641600   -1.29829600    0.38833400
 C                  6.22986400   -1.54700300   -0.06436200
 C                  6.47956200   -1.68915500   -1.42744800
 C                  5.43118000   -1.58126100   -2.33733300
 C                  4.13575000   -1.34050900   -1.88585700
 C                  2.17428600   -1.28702700    1.76755500
 C                  2.22455700   -2.19275300    4.41398300
 C                  2.54272300   -3.06415900    3.37258800
 C                  2.50017600   -2.61873700    2.05673400
 H                 -2.46919300    0.39523900    2.43681400
 H                 -2.35887200   -0.12766500    4.84895800
 H                  1.57531800    0.60718200    2.60470500
 H                  1.58977900   -0.20409100    4.93546200
 C                 -1.49410300   -1.42821200    1.82704700
 C                 -2.00980400   -0.53231700    2.76663200
 C                 -1.95606900   -0.83162900    4.12695500
 C                 -1.40255200   -2.03386700    4.55726000
 C                  1.84131400   -0.42499500    2.81305400
 C                  1.85901500   -0.88093900    4.13050500
 H                 -4.28480200    0.25876700   -0.45094400
 F                 -3.07446800    4.57269000   -0.40219300
 H                 -4.78713400    2.70775600   -0.60685000
 F                  2.32073600    5.17824700   -0.12025900
 H                  4.45318500    1.24539800   -0.11701300
 H                  4.41426500    3.74213400   -0.17887200
 C                 -3.48984700    0.98839300   -0.33550900
 C                 -2.18567600    0.56419700   -0.09146900
 C                 -1.20419700    1.54969800    0.05850200
 C                 -1.41957700    2.91661400   -0.08994400
 C                 -2.75288000    3.26828900   -0.31246300
 C                 -3.78010800    2.34749900   -0.43249900
 C                  1.13173400    1.80738900    0.16198600
 C                  1.05260300    3.19263500    0.03342600
 C                  2.28821600    3.83430400   -0.06298600
 C                  3.50068600    3.16553300   -0.09498300
 C                  3.50928100    1.77488900   -0.04486200
 C                  2.31607900    1.06496500    0.08456600
 C                 -0.28174300    3.93542600   -0.04059800
 O                  0.02059500    1.06163200    0.40172800
 P                 -1.60781500   -1.18538100    0.00807300
 P                  2.15769600   -0.77612500    0.00346800
 C                 -0.44750500    4.85450100    1.18405700
 H                  0.36382500    5.58596700    1.21703400
 H                 -1.39967900    5.38782700    1.12552700
 H                 -0.42986300    4.26893800    2.10807900
 C                 -0.30664500    4.75850300   -1.34902000
 H                 -0.18648300    4.09448200   -2.21032700
 H                 -1.25388500    5.28988100   -1.44654900
 H                  0.50226000    5.48988400   -1.35544400
 H                  2.24909300   -2.54105200    5.44217800
 H                 -1.36805800   -2.26951400    5.61674900
 H                  7.48828800   -1.88325300   -1.77854900
 H                 -6.54192500   -3.74657000   -1.36204200
 Rh                 0.47962800   -1.71447800   -1.41141500
 H                  1.63572300   -2.75477100   -1.74841500
 C                  0.47361600   -0.33258300   -2.76514900
 O                  0.59135600    0.43118900   -3.61686000
 C                  0.59332200   -3.92613000   -1.72995300
 C                 -0.49458000   -3.28379600   -2.42421500
 C                 -0.44603100   -3.19828800   -3.92455400
 O                 -0.91444600   -4.42122300   -4.54157300
 C                 -2.23882500   -4.51837300   -4.71667100
 C                 -2.61047000   -5.85326100   -5.30987800
 O                 -3.02570700   -3.64604800   -4.43110500
 H                  1.35135800   -4.43282700   -2.32946200
 H                  0.39831300   -4.43933600   -0.79246500
 H                 -1.49276000   -3.44037900   -2.02136700
 H                  0.58361200   -3.08723300   -4.27380800
 H                 -1.05126700   -2.37110200   -4.30196200
 H                 -2.37402900   -6.64471500   -4.59352100
 H                 -2.02441200   -6.03806000   -6.21287000
 H                 -3.67533400   -5.86537200   -5.53703400

