93

 H                 -2.00416300   -4.54044800    3.03843600
 H                 -2.00321900   -3.51036000    0.79332100
 H                 -2.80470900   -1.20436600   -2.84531500
 H                 -5.04792800   -1.74016700   -3.69585600
 H                 -6.49074000   -2.12360000    0.33710300
 H                 -4.23575500   -1.60672500    1.19286400
 H                  3.21799800   -1.42284600   -2.76623000
 H                  5.47983300   -2.11279200   -3.50091500
 H                  6.76900100   -2.23150000    0.59434000
 H                  4.52395700   -1.51242600    1.32650700
 H                  1.22446500   -3.93040600    3.50470400
 H                  1.24182200   -3.18768400    1.14099000
 C                 -1.85224200   -3.46994300    2.93698300
 C                 -1.84788000   -2.88943800    1.67437000
 C                 -3.35922500   -1.37603900   -0.76699000
 C                 -3.61105100   -1.40136000   -2.14260900
 C                 -4.88572100   -1.69175800   -2.62535100
 C                 -5.92226800   -1.95226100   -1.73447000
 C                 -5.68363100   -1.92409400   -0.36119600
 C                 -4.41043900   -1.63751200    0.12146900
 C                  3.71725600   -1.42035300   -0.67181600
 C                  4.00049500   -1.59438800   -2.03175700
 C                  5.27209500   -1.98522500   -2.44313700
 C                  6.27031600   -2.21769200   -1.49991600
 C                  5.99517300   -2.05033500   -0.14513200
 C                  4.72745300   -1.64748300    0.26820200
 C                  1.98523000   -1.22007100    1.59472900
 C                  1.93680500   -2.04565700    4.26654800
 C                  1.55462900   -2.92651500    3.25689500
 C                  1.56644200   -2.51189900    1.92966200
 H                 -1.34578200    0.35213300    2.56753000
 H                 -1.29681400   -0.68737900    4.79981900
 H                  2.69349300    0.66604200    2.36843200
 H                  2.62872400   -0.05951600    4.72635400
 C                 -1.68247700   -1.50513200    1.52348000
 C                 -1.48052100   -0.72102700    2.65988500
 C                 -1.46184900   -1.30842200    3.92461600
 C                 -1.65931800   -2.67758800    4.06829800
 C                  2.36426100   -0.34040600    2.61206300
 C                  2.33442600   -0.75166700    3.94321800
 H                 -4.10427500    0.98614600   -0.61130700
 H                 -2.40952500    4.83581000    0.07661600
 F                 -4.50091300    3.51940600   -0.58174200
 H                  2.67646200    4.88805200   -0.21390800
 H                  4.40144200    1.05399000   -0.96032600
 F                  4.72390000    3.60867300   -1.05260500
 C                 -3.23776500    1.56127300   -0.30565600
 C                 -2.02163000    0.95105800    0.01633000
 C                 -0.97013900    1.78386600    0.39461900
 C                 -1.05141900    3.17630300    0.43027600
 C                 -2.26653600    3.76154200    0.08461500
 C                 -3.33114500    2.94310400   -0.26350100
 C                  1.34324200    1.81661400    0.28794700
 C                  1.39484700    3.20817900    0.29786600
 C                  2.55894300    3.81121800   -0.17557200
 C                  3.60620400    3.01121800   -0.61093000
 C                  3.55050700    1.62485600   -0.60409600
 C                  2.38323000    1.00532600   -0.15683500
 C                  0.19071800    3.94088900    0.88176100
 O                  0.21446900    1.17253400    0.73880000
 P                 -1.68521200   -0.85797800   -0.19856100
 P                  2.04902900   -0.80315600   -0.19376500
 C                  0.27982600    3.85249500    2.42252100
 H                  0.32167900    2.80953600    2.75231900
 H                  1.18134500    4.36382200    2.77559300
 H                 -0.59646300    4.32612600    2.87677300
 C                  0.14928700    5.40830600    0.46034900
 H                  1.04531300    5.93015600    0.80826700
 H                  0.08213600    5.51233600   -0.62703900
 H                 -0.70812400    5.91257300    0.91492700
 H                  1.91509200   -2.36543700    5.30401400
 H                 -1.65492100   -3.12867000    5.05599400
 H                  7.25968700   -2.52951200   -1.81982700
 H                 -6.91519600   -2.18254000   -2.10829200
 Rh                 0.30799400   -1.56512900   -1.60199500
 H                  1.35366700   -2.73134700   -1.89700900
 C                  0.47492000   -0.24888600   -3.01706700
 O                  0.68273200    0.44857100   -3.90632500
 C                  0.21248500   -3.78724900   -1.84835100
 C                 -0.79796400   -3.07259100   -2.58734000
 C                 -0.70311400   -3.04761900   -4.08809000
 O                 -1.25115200   -4.25118000   -4.67502100
 C                 -2.57321400   -4.24477500   -4.89475200
 C                 -3.03489000   -5.56414800   -5.45858700
 O                 -3.29189300   -3.30024400   -4.66699600
 H                  0.92583300   -4.38988000   -2.41322200
 H                 -0.04395000   -4.24195100   -0.89507200
 H                 -1.81605400   -3.12477900   -2.20696300
 H                  0.34177700   -3.03256600   -4.40815200
 H                 -1.22716900   -2.18913800   -4.51414100
 H                 -2.85934800   -6.35425800   -4.72368500
 H                 -2.45731500   -5.81004100   -6.35264400
 H                 -4.09600300   -5.50544600   -5.69561200

