93

 H                 -2.47521300   -4.39453500    2.73628900
 H                 -2.69632900   -3.14932900    0.62138700
 H                 -3.45321400   -0.90561900   -2.70912600
 H                 -5.81363800   -1.35251200   -3.37570800
 H                 -6.98486600   -1.26208300    0.75684700
 H                 -4.64123700   -0.81836300    1.41465000
 H                  2.57418500   -0.92033500   -3.15400000
 H                  4.57522100   -1.83528700   -4.28975900
 H                  6.01772900   -3.32991200   -0.52988800
 H                  4.04345900   -2.38168300    0.61201400
 H                  1.00749300   -4.20240100    3.09127000
 H                  0.82747400   -3.28718200    0.80290400
 C                 -2.19730900   -3.34551100    2.69918300
 C                 -2.31505000   -2.64337100    1.50454300
 C                 -3.89953800   -0.83009800   -0.61177500
 C                 -4.23828500   -0.98335700   -1.95892900
 C                 -5.55949400   -1.23356900   -2.32716300
 C                 -6.54704700   -1.33424700   -1.35182900
 C                 -6.21576600   -1.18361000   -0.00520900
 C                 -4.89826100   -0.93375100    0.36463200
 C                  3.17506600   -1.58364300   -1.19280100
 C                  3.33823500   -1.44080600   -2.57833300
 C                  4.45988900   -1.95838500   -3.21726600
 C                  5.42559000   -2.64423000   -2.48143300
 C                  5.26785600   -2.79773800   -1.10717500
 C                  4.15235100   -2.26497500   -0.46227200
 C                  1.77227600   -1.41368400    1.29271700
 C                  1.94564200   -2.43619600    3.89442600
 C                  1.38701500   -3.20795600    2.87753800
 C                  1.28715800   -2.69297400    1.58969400
 H                 -1.24060100    0.40205700    2.56560000
 H                 -1.00419200   -0.85103400    4.66637800
 H                  2.70892000    0.35017600    2.10760300
 H                  2.83855400   -0.54523600    4.40467400
 C                 -1.98000000   -1.28414800    1.43836000
 C                 -1.50732600   -0.64882700    2.58919000
 C                 -1.38069100   -1.35685300    3.78267500
 C                 -1.73012400   -2.70183600    3.84318600
 C                  2.32667800   -0.64453600    2.31968100
 C                  2.40555800   -1.15221400    3.61514900
 H                 -4.37724200    1.66319500   -0.15991500
 H                 -2.16227400    5.22592300    0.60270800
 F                 -4.45577800    4.22110100    0.08698600
 H                  2.85242800    4.72992900   -0.15307500
 H                  4.10464500    0.80340700   -1.25081800
 F                  4.69391400    3.30527500   -1.21094400
 C                 -3.42391900    2.11301100    0.09445300
 C                 -2.26560700    1.34795400    0.24278100
 C                 -1.07954600    2.01520700    0.55430100
 C                 -0.98869700    3.39947800    0.69282800
 C                 -2.15306300    4.14522000    0.52267300
 C                 -3.34130800    3.48902400    0.23843600
 C                  1.21688700    1.78591500    0.22655900
 C                  1.42815700    3.15972700    0.32932600
 C                  2.61956100    3.67198800   -0.18110900
 C                  3.54382500    2.80030900   -0.73679100
 C                  3.33764900    1.43113000   -0.81056300
 C                  2.13855600    0.89880800   -0.33302500
 C                  0.37212300    3.97914600    1.06583400
 O                  0.04836600    1.24202400    0.71250700
 P                 -2.15544500   -0.44011200   -0.18873800
 P                  1.64215700   -0.87317300   -0.45979800
 C                  0.58380600    3.76833100    2.58273100
 H                  0.53049000    2.70556700    2.84013000
 H                  1.56755900    4.14643200    2.87950000
 H                 -0.18657700    4.30267000    3.14820500
 C                  0.46984400    5.46924100    0.74407200
 H                  1.44678600    5.86044800    1.04127100
 H                  0.32462300    5.65927700   -0.32384100
 H                 -0.28012000    6.03206900    1.30694700
 H                  2.01389900   -2.83198900    4.90327800
 H                 -1.63348400   -3.24872300    4.77634600
 H                  6.29648800   -3.05867200   -2.97945700
 H                 -7.57552000   -1.53189100   -1.63770100
 Rh                -0.61256900   -0.92132100   -1.87447900
 H                  0.11176600   -1.42882100   -3.24140200
 C                 -0.57234700    0.82882200   -2.52673200
 O                 -0.57449900    1.91770300   -2.89875800
 C                 -1.17329700   -3.05245400   -1.75849300
 C                 -0.56846900   -2.90816700   -3.02455100
 C                  0.76237400   -3.59081800   -3.26326400
 O                  0.57766300   -5.00767700   -3.40912500
 C                  0.08795200   -5.41164700   -4.59553400
 C                 -0.06209300   -6.91018900   -4.63268600
 O                 -0.18884700   -4.65820800   -5.49566700
 H                 -0.63627300   -3.59222800   -0.98145800
 H                 -2.25739900   -3.10190200   -1.70072100
 H                 -1.20313300   -2.84061000   -3.90379300
 H                  1.41165800   -3.47857400   -2.39221700
 H                  1.26859500   -3.20464500   -4.15152700
 H                 -0.77584800   -7.22376400   -3.86639700
 H                  0.89537300   -7.38559800   -4.40706100
 H                 -0.41363800   -7.21337900   -5.61751300

