109

 H                  0.21288700   -4.32328500    3.93470500
 H                  0.07849300   -3.76803900    1.52464200
 H                 -2.57388000   -2.53276300   -2.47775300
 H                 -4.50921400   -3.91382400   -3.07442500
 H                 -5.16247500   -4.80674800    1.08204600
 H                 -3.21337200   -3.42515600    1.68662800
 H                  3.48060700   -1.13860900   -2.66423900
 H                  5.80590100   -1.24750300   -3.50578500
 H                  7.26807700   -1.07683900    0.52890000
 H                  4.95203100   -0.93993100    1.36603200
 H                  3.49037000   -4.06469300    3.50177800
 H                  3.26656500   -3.27931300    1.16710000
 C                 -0.34615000   -3.45033400    3.61216300
 C                 -0.42289600   -3.14015700    2.25910500
 C                 -2.75546500   -2.87543600   -0.35040800
 C                 -3.14406300   -3.01972100   -1.68904400
 C                 -4.24854800   -3.79558200   -2.02881800
 C                 -4.97811400   -4.43917000   -1.03153900
 C                 -4.59847400   -4.30537700    0.30121900
 C                 -3.49412500   -3.52719900    0.64290200
 C                  4.05389700   -1.04079800   -0.59336900
 C                  4.31298900   -1.12146000   -1.96610100
 C                  5.62190100   -1.18477000   -2.43776400
 C                  6.68849100   -1.17394100   -1.54283500
 C                  6.44128200   -1.08924800   -0.17467300
 C                  5.13299100   -1.01720900    0.29787400
 C                  2.41443400   -1.37458400    1.71280500
 C                  2.63476000   -2.27764100    4.35184500
 C                  3.06251600   -3.08712200    3.29996200
 C                  2.93624700   -2.64540100    1.98811800
 H                 -2.31507100   -0.32448300    2.45230900
 H                 -2.12727400   -0.84260600    4.86094200
 H                  1.55058900    0.40412300    2.57081700
 H                  1.71938100   -0.40793100    4.89590900
 C                 -1.14295900   -2.02140600    1.82576100
 C                 -1.74993500   -1.19470200    2.77399400
 C                 -1.65193000   -1.49254900    4.13230100
 C                 -0.96141800   -2.62538300    4.55235100
 C                  1.97153800   -0.57723600    2.76899400
 C                  2.07546200   -1.03271100    4.08252600
 H                 -4.17229700   -0.78418300   -0.41272200
 N                 -3.74869000    3.78380300   -0.27642500
 H                 -5.05750500    1.51908300   -0.50384500
 N                  1.70490300    5.20681100   -0.01687300
 H                  4.30730500    1.43531200   -0.17102600
 H                  3.96475700    3.87466100   -0.15147300
 C                 -3.50140100    0.06058900   -0.29543300
 C                 -2.14403400   -0.14650300   -0.07258300
 C                 -1.33612900    0.98468600    0.08334800
 C                 -1.76789200    2.30548600   -0.03869900
 C                 -3.15685900    2.46986400   -0.23519300
 C                 -3.99321200    1.35831900   -0.35702800
 C                  0.94667300    1.57663300    0.16452200
 C                  0.68729900    2.94538200    0.06607600
 C                  1.82822700    3.77095700   -0.02306300
 C                  3.10679700    3.21193800   -0.08405100
 C                  3.30484300    1.83833500   -0.07568800
 C                  2.21097600    0.98675600    0.05353700
 C                 -0.76117200    3.47021000    0.02155600
 O                 -0.04833900    0.68268600    0.41759200
 P                 -1.31029500   -1.78937100    0.00883400
 P                  2.30081700   -0.85606500   -0.04583200
 C                 -1.04311500    4.33619900    1.26374700
 H                 -0.35151300    5.18046300    1.28922000
 H                 -2.06183600    4.72545500    1.21625800
 H                 -0.92615100    3.74736500    2.18006900
 C                 -0.92172000    4.30578400   -1.26800400
 H                 -1.93406000    4.70305600   -1.32487100
 H                 -0.22556800    5.14297900   -1.25460700
 H                 -0.72508200    3.68335400   -2.14759400
 H                  2.72458100   -2.62397800    5.37713100
 H                 -0.89244200   -2.86083400    5.61024500
 H                  7.70880100   -1.23069200   -1.90934300
 H                 -5.83640100   -5.05029900   -1.29386300
 Rh                 0.76180300   -2.00633200   -1.44760000
 H                  2.05675500   -2.84769600   -1.83916300
 C                  0.50809800   -0.61727900   -2.77091300
 O                  0.45687500    0.19202200   -3.58630000
 C                 -4.43550500    4.05623400   -1.53293000
 H                 -4.71627100    5.11434800   -1.56079700
 H                 -3.76299800    3.85193400   -2.36998400
 H                 -5.35066400    3.45607700   -1.66951400
 C                 -4.62294200    4.02455700    0.86453500
 H                 -5.53471700    3.40330000    0.85077900
 H                 -4.08195000    3.81810700    1.79184300
 H                 -4.92596400    5.07685100    0.86423200
 C                  2.27911100    5.83362500   -1.20080200
 H                  2.00252400    6.89309500   -1.20871300
 H                  3.37933800    5.76824100   -1.24099400
 H                  1.87359000    5.36097200   -2.09901000
 C                  2.24543200    5.79183600    1.20385100
 H                  3.34120000    5.68917300    1.28392100
 H                  1.99844500    6.85840800    1.22647900
 H                  1.79183700    5.31054600    2.07431200
 C                  1.21637700   -4.17063700   -1.80868300
 C                  0.02158000   -3.69977100   -2.46309300
 C                  0.01746900   -3.58550300   -3.96216400
 O                 -0.26249700   -4.85970000   -4.59127000
 C                 -1.55708800   -5.16420500   -4.74748600
 C                 -1.72167600   -6.53553000   -5.35173400
 O                 -2.46823800   -4.43145100   -4.44016900
 H                  2.02790800   -4.54306200   -2.43613100
 H                  1.13136600   -4.71992500   -0.87537700
 H                 -0.92767800   -4.01914800   -2.03903400
 H                  1.00675900   -3.30462400   -4.33203100
 H                 -0.72234400   -2.86188600   -4.31133000
 H                 -1.34403400   -7.28596400   -4.65198600
 H                 -1.13423300   -6.61323700   -6.26934500
 H                 -2.77546800   -6.71729000   -5.55713700

