109

 H                 -0.00946400   -4.48890500    3.22886000
 H                 -0.44653100   -3.80041600    0.90102700
 H                 -2.78298900   -2.72691000   -2.71098400
 H                 -4.81809100   -4.06614100   -3.23676000
 H                 -5.97199400   -3.91274100    0.89850700
 H                 -3.95526100   -2.57488100    1.41511100
 H                  2.75181100   -0.54028700   -3.18416100
 H                  4.87602500   -0.65824300   -4.44897200
 H                  6.96012000   -1.69200800   -0.83830400
 H                  4.84966000   -1.53663600    0.43072900
 H                  3.34849500   -4.56832200    2.52806400
 H                  2.97706500   -3.48443900    0.34338000
 C                 -0.50547200   -3.54376900    3.03148300
 C                 -0.74816900   -3.15418200    1.71940300
 C                 -3.24680000   -2.55752900   -0.62212200
 C                 -3.49554100   -2.98608900   -1.92964800
 C                 -4.63350600   -3.73672600   -2.21899000
 C                 -5.52512500   -4.06957900   -1.20295800
 C                 -5.28013700   -3.65038100    0.10403700
 C                 -4.14588400   -2.89819500    0.39490200
 C                  3.65163500   -1.03125500   -1.29017800
 C                  3.67951700   -0.78233100   -2.66936300
 C                  4.87275800   -0.85391700   -3.38105300
 C                  6.05650800   -1.18800600   -2.72569300
 C                  6.04050100   -1.43614700   -1.35587000
 C                  4.84738700   -1.35235100   -0.63950200
 C                  2.32603600   -1.60569500    1.18806100
 C                  2.73094100   -2.84730700    3.66986000
 C                  2.98393100   -3.54602400    2.49053900
 C                  2.76862800   -2.93486900    1.25990500
 H                 -2.23739300   -0.15893500    2.31391300
 H                 -1.77535300   -0.83684800    4.63835900
 H                  1.69410500    0.10279200    2.33969300
 H                  2.03764000   -0.99657800    4.52154500
 C                 -1.38083900   -1.93686400    1.44254900
 C                 -1.74373000   -1.10692200    2.50663100
 C                 -1.48833000   -1.49255900    3.82174600
 C                 -0.87609700   -2.71287900    4.08688300
 C                  2.05503600   -0.92126800    2.37577900
 C                  2.25517600   -1.54085300    3.60738400
 H                 -4.54366300   -0.29146100   -0.46805300
 N                 -3.73589100    4.19144000    0.10403300
 H                 -5.23713500    2.07766300   -0.28838100
 N                  1.80460000    5.15867800    0.34707100
 H                  4.12271200    1.26475000   -0.34209900
 H                  3.96012900    3.70101900   -0.00359800
 C                 -3.80324100    0.48350000   -0.29560700
 C                 -2.46127900    0.15244000   -0.15966700
 C                 -1.54775000    1.19224500    0.05844400
 C                 -1.87573400    2.54574600    0.10288200
 C                 -3.25433800    2.83736500   -0.00843200
 C                 -4.18619100    1.81613700   -0.20442000
 C                  0.78674100    1.59244000    0.09062200
 C                  0.62840700    2.97933100    0.17947800
 C                  1.82322000    3.72918500    0.16232100
 C                  3.05778400    3.09631000   -0.00114400
 C                  3.15389800    1.72394900   -0.17379900
 C                  2.00570800    0.93612100   -0.13219700
 C                 -0.77596100    3.61395700    0.24529400
 O                 -0.27260000    0.75135100    0.25615200
 P                 -1.75194500   -1.53316000   -0.31730100
 P                  2.00492400   -0.88393900   -0.46940200
 C                 -0.95545100    4.35543000    1.58381200
 H                 -0.20911900    5.14662800    1.67071900
 H                 -1.94660600    4.81090500    1.62083900
 H                 -0.84654500    3.66312400    2.42589300
 C                 -0.90524900    4.59492600   -0.94125800
 H                 -1.87639700    5.08692000   -0.90787100
 H                 -0.13219600    5.35935300   -0.87448600
 H                 -0.80377900    4.05440700   -1.88848600
 H                  2.89429000   -3.32356000    4.63190100
 H                 -0.67715800   -3.01284900    5.11147300
 H                  6.98690600   -1.25558000   -3.28088500
 H                 -6.40860500   -4.65971500   -1.42649500
 Rh                -0.06522000   -1.70171400   -1.95947200
 H                  0.80310500   -2.05986600   -3.28031400
 C                 -0.54561200   -0.09141900   -2.76865600
 O                 -0.84811200    0.91284100   -3.24437600
 C                 -4.42383100    4.64648900   -1.09806000
 H                 -4.61505800    5.72123000   -1.01116500
 H                 -3.78912800    4.47426400   -1.97096900
 H                 -5.38895400    4.13969000   -1.26600900
 C                 -4.56217400    4.38367300    1.28883500
 H                 -5.52392100    3.84493500    1.23981600
 H                 -4.02122300    4.03912100    2.17422500
 H                 -4.77464600    5.45170000    1.40388900
 C                  2.40737400    5.88491600   -0.76364200
 H                  2.20703400    6.95396200   -0.63674800
 H                  3.49954500    5.74896300   -0.83478400
 H                  1.95835200    5.55553800   -1.70412900
 C                  2.40482700    5.54849000    1.61696000
 H                  3.49110000    5.35875000    1.65752000
 H                  2.23776400    6.61908600    1.77560100
 H                  1.93017300    4.99700200    2.43278300
 C                  0.17068100   -3.86767100   -1.61649200
 C                  0.64231300   -3.65398600   -2.92905000
 C                  2.11775100   -3.86274500   -3.20230700
 O                  2.43425100   -5.26439000   -3.20851300
 C                  2.07217400   -5.93869600   -4.31467200
 C                  2.44711600   -7.39379000   -4.20350600
 O                  1.52093500   -5.42922100   -5.25865800
 H                  0.89890900   -4.09668100   -0.83989500
 H                 -0.82049300   -4.28937200   -1.47172900
 H                 -0.00675500   -3.89235300   -3.76695800
 H                  2.72069800   -3.44170600   -2.39457200
 H                  2.42521300   -3.42398100   -4.15501500
 H                  1.91301200   -7.84393500   -3.36264700
 H                  3.51724400   -7.48821800   -4.00446200
 H                  2.18674600   -7.90526900   -5.12873400

