95

 H                 -5.03146800   -4.15974900    1.51723500
 H                 -3.18675900   -2.66914600    2.19762700
 H                 -2.98275400    0.06296900    2.24542500
 H                 -3.19498500    0.36912600    4.68469900
 H                  0.53593300   -1.67999400    5.26161300
 H                  0.70999800   -2.05878500    2.82766100
 H                 -0.82569200    2.38029800    2.12051500
 H                 -0.61500100    2.32570700    4.58847400
 H                  3.50573400    1.17664200    4.20642200
 H                  3.31174400    1.28446000    1.74662100
 H                  2.60072600    6.59501900    0.96376100
 H                  2.21991600    4.21520200    1.50953700
 C                 -4.36397400   -3.75478900    0.76264200
 C                 -3.32352900   -2.90777500    1.14720700
 C                 -1.13452900   -1.04712100    2.36786600
 C                 -2.21817800   -0.33935500    2.90788700
 C                 -2.33692700   -0.16050800    4.28141600
 C                 -1.34817600   -0.64918400    5.13511000
 C                 -0.24697900   -1.31321300    4.60461700
 C                 -0.14369700   -1.52092300    3.22954200
 C                  1.23095500    1.85166900    1.76940100
 C                  0.12935400    2.13886700    2.58317100
 C                  0.24777400    2.10489600    3.96820800
 C                  1.46206900    1.75577800    4.55580500
 C                  2.55826700    1.45281300    3.75361400
 C                  2.44675800    1.50694800    2.36538100
 C                  1.24176700    3.77099800   -0.35987300
 C                  1.69341400    6.46226400   -0.98388100
 C                  2.10626900    5.95046500    0.24349400
 C                  1.88794400    4.60947300    0.55321800
 H                 -1.99341200   -2.28185300   -1.91439100
 H                 -3.81485500   -3.81084200   -2.58747200
 H                  0.31735200    3.64616300   -2.30070800
 H                  0.73089500    6.02368000   -2.86087200
 C                 -2.46289000   -2.37135700    0.18812800
 C                 -2.65094600   -2.70922100   -1.15929600
 C                 -3.67847100   -3.56437200   -1.53922600
 C                 -4.54382000   -4.08437300   -0.57673500
 C                  0.82617100    4.29370300   -1.59062300
 C                  1.05632800    5.63070900   -1.90267800
 H                 -0.85401100   -4.25425700    0.69796900
 O                  3.41113900   -5.09930400   -0.56588600
 H                  1.01460000   -5.79668300    0.22935600
 O                  6.03970800   -0.57512700   -2.00812500
 H                  3.53231500    3.14337400   -1.33462900
 H                  5.58079900    2.00055800   -2.12292300
 C                  0.11397400   -3.85335400    0.41464300
 C                  0.29589300   -2.47525800    0.31548800
 C                  1.57313100   -2.03267700   -0.04934200
 C                  2.63837500   -2.85545500   -0.41198200
 C                  2.39781200   -4.23442500   -0.28131000
 C                  1.15977500   -4.72283800    0.13975500
 C                  2.75331000   -0.06414300   -0.61199200
 C                  3.86877500   -0.76328700   -1.05461500
 C                  4.89492800    0.03714200   -1.59431400
 C                  4.76608700    1.42218200   -1.69417000
 C                  3.61513000    2.06446500   -1.24925000
 C                  2.57986200    1.32309900   -0.69383500
 C                  3.96029600   -2.28888300   -0.94666600
 O                  1.71060400   -0.68398200   -0.00084200
 P                 -1.05574900   -1.23053700    0.53895800
 P                  0.98803900    1.97468300   -0.05004400
 C                  4.19882600   -2.86896500   -2.35979300
 H                  3.37556800   -2.58163100   -3.02125800
 H                  5.13134600   -2.48653200   -2.77591400
 H                  4.25337200   -3.95731900   -2.32048000
 C                  5.11161600   -2.66102400    0.01035900
 H                  4.92203300   -2.24497200    1.00495700
 H                  5.19801900   -3.74606900    0.09549100
 H                  6.05627100   -2.25962700   -0.36285400
 H                  1.86510200    7.50720100   -1.22311900
 H                 -5.35525700   -4.74189200   -0.87241400
 H                  1.54950000    1.71189600    5.63732100
 H                 -1.43248700   -0.50173700    6.20756900
 Rh                -1.08214500    1.15911900   -0.88323600
 H                 -1.40979200    2.69741300   -0.82490300
 C                 -0.51427500    0.60161300   -2.64525500
 O                 -0.23148000    0.51817800   -3.75636100
 H                  3.09279500   -6.00469100   -0.43845700
 H                  6.64290800    0.09636400   -2.35823300
 C                 -2.83983300    2.37088500   -0.31581100
 C                 -3.17279700    1.32680800   -1.25823500
 C                 -4.10840900    0.24301300   -0.81474900
 O                 -5.46687000    0.74218000   -0.71519600
 C                 -6.14842900    0.81659100   -1.86744000
 C                 -7.53494400    1.36582400   -1.63710500
 O                 -5.70515500    0.48807500   -2.94094500
 H                 -3.05610600    2.19816900    0.73904400
 H                 -3.01263900    3.41049700   -0.59430200
 H                 -3.36336400    1.64412400   -2.28200300
 H                 -3.88347200   -0.10324800    0.19623100
 H                 -4.10831700   -0.60855300   -1.49595000
 H                 -7.46361900    2.38575600   -1.25010700
 H                 -8.05480500    0.76391100   -0.88799800
 H                 -8.08596000    1.36138000   -2.57632500