95

 H                  0.76209000    0.52362200    5.25417500
 H                  1.28882600    0.86846100    2.85874600
 H                  3.51131600   -0.50472900   -1.35394600
 H                  5.90378600   -1.04247600   -1.35884500
 H                  5.58242100   -2.54365600    2.65863000
 H                  3.17820400   -2.00083000    2.67081700
 H                 -3.83331400    2.91693500    1.53078800
 H                 -5.01663100    4.99077200    0.90398100
 H                 -2.42608100    5.44749500   -2.49172900
 H                 -1.22428100    3.37938600   -1.84862800
 H                 -1.28933400    3.06812100    4.86955400
 H                 -0.91846800    3.13323500    2.42597200
 C                  0.66266600   -0.30129700    4.55562700
 C                  0.96296300   -0.10845800    3.21128800
 C                  3.16974100   -1.22161600    0.65757300
 C                  3.95600300   -0.96405600   -0.47321600
 C                  5.31259300   -1.27681900   -0.48100100
 C                  5.89968300   -1.84735400    0.64588100
 C                  5.12843800   -2.10146200    1.77692100
 C                  3.77017400   -1.79260700    1.78496300
 C                 -2.43821800    3.01261800   -0.11191400
 C                 -3.51617900    3.47372100    0.65352200
 C                 -4.18745300    4.64037800    0.29698800
 C                 -3.79768700    5.35480000   -0.83434500
 C                 -2.73435400    4.89766100   -1.60791700
 C                 -2.05682100    3.73440300   -1.24766800
 C                 -1.91170900    1.25463800    2.05474600
 C                 -2.30217000    1.16506100    4.82470800
 C                 -1.64469200    2.25151400    4.24806700
 C                 -1.43730100    2.28770900    2.87455400
 H                  0.28876900   -3.22975700    2.04983500
 H                 -0.29762800   -3.55579700    4.42657900
 H                 -2.92625600   -0.64841100    2.02212000
 H                 -3.24170200   -0.73656000    4.46533300
 C                  0.84168800   -1.16001100    2.29729100
 C                  0.38331500   -2.40131500    2.74649900
 C                  0.06011400   -2.58765500    4.08902900
 C                  0.20720000   -1.54205400    4.99635500
 C                 -2.55900800    0.16557900    2.63920600
 C                 -2.74483800    0.12021400    4.02062700
 H                  2.64011500   -3.26990000   -0.82833600
 H                 -0.85493900   -5.23823200   -2.32253200
 O                  1.80413300   -5.24985800   -2.19307500
 H                 -4.95531300   -2.30181900   -2.52495000
 H                 -4.22042800    1.71502500   -1.26430900
 O                 -5.80714600    0.08248100   -2.64965100
 C                  1.55815800   -3.30209800   -0.89844400
 C                  0.76025200   -2.32749900   -0.30492400
 C                 -0.62208500   -2.45059100   -0.43081900
 C                 -1.24023300   -3.47647600   -1.13575800
 C                 -0.42034000   -4.42441100   -1.74789500
 C                  0.96618400   -4.33778700   -1.62479100
 C                 -2.49705100   -1.09788500   -0.52869500
 C                 -3.23382000   -2.05216700   -1.23191800
 C                 -4.34441800   -1.61850400   -1.94592400
 C                 -4.69959400   -0.26824400   -1.93758600
 C                 -3.94077400    0.66521400   -1.23504500
 C                 -2.80751700    0.25709900   -0.52515400
 C                 -2.76712900   -3.50233100   -1.12724000
 O                 -1.39229500   -1.49049500    0.19138700
 P                  1.37351300   -0.82472000    0.56901800
 P                 -1.59396700    1.41187400    0.25101200
 C                 -3.22684300   -4.05939100    0.23948500
 H                 -2.87711900   -5.08999400    0.36042000
 H                 -2.82265200   -3.45926100    1.06076600
 H                 -4.31987200   -4.04648800    0.30250500
 C                 -3.33908900   -4.37257300   -2.24436200
 H                 -3.00509800   -5.40803900   -2.13021600
 H                 -4.43164200   -4.38500600   -2.19782700
 H                 -3.03460100   -4.01046200   -3.23131300
 H                 -2.45787800    1.12975800    5.89877700
 H                 -0.03997700   -1.69026800    6.04333800
 H                 -4.32121300    6.26498500   -1.11033600
 H                  6.95880000   -2.08634700    0.64488600
 Rh                 0.65667100    1.35220800   -0.49117800
 H                  0.51914800    2.93362000   -0.34861800
 C                  0.33389300    0.89602800   -2.34796200
 O                  0.11750700    0.74530200   -3.46650800
 H                  1.28245200   -5.89810000   -2.68635300
 H                 -5.92416800    1.04183300   -2.59949400
 C                  1.95878800    3.01158800    0.26915000
 C                  2.63503800    2.08276800   -0.59978000
 C                  3.06143000    2.55200300   -1.96324300
 O                  4.31787600    3.26852500   -1.90807600
 C                  5.42441100    2.51557500   -1.97063200
 C                  6.66405800    3.36352500   -1.84238400
 O                  5.41963300    1.31501200   -2.10987900
 H                  1.89404800    4.05295400   -0.05073300
 H                  2.07430000    2.91672200    1.34510600
 H                  3.32819900    1.38808200   -0.13109300
 H                  2.34664700    3.27469100   -2.36509900
 H                  3.17153500    1.71993800   -2.66213900
 H                  6.68915700    3.81866600   -0.84860600
 H                  6.64167200    4.17217200   -2.57640000
 H                  7.54559000    2.74111700   -1.98778300

