101

 H                 -6.75650200   -0.45336800    2.73737600
 H                 -4.94254200   -0.30106900    1.05893400
 H                 -2.49093400    0.96587900   -1.28212700
 H                 -3.40968900    0.17869100   -3.42247000
 H                 -4.10555100   -3.70269700   -1.71842000
 H                 -3.14699100   -2.92828800    0.42296300
 H                  3.07546400   -2.95098500   -1.98716100
 H                  5.28954600   -4.07919200   -2.14593700
 H                  6.43286800   -2.34055400    1.61239000
 H                  4.23461700   -1.21175500    1.76250100
 H                  0.85898300    1.08254300    4.27706700
 H                  1.50282900    1.08471200    1.90846600
 C                 -5.72325300   -0.58364000    3.04496200
 C                 -4.70426500   -0.50083900    2.10041800
 C                 -2.74537400   -0.92647900   -0.27519200
 C                 -2.83709400   -0.06004300   -1.36656900
 C                 -3.36355100   -0.50381800   -2.57901800
 C                 -3.82066300   -1.81112400   -2.71212100
 C                 -3.75755500   -2.67783700   -1.62146000
 C                 -3.21446800   -2.23960600   -0.41842000
 C                  3.51704200   -2.00791100   -0.10839900
 C                  3.82171000   -2.81949100   -1.20564300
 C                  5.06104300   -3.45081600   -1.29076900
 C                  5.99998500   -3.27987400   -0.27731900
 C                  5.70198900   -2.47418600    0.82096800
 C                  4.46636000   -1.83992400    0.90615200
 C                  1.54903200   -1.06876400    1.73646800
 C                  0.84006500   -1.06403700    4.44706900
 C                  1.00889400    0.13691700    3.76510100
 C                  1.37109500    0.13590500    2.41889800
 H                 -2.03804300   -1.07327800    4.12247500
 H                 -3.85339500   -1.20564000    5.81230500
 H                  1.55953900   -3.21633100    1.92248600
 H                  0.93383400   -3.21341700    4.30852400
 C                 -3.36756000   -0.66968000    2.48233000
 C                 -3.07472600   -0.92908200    3.82497900
 C                 -4.09391100   -1.00441900    4.77277000
 C                 -5.41922000   -0.83225900    4.38321000
 C                  1.39881500   -2.27239600    2.43583800
 C                  1.04774000   -2.27162200    3.78055400
 H                 -3.42272700    1.78485500    2.58997000
 H                 -1.47418400    5.19126500    0.89054400
 O                 -3.25036800    4.49043100    2.51307300
 H                  2.97108100    4.31116500   -1.25869900
 H                  4.43778200    0.32054500   -0.75440100
 O                  5.13139600    2.67060000   -1.30451300
 C                 -2.65885100    2.20061400    1.94569900
 C                 -1.82829300    1.33278300    1.22698200
 C                 -0.84528800    1.89402300    0.41502100
 C                 -0.71090700    3.27453100    0.23331600
 C                 -1.53679900    4.11207500    0.97098500
 C                 -2.49792900    3.58016500    1.83579400
 C                  1.25970200    1.49362200   -0.52919600
 C                  1.47677900    2.83980800   -0.79523800
 C                  2.78393000    3.26500600   -1.05385600
 C                  3.83383000    2.34900900   -1.05324100
 C                  3.59283800    1.00088000   -0.76641800
 C                  2.30591600    0.56233700   -0.48628500
 C                  0.25579900    3.75046700   -0.84719200
 O                 -0.00876600    1.02737800   -0.25864600
 P                 -1.93586400   -0.51188600    1.33025300
 P                  1.88207800   -1.17678400   -0.07139600
 C                  0.61960800    5.22583200   -0.68753700
 H                  1.27950000    5.54781800   -1.49803600
 H                 -0.27778600    5.84721500   -0.74864500
 H                  1.11510900    5.41917500    0.26926100
 C                 -0.43160300    3.54293800   -2.21648300
 H                 -1.34778500    4.14058500   -2.26965800
 H                  0.24150400    3.84933000   -3.02417000
 H                 -0.68681300    2.49004100   -2.37064800
 H                  0.55894100   -1.06152500    5.49613300
 H                 -6.21562900   -0.89747900    5.11830200
 H                  6.96384100   -3.77549900   -0.34020100
 H                 -4.22499100   -2.15618600   -3.65847700
 Rh                 0.31638200   -2.18435700   -1.48831000
 H                 -0.70440300   -2.98436100   -2.46777300
 C                  0.19587700   -0.74912600   -2.66899400
 O                  0.08098900    0.14998400   -3.37630900
 C                 -4.25020100    3.98868100    3.37169600
 H                 -4.73713000    4.85935600    3.81074500
 H                 -4.98997600    3.39444100    2.82109700
 H                 -3.81987300    3.36958900    4.16850600
 C                  5.42182600    4.01566000   -1.60401800
 H                  4.88954000    4.34856000   -2.50379800
 H                  5.16292900    4.67723600   -0.76776000
 H                  6.49606800    4.06207600   -1.78156000
 C                  0.19273900   -3.99028700   -0.28259300
 C                 -0.57303500   -4.25385600   -1.43943000
 C                 -0.05875000   -5.21870800   -2.48506300
 O                 -0.29315900   -6.57529700   -2.07005400
 C                 -1.56481900   -7.00156900   -2.16629300
 C                 -1.68969700   -8.42937600   -1.70209300
 O                 -2.47303400   -6.31724900   -2.57106200
 H                  1.17626900   -4.44904800   -0.18449400
 H                 -0.31978800   -3.74732500    0.64565700
 H                 -1.65489100   -4.25004200   -1.34748100
 H                  1.02459900   -5.13688400   -2.58961600
 H                 -0.54001900   -5.05671400   -3.45234300
 H                 -1.40409500   -8.49607100   -0.64904300
 H                 -1.00776000   -9.06628400   -2.27040000
 H                 -2.71780100   -8.76301200   -1.83288100

