101

 H                 -5.50695500   -2.44660100    2.87741100
 H                 -4.58686400   -1.54938000    0.76595000
 H                 -2.89249700    1.29305200   -1.78188500
 H                 -4.50584900    1.18462500   -3.63118700
 H                 -5.04730600   -3.02162400   -2.91821000
 H                 -3.44069400   -2.93695600   -1.10939000
 H                  3.14198000   -2.66942200   -2.11743900
 H                  5.33066200   -3.77246800   -2.49117300
 H                  6.76419400   -2.17939500    1.23172300
 H                  4.59344500   -1.05420500    1.58908400
 H                  0.76823200    1.41061800    4.11865400
 H                  1.34349600    1.34470100    1.73147800
 C                 -4.44114800   -2.25706000    2.79398500
 C                 -3.92304100   -1.75254900    1.60100700
 C                 -3.02806000   -0.80995300   -1.30502800
 C                 -3.35211900    0.34072100   -2.02831500
 C                 -4.27041200    0.28106000   -3.07721400
 C                 -4.88530200   -0.92095500   -3.40759100
 C                 -4.57526300   -2.07197700   -2.68461300
 C                 -3.64795400   -2.02011800   -1.65110900
 C                  3.72593200   -1.77675400   -0.24942500
 C                  3.94482500   -2.55032400   -1.39433700
 C                  5.17230300   -3.17589800   -1.59828700
 C                  6.18793800   -3.04471300   -0.65461200
 C                  5.97634100   -2.28209300    0.49196500
 C                  4.75301100   -1.64829600    0.69301200
 C                  1.92636400   -0.73669600    1.74794500
 C                  1.29616200   -0.64413800    4.48195100
 C                  1.14106700    0.48683200    3.68720800
 C                  1.46337200    0.44623000    2.33035200
 H                 -0.63858400   -1.61502800    2.47072500
 H                 -1.56339400   -2.47928400    4.58983000
 H                  2.43459300   -2.80128300    2.11503100
 H                  1.91288200   -2.71078800    4.52639000
 C                 -2.55188200   -1.51360900    1.47830600
 C                 -1.70948800   -1.78928100    2.56418000
 C                 -2.23079800   -2.27888500    3.75662000
 C                 -3.59960400   -2.51813500    3.87196000
 C                  2.08176300   -1.87212700    2.55739200
 C                  1.77952400   -1.82399800    3.91391400
 H                 -3.39479000    0.94587200    1.72823400
 H                 -1.66652600    4.79930800    0.97688900
 O                 -3.46825100    3.62169600    2.24840700
 H                  3.06473100    4.64833300   -0.66129300
 H                  4.67559500    0.69988900   -0.30104500
 O                  5.30106600    3.11942200   -0.47094600
 C                 -2.64121500    1.56205800    1.25105300
 C                 -1.68684400    0.95012000    0.42771900
 C                 -0.73718600    1.75484200   -0.17881700
 C                 -0.69896300    3.14678500   -0.03376900
 C                 -1.63924700    3.72921400    0.80181600
 C                 -2.60230900    2.94017100    1.45074700
 C                  1.47311700    1.67389600   -0.80894100
 C                  1.62717900    3.05671500   -0.79568700
 C                  2.91744700    3.57564000   -0.67493200
 C                  4.00718800    2.70915100   -0.55907500
 C                  3.80782100    1.32777600   -0.47210800
 C                  2.52662200    0.79226500   -0.56142800
 C                  0.34672600    3.88978900   -0.86866200
 O                  0.21368500    1.14602000   -0.96214900
 P                 -1.71234800   -0.84179800   -0.01401700
 P                  2.09731500   -0.94376000   -0.07961100
 C                  0.55991800    5.31993300   -0.37757300
 H                  1.28473100    5.83900200   -1.01168000
 H                 -0.37548600    5.88372300   -0.43561100
 H                  0.91781600    5.34213700    0.65677600
 C                 -0.14514500    3.92241200   -2.33329200
 H                 -1.08496900    4.48044300   -2.39902300
 H                  0.60110900    4.41220800   -2.96730400
 H                 -0.31262000    2.91104800   -2.71404100
 H                  1.04640300   -0.60859600    5.53780400
 H                 -4.00818200   -2.91209900    4.79751000
 H                  7.14191600   -3.53908700   -0.80959100
 H                 -5.60165600   -0.96207500   -4.22231100
 Rh                 0.24740100   -2.28239000   -0.75698100
 H                  1.26790300   -3.47210000   -0.40873300
 C                  0.16954800   -2.11730900   -2.69628300
 O                  0.21278600   -2.14583000   -3.84366500
 C                 -4.45730000    2.86934300    2.91584400
 H                 -5.03476400    3.58255100    3.50369600
 H                 -5.11941400    2.36119900    2.20429400
 H                 -4.00855600    2.12282400    3.58245700
 C                  5.55145400    4.50463200   -0.51900100
 H                  5.19438000    4.94287800   -1.45924900
 H                  5.08024500    5.02679000    0.32320000
 H                  6.63320600    4.61967900   -0.45435100
 C                  0.21045600   -4.13809100    0.46385600
 C                 -0.95850800   -3.95971500   -0.37235100
 C                 -1.17464100   -4.88974900   -1.53131400
 O                 -1.70134000   -6.17337300   -1.10701800
 C                 -3.01384100   -6.21897400   -0.86038400
 C                 -3.43142600   -7.58600500   -0.38168700
 O                 -3.76559000   -5.28064800   -0.99851900
 H                  0.81136300   -5.03702900    0.30965000
 H                  0.14057300   -3.86313900    1.51530300
 H                 -1.86990600   -3.69663300    0.16261400
 H                 -0.22658100   -5.13384200   -2.01549300
 H                 -1.86131200   -4.46026500   -2.26621300
 H                 -2.98770800   -7.77328100    0.60009000
 H                 -3.06080000   -8.35304600   -1.06499500
 H                 -4.51719100   -7.62885900   -0.31044400

