70

C      -2.259736000000000     -2.264664000000000      1.322272000000000
C      -1.593507000000000     -1.063552000000000      1.065832000000000
C      -0.472921000000000     -0.716246000000000      1.861056000000000
C      -0.077479000000000     -1.593512000000000      2.875036000000000
C      -0.730653000000000     -2.802140000000000      3.099334000000000
C      -1.832671000000000     -3.134036000000000      2.323623000000000
H      -3.128646000000000     -2.533889000000000      0.730599000000000
H      -0.383644000000000     -3.468338000000000      3.882448000000000
H      -2.367102000000000     -4.063401000000000      2.492877000000000
C       0.241627000000000      0.610459000000000      1.815426000000000
C      -0.131359000000000      1.514598000000000      2.818404000000000
C       1.263370000000000      0.987421000000000      0.915227000000000
C       0.423120000000000      2.786017000000000      2.908177000000000
C       1.826595000000000      2.264411000000000      1.026676000000000
C       1.404886000000000      3.164391000000000      2.000299000000000
H       0.081866000000000      3.474367000000000      3.675433000000000
H       2.604020000000000      2.568671000000000      0.333779000000000
H       1.850401000000000      4.152989000000000      2.049142000000000
P      -2.044333000000000     -0.040026000000000     -0.418633000000000
P       1.779189000000000     -0.116518000000000     -0.478457000000000
C       3.231174000000000      0.751978000000000     -1.201895000000000
C       4.489686000000000      0.776014000000000     -0.590199000000000
C       3.057324000000000      1.416954000000000     -2.418782000000000
C       5.550852000000000      1.459431000000000     -1.173140000000000
H       4.650483000000000      0.256252000000000      0.350119000000000
C       4.110087000000000      2.109479000000000     -3.011148000000000
H       2.085346000000000      1.386249000000000     -2.904577000000000
C       5.347833000000000      2.123966000000000     -2.379440000000000
H       6.526619000000000      1.477494000000000     -0.701052000000000
H       3.974751000000000      2.625399000000000     -3.954873000000000
Br      6.786881000000000      3.057770000000000     -3.175930000000000
C       2.590403000000000     -1.511683000000000      0.404545000000000
C       3.059759000000000     -1.400490000000000      1.717606000000000
C       2.767795000000000     -2.721072000000000     -0.272772000000000
C       3.681950000000000     -2.474395000000000      2.346973000000000
H       2.934015000000000     -0.467744000000000      2.261919000000000
C       3.391869000000000     -3.802188000000000      0.341513000000000
H       2.411876000000000     -2.824353000000000     -1.294297000000000
C       3.838719000000000     -3.668385000000000      1.651302000000000
H       4.040469000000000     -2.389010000000000      3.366680000000000
H       3.523437000000000     -4.740128000000000     -0.185614000000000
Br      4.671904000000000     -5.136320000000000      2.504613000000000
C      -2.372848000000000      1.576773000000000      0.393285000000000
C      -3.135436000000000      1.631996000000000      1.567823000000000
C      -1.783412000000000      2.745681000000000     -0.085189000000000
C      -3.304081000000000      2.827951000000000      2.254006000000000
H      -3.580834000000000      0.723135000000000      1.966981000000000
C      -1.933372000000000      3.950470000000000      0.599056000000000
H      -1.170805000000000      2.707458000000000     -0.980702000000000
C      -2.686871000000000      3.976464000000000      1.764709000000000
H      -3.886302000000000      2.869898000000000      3.167736000000000
H      -1.454596000000000      4.854332000000000      0.239867000000000
Br     -2.849228000000000      5.595476000000000      2.730353000000000
C      -3.731640000000000     -0.623703000000000     -0.890193000000000
C      -4.910134000000000      0.087017000000000     -0.644623000000000
C      -3.816514000000000     -1.818473000000000     -1.619120000000000
C      -6.141450000000000     -0.391786000000000     -1.087228000000000
H      -4.882808000000000      1.033109000000000     -0.115594000000000
C      -5.039513000000000     -2.318772000000000     -2.047795000000000
H      -2.910608000000000     -2.368583000000000     -1.860842000000000
C      -6.197358000000000     -1.596372000000000     -1.775568000000000
H      -7.050251000000000      0.168091000000000     -0.897669000000000
H      -5.094835000000000     -3.249303000000000     -2.601107000000000
Br     -7.866417000000000     -2.256845000000000     -2.368560000000000
H       0.033248000000000      1.150007000000000     -1.661417000000000
H       0.767826000000000     -1.315040000000000      3.497943000000000
H      -0.903183000000000      1.211988000000000      3.520316000000000
Rh     -0.128768000000000     -0.438973000000000     -1.606441000000000
C      -0.235936000000000     -2.378231000000000     -1.716903000000000
O      -0.281234000000000     -3.516392000000000     -1.843458000000000
