82

C      -2.253198000000000     -2.244600000000000      1.363277000000000
C      -1.585917000000000     -1.048613000000000      1.086464000000000
C      -0.462785000000000     -0.690216000000000      1.873300000000000
C      -0.065861000000000     -1.552335000000000      2.899595000000000
C      -0.719019000000000     -2.757122000000000      3.143465000000000
C      -1.823639000000000     -3.099403000000000      2.376125000000000
H      -3.125491000000000     -2.521733000000000      0.780587000000000
H      -0.370607000000000     -3.411842000000000      3.935523000000000
H      -2.358786000000000     -4.025264000000000      2.561159000000000
C       0.249600000000000      0.636809000000000      1.808239000000000
C      -0.125194000000000      1.554338000000000      2.798355000000000
C       1.268097000000000      1.004814000000000      0.900778000000000
C       0.422753000000000      2.829839000000000      2.867793000000000
C       1.827326000000000      2.285165000000000      0.992877000000000
C       1.402307000000000      3.197876000000000      1.953024000000000
H       0.072238000000000      3.531070000000000      3.617879000000000
H       2.602533000000000      2.583065000000000      0.294801000000000
H       1.843285000000000      4.189157000000000      1.985934000000000
P      -2.038282000000000     -0.042116000000000     -0.408676000000000
P       1.776506000000000     -0.112612000000000     -0.483280000000000
C       3.232946000000000      0.746183000000000     -1.216931000000000
C       4.488090000000000      0.777658000000000     -0.597497000000000
C       3.061430000000000      1.384125000000000     -2.448295000000000
C       5.549504000000000      1.446702000000000     -1.194050000000000
H       4.640831000000000      0.274151000000000      0.352624000000000
C       4.120935000000000      2.060144000000000     -3.047376000000000
H       2.091097000000000      1.340418000000000     -2.935717000000000
C       5.360021000000000      2.088687000000000     -2.416557000000000
H       6.525285000000000      1.464518000000000     -0.719812000000000
H       3.989532000000000      2.549611000000000     -4.006477000000000
C       6.496567000000000      2.857919000000000     -3.029088000000000
C       2.594449000000000     -1.504436000000000      0.403632000000000
C       2.786128000000000     -2.707703000000000     -0.281168000000000
C       3.053446000000000     -1.389830000000000      1.720370000000000
C       3.415302000000000     -3.782766000000000      0.337011000000000
H       2.440166000000000     -2.804591000000000     -1.306608000000000
C       3.678919000000000     -2.463020000000000      2.345633000000000
H       2.919078000000000     -0.456935000000000      2.261695000000000
C       3.853307000000000     -3.657560000000000      1.652166000000000
H       3.565718000000000     -4.714215000000000     -0.198287000000000
H       4.037076000000000     -2.372994000000000      3.366049000000000
C       4.470417000000000     -4.836399000000000      2.349519000000000
C      -2.369913000000000      1.583909000000000      0.390943000000000
C      -3.137895000000000      1.642588000000000      1.562877000000000
C      -1.785184000000000      2.748698000000000     -0.101802000000000
C      -3.309141000000000      2.844919000000000      2.234050000000000
H      -3.583767000000000      0.734392000000000      1.962178000000000
C      -1.943355000000000      3.956850000000000      0.575023000000000
H      -1.175540000000000      2.701948000000000     -0.998626000000000
C      -2.698012000000000      3.997691000000000      1.740784000000000
H      -3.901547000000000      2.891884000000000      3.142256000000000
H      -1.473310000000000      4.860301000000000      0.201318000000000
C      -2.793056000000000      5.270535000000000      2.530923000000000
C      -3.729210000000000     -0.626742000000000     -0.872891000000000
C      -4.896996000000000      0.113698000000000     -0.670870000000000
C      -3.818511000000000     -1.848653000000000     -1.557900000000000
C      -6.127369000000000     -0.364742000000000     -1.117571000000000
H      -4.859519000000000      1.075462000000000     -0.172192000000000
C      -5.043821000000000     -2.340069000000000     -1.983898000000000
H      -2.916667000000000     -2.420382000000000     -1.760425000000000
C      -6.199611000000000     -1.592499000000000     -1.762232000000000
H      -7.029231000000000      0.215901000000000     -0.956531000000000
H      -5.105188000000000     -3.295454000000000     -2.495248000000000
C      -7.511165000000000     -2.105948000000000     -2.283939000000000
H       0.029531000000000      1.139379000000000     -1.675336000000000
H       0.779708000000000     -1.264153000000000      3.517646000000000
H      -0.895057000000000      1.259180000000000      3.505628000000000
Rh     -0.130932000000000     -0.448217000000000     -1.603727000000000
C      -0.234454000000000     -2.391606000000000     -1.688205000000000
O      -0.276405000000000     -3.531499000000000     -1.793400000000000
F      -7.634949000000000     -1.887983000000000     -3.601350000000000
F      -8.553302000000000     -1.516006000000000     -1.683584000000000
F      -7.627003000000000     -3.428864000000000     -2.096313000000000
F      -1.855548000000000      5.315292000000000      3.495843000000000
F      -3.979965000000000      5.388494000000000      3.141400000000000
F      -2.616255000000000      6.353504000000000      1.764581000000000
F       7.679831000000000      2.289098000000000     -2.759326000000000
F       6.548302000000000      4.112142000000000     -2.554919000000000
F       6.378439000000000      2.944695000000000     -4.360489000000000
F       5.359303000000000     -4.451815000000000      3.276783000000000
F       5.101853000000000     -5.646701000000000      1.489729000000000
F       3.543627000000000     -5.575136000000000      2.978594000000000
