78

C      -2.258948000000000     -2.026455000000000      1.491964000000000
C      -1.570256000000000     -0.868873000000000      1.120018000000000
C      -0.438624000000000     -0.470180000000000      1.873799000000000
C      -0.053674000000000     -1.255348000000000      2.964469000000000
C      -0.728793000000000     -2.424034000000000      3.304987000000000
C      -1.842270000000000     -2.805340000000000      2.569422000000000
H      -3.138404000000000     -2.332407000000000      0.935083000000000
H      -0.390742000000000     -3.018780000000000      4.147244000000000
H      -2.395017000000000     -3.702461000000000      2.829329000000000
C       0.294815000000000      0.836525000000000      1.708487000000000
C      -0.058732000000000      1.826986000000000      2.634128000000000
C       1.318489000000000      1.120294000000000      0.776897000000000
C       0.521130000000000      3.089903000000000      2.619109000000000
C       1.903859000000000      2.392168000000000      0.780006000000000
C       1.504379000000000      3.375446000000000      1.679687000000000
H       0.202103000000000      3.840485000000000      3.335707000000000
H       2.683668000000000      2.625367000000000      0.062785000000000
H       1.972153000000000      4.354490000000000      1.649217000000000
P      -2.009162000000000      0.028615000000000     -0.446038000000000
P       1.805076000000000     -0.102544000000000     -0.524023000000000
C       3.271230000000000      0.679499000000000     -1.322842000000000
C       4.528510000000000      0.744324000000000     -0.702403000000000
C       3.103227000000000      1.220914000000000     -2.600111000000000
C       5.595587000000000      1.352018000000000     -1.346530000000000
H       4.668770000000000      0.317074000000000      0.286495000000000
C       4.174444000000000      1.834024000000000     -3.245241000000000
H       2.130378000000000      1.152562000000000     -3.079652000000000
C       5.417874000000000      1.900098000000000     -2.620735000000000
H       6.576255000000000      1.414060000000000     -0.884938000000000
H       4.045848000000000      2.255837000000000     -4.239406000000000
C       6.560223000000000      2.550970000000000     -3.310565000000000
C       2.608561000000000     -1.439739000000000      0.455678000000000
C       2.787271000000000     -2.685985000000000     -0.151275000000000
C       3.063901000000000     -1.241731000000000      1.767593000000000
C       3.403074000000000     -3.722326000000000      0.542894000000000
H       2.439155000000000     -2.844525000000000     -1.168331000000000
C       3.672598000000000     -2.276754000000000      2.463136000000000
H       2.933898000000000     -0.272803000000000      2.242939000000000
C       3.839043000000000     -3.521733000000000      1.851587000000000
H       3.537827000000000     -4.692536000000000      0.070623000000000
H       4.026725000000000     -2.145383000000000      3.481202000000000
C       4.479538000000000     -4.631990000000000      2.599479000000000
C      -2.317583000000000      1.717547000000000      0.222773000000000
C      -3.080414000000000      1.878165000000000      1.392707000000000
C      -1.735409000000000      2.831982000000000     -0.378099000000000
C      -3.254704000000000      3.133949000000000      1.950235000000000
H      -3.518388000000000      1.005055000000000      1.871768000000000
C      -1.903435000000000      4.095074000000000      0.187322000000000
H      -1.127631000000000      2.702253000000000     -1.267944000000000
C      -2.656897000000000      4.246792000000000      1.347835000000000
H      -3.833802000000000      3.279395000000000      2.857154000000000
H      -1.435622000000000      4.963939000000000     -0.270090000000000
C      -2.808749000000000      5.589006000000000      1.961201000000000
C      -3.709454000000000     -0.562695000000000     -0.863774000000000
C      -4.860850000000000      0.219330000000000     -0.730307000000000
C      -3.819401000000000     -1.838513000000000     -1.445910000000000
C      -6.096092000000000     -0.275108000000000     -1.143347000000000
H      -4.802566000000000      1.218588000000000     -0.314171000000000
C      -5.050677000000000     -2.338601000000000     -1.836196000000000
H      -2.925491000000000     -2.438798000000000     -1.595310000000000
C      -6.197555000000000     -1.552917000000000     -1.685512000000000
H      -6.987662000000000      0.339345000000000     -1.040390000000000
H      -5.147629000000000     -3.326990000000000     -2.274577000000000
C      -7.517109000000000     -2.076713000000000     -2.115526000000000
H       0.071263000000000      1.083928000000000     -1.800399000000000
H       0.798606000000000     -0.934988000000000      3.556785000000000
H      -0.832225000000000      1.597642000000000      3.361407000000000
Rh     -0.110521000000000     -0.491985000000000     -1.611760000000000
C      -0.238201000000000     -2.435050000000000     -1.546613000000000
O      -0.291245000000000     -3.579133000000000     -1.560469000000000
O      -7.684281000000000     -3.173263000000000     -2.593632000000000
H      -8.369853000000001     -1.381847000000000     -1.967100000000000
O      -3.419995000000000      5.800026000000000      2.981717000000000
H      -2.308449000000000      6.415102000000000      1.414032000000000
O       7.665514000000000      2.653287000000000     -2.834888000000000
H       6.332973000000000      2.952365000000000     -4.320068000000000
O       4.873848000000000     -4.538922000000000      3.737472000000000
H       4.578303000000000     -5.583250000000000      2.036550000000000
