70

C      -2.235918000000000     -2.158306000000000      1.370205000000000
C      -1.564665000000000     -0.967771000000000      1.079463000000000
C      -0.446925000000000     -0.599181000000000      1.868846000000000
C      -0.059153000000000     -1.445200000000000      2.911904000000000
C      -0.717011000000000     -2.644269000000000      3.170743000000000
C      -1.816297000000000     -2.997119000000000      2.400400000000000
H      -3.102905000000000     -2.443181000000000      0.783002000000000
H      -0.375925000000000     -3.286548000000000      3.976139000000000
H      -2.354435000000000     -3.919112000000000      2.596180000000000
C       0.272060000000000      0.723213000000000      1.785508000000000
C      -0.102780000000000      1.658812000000000      2.758505000000000
C       1.300155000000000      1.068678000000000      0.880029000000000
C       0.457324000000000      2.929682000000000      2.813321000000000
C       1.867699000000000      2.346382000000000      0.955466000000000
C       1.445048000000000      3.276852000000000      1.899536000000000
H       0.118038000000000      3.640682000000000      3.560400000000000
H       2.649950000000000      2.626334000000000      0.257759000000000
H       1.895051000000000      4.264378000000000      1.921575000000000
P      -2.004336000000000      0.010864000000000     -0.437966000000000
P       1.820151000000000     -0.079109000000000     -0.476292000000000
C       3.280077000000000      0.760885000000000     -1.216888000000000
C       4.536031000000000      0.793477000000000     -0.600292000000000
C       3.116548000000000      1.392220000000000     -2.453059000000000
C       5.605047000000000      1.450890000000000     -1.197840000000000
H       4.688325000000000      0.299558000000000      0.355177000000000
C       4.176813000000000      2.059151000000000     -3.060771000000000
H       2.146270000000000      1.354426000000000     -2.941677000000000
C       5.412457000000000      2.081231000000000     -2.424368000000000
H       6.580258000000000      1.475632000000000     -0.724307000000000
H       4.051891000000000      2.548922000000000     -4.020153000000000
Cl      6.749449000000000      2.903768000000000     -3.177854000000000
C       2.620057000000000     -1.449729000000000      0.453854000000000
C       2.797715000000000     -2.679781000000000     -0.185133000000000
C       3.082697000000000     -1.299739000000000      1.765515000000000
C       3.415472000000000     -3.743112000000000      0.464904000000000
H       2.447085000000000     -2.812647000000000     -1.205012000000000
C       3.698458000000000     -2.355002000000000      2.431173000000000
H       2.956634000000000     -0.350129000000000      2.279684000000000
C       3.855616000000000     -3.570230000000000      1.772755000000000
H       3.548649000000000     -4.698199000000000     -0.030776000000000
H       4.052832000000000     -2.241475000000000      3.449987000000000
Cl      4.615764000000000     -4.899117000000000      2.602664000000000
C      -2.334618000000000      1.653103000000000      0.319714000000000
C      -3.101214000000000      1.747247000000000      1.489227000000000
C      -1.750478000000000      2.807215000000000     -0.199684000000000
C      -3.282646000000000      2.966969000000000      2.128136000000000
H      -3.542251000000000      0.850780000000000      1.919986000000000
C      -1.913738000000000      4.036356000000000      0.435972000000000
H      -1.134470000000000      2.738871000000000     -1.091002000000000
C      -2.674648000000000      4.101669000000000      1.595708000000000
H      -3.869389000000000      3.041734000000000      3.037240000000000
H      -1.443274000000000      4.931545000000000      0.044640000000000
Cl     -2.851695000000000      5.627019000000000      2.419205000000000
C      -3.690446000000000     -0.582303000000000     -0.901683000000000
C      -4.867444000000000      0.140714000000000     -0.686288000000000
C      -3.775759000000000     -1.798486000000000     -1.594365000000000
C      -6.097601000000000     -0.345047000000000     -1.123477000000000
H      -4.838842000000000      1.102188000000000     -0.185925000000000
C      -4.997626000000000     -2.306324000000000     -2.016850000000000
H      -2.870441000000000     -2.359338000000000     -1.812266000000000
C      -6.153883000000000     -1.569850000000000     -1.775733000000000
H      -7.006520000000000      0.223402000000000     -0.959971000000000
H      -5.055654000000000     -3.252669000000000     -2.543087000000000
Cl     -7.689905000000000     -2.184613000000000     -2.317719000000000
H       0.083126000000000      1.157674000000000     -1.704535000000000
H       0.783818000000000     -1.149668000000000      3.530078000000000
H      -0.879585000000000      1.380788000000000      3.465100000000000
Rh     -0.083749000000000     -0.428727000000000     -1.603463000000000
C      -0.196334000000000     -2.369714000000000     -1.656113000000000
O      -0.244839000000000     -3.511126000000000     -1.748207000000000
