74

C       0.383953620000000      0.858058180000000     -2.234641270000000
C      -0.218220380000000      0.924223180000000     -0.975136270000000
C      -1.046311380000000      2.027957180000000     -0.663097270000000
C      -1.210933380000000      3.031040180000000     -1.623419270000000
C      -0.624435380000000      2.944576180000000     -2.881767270000000
C       0.175876620000000      1.851522180000000     -3.188106270000000
H       1.039295620000000      0.028191180000000     -2.477334270000000
H      -0.786188380000000      3.731828180000000     -3.610650270000000
H       0.652405620000000      1.772604180000000     -4.159807270000000
C      -1.641133380000000      2.274001180000000      0.696221730000000
C      -1.059072380000000      3.319210180000000      1.426229730000000
C      -2.717250380000000      1.564027180000000      1.274194730000000
C      -1.467355380000000      3.629453180000000      2.717679730000000
C      -3.116396380000000      1.885046180000000      2.578143730000000
C      -2.494768380000000      2.897102180000000      3.301864730000000
H      -0.977218380000000      4.428783180000000      3.264754730000000
H      -3.926676380000000      1.331006180000000      3.040632730000000
H      -2.820974380000000      3.114526180000000      4.313874730000000
P      -0.051378380000000     -0.452075820000000      0.246481730000000
P      -3.509831380000000      0.129315180000000      0.430128730000000
C      -5.108415380000000     -0.074578820000000      1.329455730000000
C      -6.033633380000000      0.974383180000000      1.437171730000000
C      -5.430278380000000     -1.327345820000000      1.848888730000000
C      -7.252125380000000      0.773268180000000      2.065237730000000
H      -5.799679380000000      1.953717180000000      1.028053730000000
C      -6.658175380000000     -1.547472820000000      2.469554730000000
H      -4.729908380000000     -2.148601820000000      1.760607730000000
C      -7.565070380000000     -0.493575820000000      2.580996730000000
H      -7.969982380000000      1.581482180000000      2.154627730000000
H      -6.898089380000000     -2.534858820000000      2.848398730000000
C      -8.837197379999999     -0.702070820000000      3.222947730000000
C      -4.182125380000000      0.866568180000000     -1.124123270000000
C      -4.647246380000000     -0.010514820000000     -2.109649270000000
C      -4.314962380000000      2.244001180000000     -1.325049270000000
C      -5.210711380000000      0.470784180000000     -3.283985270000000
H      -4.577638380000000     -1.083634820000000     -1.953792270000000
C      -4.871463380000000      2.738810180000000     -2.497447270000000
H      -3.977410380000000      2.938663180000000     -0.561064270000000
C      -5.314000380000000      1.850976180000000     -3.482768270000000
H      -5.566805380000000     -0.212113820000000     -4.047482270000000
H      -4.966926380000000      3.807790180000000     -2.656177270000000
C      -5.879377380000000      2.362033180000000     -4.703608270000000
C       0.620954620000000      0.478980180000000      1.687384730000000
C       1.633031620000000      1.431458180000000      1.496523730000000
C       0.088502620000000      0.289633180000000      2.961696730000000
C       2.102360620000000      2.185787180000000      2.560579730000000
H       2.042644620000000      1.592807180000000      0.502017730000000
C       0.543576620000000      1.050476180000000      4.035312730000000
H      -0.706697380000000     -0.434994820000000      3.106920730000000
C       1.547207620000000      1.999555180000000      3.833709730000000
H       2.881801620000000      2.926417180000000      2.416557730000000
H       0.116488620000000      0.920032180000000      5.023839730000000
C       1.998100620000000      2.810428180000000      4.934198730000000
C       1.421673620000000     -1.415208820000000     -0.314443270000000
C       1.278724620000000     -2.254055820000000     -1.431008270000000
C       2.636520620000000     -1.430183820000000      0.379150730000000
C       2.326752620000000     -3.047975820000000     -1.871704270000000
H       0.334637620000000     -2.291363820000000     -1.965279270000000
C       3.688032620000000     -2.238230820000000     -0.041794270000000
H       2.773362620000000     -0.817974820000000      1.262854730000000
C       3.539725620000000     -3.041438820000000     -1.173534270000000
H       2.209207620000000     -3.682763820000000     -2.743206270000000
H       4.624892620000000     -2.247027820000000      0.504685730000000
C       4.629220620000000     -3.870443820000000     -1.616809270000000
H      -2.039438380000000     -1.437969820000000      1.896354730000000
H      -1.817970380000000      3.896129180000000     -1.370228270000000
H      -0.241847380000000      3.871173180000000      0.970265730000000
Rh     -2.048602380000000     -1.689887820000000      0.336281730000000
C      -2.157722380000000     -2.052741820000000     -1.579612270000000
O      -2.209975380000000     -2.259587820000000     -2.704638270000000
N       5.505645620000000     -4.535012820000000     -1.975242270000000
N       2.353246620000000      3.470910180000000      5.815180730000000
N      -9.859785380000000     -0.862811820000000      3.739483730000000
N      -6.330142380000000      2.776688180000000     -5.685065270000000
