78

C      -2.259880000000000     -2.035837000000000      1.385313000000000
C      -1.569607000000000     -0.862089000000000      1.070835000000000
C      -0.449092000000000     -0.494811000000000      1.856234000000000
C      -0.076331000000000     -1.323846000000000      2.918027000000000
C      -0.756067000000000     -2.504806000000000      3.202768000000000
C      -1.858632000000000     -2.857259000000000      2.436567000000000
H      -3.125259000000000     -2.319215000000000      0.794037000000000
H      -0.428054000000000     -3.134278000000000      4.024068000000000
H      -2.411921000000000     -3.766527000000000      2.651055000000000
C       0.295706000000000      0.810879000000000      1.741058000000000
C      -0.081162000000000      1.787875000000000      2.670962000000000
C       1.347361000000000      1.101887000000000      0.844098000000000
C       0.503390000000000      3.048653000000000      2.692898000000000
C       1.944170000000000      2.367386000000000      0.892060000000000
C       1.522216000000000      3.339110000000000      1.793982000000000
H       0.153477000000000      3.796929000000000      3.397528000000000
H       2.747608000000000      2.602643000000000      0.201634000000000
H       1.994195000000000      4.316940000000000      1.791833000000000
P      -1.993977000000000      0.082098000000000     -0.475393000000000
P       1.866392000000000     -0.098316000000000     -0.470969000000000
C       3.329958000000000      0.696014000000000     -1.233691000000000
C       4.596056000000000      0.712579000000000     -0.635520000000000
C       3.178483000000000      1.325934000000000     -2.473641000000000
C       5.668803000000000      1.343958000000000     -1.246850000000000
H       4.749701000000000      0.218692000000000      0.320211000000000
C       4.245263000000000      1.964867000000000     -3.090945000000000
H       2.204370000000000      1.306050000000000     -2.956441000000000
C       5.508532000000000      1.982040000000000     -2.485796000000000
H       6.644431000000000      1.346894000000000     -0.767406000000000
H       4.106611000000000      2.450293000000000     -4.053593000000000
N       6.571640000000000      2.659041000000000     -3.076285000000000
C       2.615940000000000     -1.446559000000000      0.517867000000000
C       2.740949000000000     -2.720909000000000     -0.043914000000000
C       3.100785000000000     -1.253108000000000      1.816591000000000
C       3.318814000000000     -3.766944000000000      0.660815000000000
H       2.374183000000000     -2.900057000000000     -1.051129000000000
C       3.676346000000000     -2.293759000000000      2.532978000000000
H       3.017478000000000     -0.273803000000000      2.282502000000000
C       3.788919000000000     -3.570150000000000      1.965922000000000
H       3.403153000000000     -4.749487000000000      0.203976000000000
H       4.044268000000000     -2.122567000000000      3.541651000000000
N       4.404690000000000     -4.606635000000000      2.663704000000000
C      -2.298110000000000      1.744815000000000      0.227188000000000
C      -1.700064000000000      2.879594000000000     -0.323279000000000
C      -3.049900000000000      1.898814000000000      1.400384000000000
C      -1.844355000000000      4.126363000000000      0.271689000000000
H      -1.087638000000000      2.775985000000000     -1.214035000000000
C      -3.208068000000000      3.139935000000000      1.997089000000000
H      -3.497981000000000      1.025101000000000      1.869948000000000
C      -2.594836000000000      4.273891000000000      1.443725000000000
H      -1.349568000000000      4.993252000000000     -0.158741000000000
H      -3.783032000000000      3.236163000000000      2.914880000000000
N      -2.672165000000000      5.505533000000000      2.090569000000000
C      -3.671928000000000     -0.518828000000000     -0.933288000000000
C      -3.757741000000000     -1.706248000000000     -1.674341000000000
C      -4.867467000000000      0.147534000000000     -0.642388000000000
C      -4.978387000000000     -2.233494000000000     -2.066342000000000
H      -2.845866000000000     -2.229957000000000     -1.950595000000000
C      -6.094706000000000     -0.361606000000000     -1.047561000000000
H      -4.849289000000000      1.088991000000000     -0.104039000000000
C      -6.171822000000000     -1.566312000000000     -1.756613000000000
H      -5.013178000000000     -3.156699000000000     -2.638905000000000
H      -7.007731000000000      0.182893000000000     -0.820109000000000
N      -7.395530000000000     -2.053665000000000     -2.205217000000000
H       0.144238000000000      1.146829000000000     -1.731342000000000
H       0.774990000000000     -1.031429000000000      3.526179000000000
H      -0.882801000000000      1.553675000000000      3.365460000000000
Rh     -0.055027000000000     -0.436490000000000     -1.592010000000000
C      -0.206404000000000     -2.364847000000000     -1.611710000000000
O      -0.279676000000000     -3.507649000000000     -1.701977000000000
H      -7.419865000000000     -3.049404000000000     -2.380850000000000
H      -8.198988999999999     -1.744325000000000     -1.674482000000000
H      -3.489948000000000      5.627542000000000      2.673626000000000
H      -2.518228000000000      6.306822000000000      1.492303000000000
H       6.497719000000000      2.773442000000000     -4.078663000000000
H       7.488877000000000      2.331516000000000     -2.803051000000000
H       4.373506000000000     -4.515834000000000      3.670756000000000
H       4.134695000000000     -5.534774000000000      2.364993000000000
