74

C      -2.227399000000000     -2.051804000000000      1.352640000000000
C      -1.547959000000000     -0.861564000000000      1.076732000000000
C      -0.431444000000000     -0.507235000000000      1.872833000000000
C      -0.059121000000000     -1.358380000000000      2.917322000000000
C      -0.731150000000000     -2.551479000000000      3.168109000000000
C      -1.823680000000000     -2.896597000000000      2.383932000000000
H      -3.082551000000000     -2.330174000000000      0.743788000000000
H      -0.402144000000000     -3.198206000000000      3.975244000000000
H      -2.366768000000000     -3.818109000000000      2.569169000000000
C       0.317435000000000      0.797369000000000      1.777632000000000
C      -0.040857000000000      1.758174000000000      2.730797000000000
C       1.364853000000000      1.097954000000000      0.878156000000000
C       0.556180000000000      3.012638000000000      2.773795000000000
C       1.972676000000000      2.356917000000000      0.945138000000000
C       1.567808000000000      3.313781000000000      1.870736000000000
H       0.228293000000000      3.743743000000000      3.506306000000000
H       2.772060000000000      2.599987000000000      0.252937000000000
H       2.050829000000000      4.285998000000000      1.886230000000000
P      -1.978958000000000      0.102516000000000     -0.449227000000000
P       1.867113000000000     -0.083763000000000     -0.459240000000000
C       3.344503000000000      0.708742000000000     -1.204756000000000
C       4.609427000000000      0.689885000000000     -0.609146000000000
C       3.193437000000000      1.371195000000000     -2.429891000000000
C       5.690721000000000      1.322562000000000     -1.211101000000000
H       4.759497000000000      0.172662000000000      0.334343000000000
C       4.264258000000000      2.011929000000000     -3.037688000000000
H       2.215829000000000      1.375697000000000     -2.905695000000000
C       5.518512000000000      1.987720000000000     -2.426565000000000
H       6.670957000000000      1.297218000000000     -0.740120000000000
H       4.154992000000000      2.524907000000000     -3.987075000000000
O       6.537681000000000      2.621993000000000     -3.062234000000000
C       2.604063000000000     -1.457490000000000      0.508765000000000
C       2.694212000000000     -2.725204000000000     -0.069241000000000
C       3.104351000000000     -1.283119000000000      1.806530000000000
C       3.258703000000000     -3.791949000000000      0.621328000000000
H       2.314664000000000     -2.885884000000000     -1.074433000000000
C       3.666888000000000     -2.339585000000000      2.508870000000000
H       3.042868000000000     -0.306033000000000      2.280035000000000
C       3.740540000000000     -3.601436000000000      1.916023000000000
H       3.314418000000000     -4.774392000000000      0.158252000000000
H       4.048543000000000     -2.212695000000000      3.516410000000000
O       4.290161000000000     -4.605158000000000      2.648554000000000
C      -2.312728000000000      1.762693000000000      0.250509000000000
C      -2.960462000000000      1.923668000000000      1.484623000000000
C      -1.866683000000000      2.903130000000000     -0.416785000000000
C      -3.172952000000000      3.180664000000000      2.028462000000000
H      -3.268871000000000      1.046312000000000      2.049195000000000
C      -2.066041000000000      4.170876000000000      0.121421000000000
H      -1.333511000000000      2.794622000000000     -1.356545000000000
C      -2.718488000000000      4.311074000000000      1.344766000000000
H      -3.665502000000000      3.311082000000000      2.986221000000000
H      -1.701167000000000      5.050469000000000     -0.404099000000000
O      -2.930105000000000      5.519663000000000      1.928606000000000
C      -3.643505000000000     -0.528445000000000     -0.916192000000000
C      -4.839894000000000     -0.186823000000000     -0.268359000000000
C      -3.711007000000000     -1.422988000000000     -1.988047000000000
C      -6.052485000000000     -0.730715000000000     -0.663140000000000
H      -4.833240000000000      0.525603000000000      0.549460000000000
C      -4.919349000000000     -1.982861000000000     -2.390088000000000
H      -2.800181000000000     -1.679579000000000     -2.522855000000000
C      -6.094320000000000     -1.637940000000000     -1.724884000000000
H      -6.980084000000000     -0.465093000000000     -0.167613000000000
H      -4.949021000000000     -2.676872000000000     -3.226910000000000
O      -7.307549000000000     -2.141364000000000     -2.068207000000000
H       0.139904000000000      1.205409000000000     -1.677832000000000
H       0.786890000000000     -1.076000000000000      3.537495000000000
H      -0.833552000000000      1.514969000000000      3.432487000000000
Rh     -0.057256000000000     -0.381490000000000     -1.592163000000000
C      -0.237512000000000     -2.310592000000000     -1.657146000000000
O      -0.333478000000000     -3.449313000000000     -1.762329000000000
H      -7.201731000000000     -2.746851000000000     -2.815895000000000
H      -2.571893000000000      6.214523000000000      1.357977000000000
H       7.349253000000000      2.520194000000000     -2.544934000000000
H       4.272539000000000     -5.422900000000000      2.131139000000000
