86

C      -2.333186000000000     -1.979234000000000      1.467875000000000
C      -1.623888000000000     -0.821392000000000      1.137434000000000
C      -0.478369000000000     -0.478989000000000      1.897666000000000
C      -0.100493000000000     -1.316131000000000      2.951389000000000
C      -0.799470000000000     -2.481989000000000      3.251379000000000
C      -1.926703000000000     -2.809281000000000      2.510317000000000
H      -3.218023000000000     -2.243799000000000      0.897172000000000
H      -0.466241000000000     -3.118780000000000      4.064663000000000
H      -2.495667000000000     -3.705458000000000      2.737865000000000
C       0.295187000000000      0.808347000000000      1.765395000000000
C      -0.028903000000000      1.791015000000000      2.709020000000000
C       1.331421000000000      1.074204000000000      0.842875000000000
C       0.594163000000000      3.033530000000000      2.721923000000000
C       1.963297000000000      2.322860000000000      0.877485000000000
C       1.594366000000000      3.301389000000000      1.795555000000000
H       0.292180000000000      3.782614000000000      3.448065000000000
H       2.754902000000000      2.538683000000000      0.167349000000000
H       2.096176000000000      4.264421000000000      1.786725000000000
P      -2.057975000000000      0.128339000000000     -0.401680000000000
P       1.788694000000000     -0.144300000000000     -0.477607000000000
C       3.261452000000000      0.610050000000000     -1.270716000000000
C       4.538149000000000      0.575299000000000     -0.708396000000000
C       3.094066000000000      1.259170000000000     -2.502989000000000
C       5.625357000000000      1.176856000000000     -1.339573000000000
H       4.700627000000000      0.067730000000000      0.238383000000000
C       4.163234000000000      1.867550000000000     -3.139246000000000
H       2.107038000000000      1.276254000000000     -2.958360000000000
C       5.436786000000000      1.829697000000000     -2.560226000000000
H       6.603474000000000      1.126192000000000     -0.876149000000000
H       4.045426000000000      2.370357000000000     -4.093243000000000
O       6.422461000000000      2.445704000000000     -3.259211000000000
C       2.524682000000000     -1.505849000000000      0.507758000000000
C       2.582452000000000     -2.787177000000000     -0.036599000000000
C       3.057019000000000     -1.307203000000000      1.791337000000000
C       3.143414000000000     -3.854232000000000      0.663690000000000
H       2.178240000000000     -2.966301000000000     -1.029092000000000
C       3.615043000000000     -2.356182000000000      2.502333000000000
H       3.023413000000000     -0.318181000000000      2.242294000000000
C       3.656824000000000     -3.639334000000000      1.943398000000000
H       3.162312000000000     -4.836865000000000      0.207953000000000
H       4.022284000000000     -2.214608000000000      3.498018000000000
O       4.211424000000000     -4.603275000000000      2.720250000000000
C      -2.304507000000000      1.801883000000000      0.302011000000000
C      -3.025213000000000      1.977984000000000      1.496010000000000
C      -1.691329000000000      2.912203000000000     -0.269189000000000
C      -3.127370000000000      3.222208000000000      2.090471000000000
H      -3.485760000000000      1.118363000000000      1.978730000000000
C      -1.775625000000000      4.172782000000000      0.323026000000000
H      -1.106297000000000      2.787397000000000     -1.175329000000000
C      -2.486774000000000      4.326635000000000      1.512206000000000
H      -3.670540000000000      3.367693000000000      3.018410000000000
H      -1.265907000000000      5.009572000000000     -0.139152000000000
O      -2.602232000000000      5.495502000000000      2.191607000000000
C      -3.763580000000000     -0.428361000000000     -0.818986000000000
C      -4.935428000000000      0.271961000000000     -0.495159000000000
C      -3.894091000000000     -1.608186000000000     -1.556391000000000
C      -6.180347000000000     -0.205864000000000     -0.871432000000000
H      -4.879801000000000      1.212112000000000      0.042328000000000
C      -5.138810000000000     -2.112741000000000     -1.925464000000000
H      -3.002005000000000     -2.152360000000000     -1.856148000000000
C      -6.292685000000000     -1.406526000000000     -1.579970000000000
H      -7.088669000000000      0.335956000000000     -0.629945000000000
H      -5.191136000000000     -3.035288000000000     -2.491166000000000
O      -7.553509000000000     -1.793770000000000     -1.895161000000000
H       0.074762000000000      1.138542000000000     -1.704940000000000
H       0.769879000000000     -1.043102000000000      3.541249000000000
H      -0.815895000000000      1.575350000000000      3.425743000000000
Rh     -0.159430000000000     -0.438199000000000     -1.561623000000000
C      -0.365401000000000     -2.363904000000000     -1.578112000000000
O      -0.473176000000000     -3.503663000000000     -1.666050000000000
C      -7.704398000000000     -2.993324000000000     -2.621385000000000
H      -7.207087000000000     -2.933662000000000     -3.596888000000000
H      -7.304274000000000     -3.849312000000000     -2.064703000000000
H      -8.776042000000000     -3.125583000000000     -2.768377000000000
C      -1.909578000000000      6.612580000000000      1.680405000000000
H      -2.275249000000000      6.888339000000000      0.684130000000000
H      -2.098705000000000      7.430931000000000      2.374793000000000
H      -0.831161000000000      6.418215000000000      1.626605000000000
C       7.723826000000000      2.416963000000000     -2.717167000000000
H       8.357488999999999      2.954470000000000     -3.422220000000000
H       7.760614000000000      2.915471000000000     -1.740965000000000
H       8.088449000000001      1.388285000000000     -2.610123000000000
C       4.262522000000000     -5.911859000000000      2.196483000000000
H       3.257226000000000     -6.295582000000000      1.985313000000000
H       4.862912000000000     -5.951043000000000      1.279643000000000
H       4.732203000000000     -6.527062000000000      2.963612000000000
