86

C       2.402642000000000     -2.039822000000000     -1.395587000000000
C       1.665864000000000     -0.883619000000000     -1.125995000000000
C       0.530245000000000     -0.592669000000000     -1.922064000000000
C       0.188612000000000     -1.480009000000000     -2.946947000000000
C       0.912552000000000     -2.645154000000000     -3.183799000000000
C       2.031196000000000     -2.920012000000000     -2.409416000000000
H       3.282993000000000     -2.263606000000000     -0.801625000000000
H       0.605621000000000     -3.321656000000000     -3.974925000000000
H       2.620769000000000     -3.813632000000000     -2.589021000000000
C      -0.265338000000000      0.687001000000000     -1.863372000000000
C       0.055125000000000      1.625914000000000     -2.851938000000000
C      -1.318388000000000      0.982459000000000     -0.968690000000000
C      -0.588707000000000      2.855277000000000     -2.937785000000000
C      -1.968842000000000      2.217523000000000     -1.074098000000000
C      -1.604921000000000      3.153134000000000     -2.038068000000000
H      -0.289638000000000      3.570796000000000     -3.698466000000000
H      -2.773084000000000      2.457440000000000     -0.386354000000000
H      -2.125549000000000      4.105021000000000     -2.086814000000000
P       2.053339000000000      0.138817000000000      0.378744000000000
P      -1.777461000000000     -0.178299000000000      0.400574000000000
C      -3.275945000000000      0.587896000000000      1.134352000000000
C      -4.535106000000000      0.561369000000000      0.518438000000000
C      -3.152957000000000      1.229643000000000      2.366764000000000
C      -5.628301000000000      1.169842000000000      1.113936000000000
H      -4.664147000000000      0.056963000000000     -0.435296000000000
C      -4.246280000000000      1.847749000000000      2.971586000000000
H      -2.183724000000000      1.241684000000000      2.859579000000000
C      -5.494690000000000      1.823318000000000      2.348400000000000
H      -6.598314000000000      1.139077000000000      0.625340000000000
H      -4.109789000000000      2.335177000000000      3.930132000000000
S      -6.958637000000000      2.561481000000000      3.011769000000000
C      -2.487876000000000     -1.596007000000000     -0.525822000000000
C      -2.565806000000000     -2.841616000000000      0.096050000000000
C      -2.981220000000000     -1.475615000000000     -1.831966000000000
C      -3.110200000000000     -3.944920000000000     -0.556956000000000
H      -2.191980000000000     -2.959951000000000      1.109635000000000
C      -3.522174000000000     -2.568409000000000     -2.492543000000000
H      -2.932671000000000     -0.516750000000000     -2.342715000000000
C      -3.588222000000000     -3.818637000000000     -1.862428000000000
H      -3.145933000000000     -4.895946000000000     -0.038333000000000
H      -3.894557000000000     -2.457985000000000     -3.507488000000000
S      -4.282165000000000     -5.143922000000000     -2.806445000000000
C       2.282802000000000      1.782753000000000     -0.401832000000000
C       3.043094000000000      1.913335000000000     -1.574448000000000
C       1.604741000000000      2.899633000000000      0.076899000000000
C       3.107680000000000      3.120487000000000     -2.250190000000000
H       3.559162000000000      1.046617000000000     -1.982529000000000
C       1.658680000000000      4.117586000000000     -0.599330000000000
H       0.993597000000000      2.808698000000000      0.969787000000000
C       2.396477000000000      4.233103000000000     -1.776793000000000
H       3.680737000000000      3.199220000000000     -3.170094000000000
H       1.099936000000000      4.958981000000000     -0.205883000000000
S       2.477099000000000      5.703344000000000     -2.757911000000000
C       3.763623000000000     -0.360627000000000      0.850160000000000
C       4.912753000000000      0.397525000000000      0.593282000000000
C       3.913497000000000     -1.544742000000000      1.579886000000000
C       6.161273000000000     -0.030150000000000      1.024283000000000
H       4.839974000000000      1.341464000000000      0.064260000000000
C       5.162701000000000     -1.992410000000000      1.997328000000000
H       3.035503000000000     -2.134792000000000      1.831586000000000
C       6.304140000000000     -1.235650000000000      1.721088000000000
H       7.037716000000000      0.578266000000000      0.818547000000000
H       5.227978000000000     -2.922173000000000      2.550726000000000
S       7.944066000000000     -1.684820000000000      2.208087000000000
H      -0.113536000000000      1.172077000000000      1.616954000000000
H      -0.672854000000000     -1.246474000000000     -3.566081000000000
H       0.854421000000000      1.386786000000000     -3.547258000000000
Rh      0.146995000000000     -0.403805000000000      1.533765000000000
C       0.376971000000000     -2.327946000000000      1.621504000000000
O       0.497074000000000     -3.462229000000000      1.747334000000000
C       7.684903000000000     -3.260877000000000      3.055708000000000
H       7.051579000000000     -3.140363000000000      3.937253000000000
H       7.258656000000000     -4.009267000000000      2.384086000000000
H       8.673646000000000     -3.594974000000000      3.374571000000000
C       1.202812000000000      6.739104000000000     -1.998919000000000
H       1.485101000000000      7.056295000000000     -0.992974000000000
H       1.111720000000000      7.621585000000000     -2.634342000000000
H       0.243950000000000      6.215452000000000     -1.972480000000000
C      -6.371958000000000      3.269198000000000      4.568697000000000
H      -5.602875000000000      4.025633000000000      4.398063000000000
H      -7.240359000000000      3.745303000000000      5.027102000000000
H      -5.996846000000000      2.494988000000000      5.241468000000000
C      -4.188429000000000     -6.536710000000000     -1.657247000000000
H      -3.154256000000000     -6.760904000000000     -1.387127000000000
H      -4.781824000000000     -6.352416000000000     -0.759115000000000
H      -4.608602000000000     -7.392148000000000     -2.188802000000000
