70

C       2.147561000000000      2.295584000000000      1.499697000000000
C       1.538914000000000      1.081888000000000      1.168737000000000
C       0.471413000000000      0.605298000000000      1.969606000000000
C       0.078301000000000      1.365500000000000      3.076003000000000
C       0.674165000000000      2.586178000000000      3.378627000000000
C       1.716940000000000      3.050404000000000      2.588326000000000
H       2.973613000000000      2.665440000000000      0.900891000000000
H       0.327730000000000      3.158492000000000      4.233016000000000
H       2.204785000000000      3.992841000000000      2.815091000000000
C      -0.175172000000000     -0.748151000000000      1.824772000000000
C       0.249269000000000     -1.704975000000000      2.756407000000000
C      -1.172184000000000     -1.115403000000000      0.891842000000000
C      -0.222391000000000     -3.012393000000000      2.736074000000000
C      -1.640924000000000     -2.434988000000000      0.884447000000000
C      -1.162689000000000     -3.383584000000000      1.782544000000000
H       0.153925000000000     -3.733833000000000      3.454817000000000
H      -2.388394000000000     -2.735755000000000      0.158253000000000
H      -1.531142000000000     -4.403124000000000      1.735914000000000
P       2.000033000000000      0.202835000000000     -0.401535000000000
P      -1.772823000000000      0.058874000000000     -0.404912000000000
C      -3.219944000000000     -0.819764000000000     -1.134906000000000
C      -4.431217000000000     -0.960802000000000     -0.450729000000000
C      -3.071045000000000     -1.357350000000000     -2.413806000000000
C      -5.475783000000000     -1.646336000000000     -1.056926000000000
H      -4.564586000000000     -0.544596000000000      0.542634000000000
C      -4.134740000000000     -2.042689000000000     -2.992727000000000
H      -2.133225000000000     -1.236060000000000     -2.947460000000000
C      -5.345847000000000     -2.196250000000000     -2.329332000000000
Br     -7.114852000000000     -1.845652000000000     -0.137736000000000
Br     -3.935470000000000     -2.775824000000000     -4.722053000000000
H      -6.169886000000000     -2.726251000000000     -2.790902000000000
C      -2.621479000000000      1.362225000000000      0.584441000000000
C      -2.944647000000000      2.562133000000000     -0.053732000000000
C      -2.922936000000000      1.193695000000000      1.936625000000000
C      -3.551891000000000      3.581076000000000      0.669445000000000
H      -2.716796000000000      2.706571000000000     -1.105396000000000
C      -3.504419000000000      2.241682000000000      2.640877000000000
H      -2.689180000000000      0.264921000000000      2.446790000000000
C      -3.828938000000000      3.444377000000000      2.026362000000000
Br     -3.983091000000000      5.202421000000000     -0.196162000000000
Br     -3.824292000000000      2.032467000000000      4.493085000000000
H      -4.277209000000000      4.254945000000000      2.587302000000000
C       2.413385000000000     -1.461230000000000      0.278838000000000
C       3.182901000000000     -1.566142000000000      1.444150000000000
C       1.860368000000000     -2.603841000000000     -0.293435000000000
C       3.396101000000000     -2.814639000000000      2.010064000000000
H       3.583089000000000     -0.678827000000000      1.926797000000000
C       2.077771000000000     -3.840205000000000      0.308207000000000
H       1.231994000000000     -2.525120000000000     -1.173722000000000
C       2.849260000000000     -3.968330000000000      1.455350000000000
Br      4.391646000000000     -2.950708000000000      3.611508000000000
Br      1.254943000000000     -5.376595000000000     -0.418645000000000
H       3.004002000000000     -4.935162000000000      1.918628000000000
C       3.662135000000000      0.892315000000000     -0.840748000000000
C       4.872949000000000      0.235348000000000     -0.611394000000000
C       3.666319000000000      2.118374000000000     -1.517515000000000
C       6.061877000000000      0.820739000000000     -1.037559000000000
H       4.908982000000000     -0.728968000000000     -0.120281000000000
C       4.869237000000000      2.687149000000000     -1.912533000000000
H       2.733404000000000      2.624969000000000     -1.744809000000000
C       6.084509000000000      2.050033000000000     -1.682673000000000
Br      7.693324000000000     -0.082326000000000     -0.729249000000000
Br      4.859664000000000      4.351508000000000     -2.805759000000000
H       7.017300000000000      2.493272000000000     -2.008475000000000
H      -0.007854000000000     -0.992337000000000     -1.751332000000000
H      -0.718520000000000      0.988004000000000      3.711859000000000
H       0.998291000000000     -1.413855000000000      3.488322000000000
Rh      0.064356000000000      0.587015000000000     -1.549402000000000
C       0.036281000000000      2.543461000000000     -1.458365000000000
O      -0.013807000000000      3.685706000000000     -1.441635000000000
