70

C       2.281369000000000      1.123286000000000     -1.993506000000000
C       1.708978000000000      0.788014000000000     -0.760188000000000
C       0.896245000000000      1.738119000000000     -0.101820000000000
C       0.740018000000000      3.003696000000000     -0.679034000000000
C       1.313633000000000      3.324001000000000     -1.904265000000000
C       2.080936000000000      2.374541000000000     -2.568640000000000
H       2.891567000000000      0.395140000000000     -2.519026000000000
H       1.156061000000000      4.307638000000000     -2.334548000000000
H       2.531118000000000      2.602618000000000     -3.529169000000000
C       0.235102000000000      1.519236000000000      1.227766000000000
C       0.728637000000000      2.272494000000000      2.299037000000000
C      -0.874636000000000      0.672511000000000      1.446960000000000
C       0.196960000000000      2.159675000000000      3.578310000000000
C      -1.412793000000000      0.582629000000000      2.735471000000000
C      -0.874707000000000      1.302859000000000      3.797955000000000
H       0.620501000000000      2.738101000000000      4.393091000000000
H      -2.271671000000000     -0.054362000000000      2.916169000000000
H      -1.306734000000000      1.202012000000000      4.788181000000000
P       1.830675000000000     -0.951150000000000     -0.161669000000000
P      -1.576739000000000     -0.343354000000000      0.074323000000000
C      -3.172429000000000     -0.969017000000000      0.753979000000000
C      -4.402480000000000     -0.398453000000000      0.422757000000000
C      -3.132888000000000     -2.098064000000000      1.579490000000000
C      -5.572012000000000     -0.971904000000000      0.914004000000000
H      -4.469611000000000      0.476823000000000     -0.213089000000000
C      -4.317226000000000     -2.638503000000000      2.057712000000000
H      -2.184838000000000     -2.561155000000000      1.833520000000000
C      -5.553509000000000     -2.092643000000000      1.731722000000000
Cl     -7.104096000000000     -0.262291000000000      0.489677000000000
Cl     -4.259745000000000     -4.064249000000000      3.050251000000000
H      -6.473070000000000     -2.538954000000000      2.090199000000000
C      -2.169663000000000      0.952355000000000     -1.096062000000000
C      -2.420143000000000      0.577263000000000     -2.416690000000000
C      -2.388426000000000      2.272599000000000     -0.696988000000000
C      -2.866460000000000      1.528052000000000     -3.328201000000000
H      -2.273965000000000     -0.448735000000000     -2.738841000000000
C      -2.813894000000000      3.204976000000000     -1.635547000000000
H      -2.216098000000000      2.582186000000000      0.329198000000000
C      -3.057893000000000      2.854718000000000     -2.958985000000000
Cl     -3.172358000000000      1.055259000000000     -4.972192000000000
Cl     -3.025415000000000      4.862850000000000     -1.147789000000000
H      -3.385635000000000      3.593318000000000     -3.680860000000000
C       2.400412000000000     -0.778012000000000      1.581830000000000
C       3.145705000000000      0.325724000000000      2.002435000000000
C       2.094457000000000     -1.796330000000000      2.484046000000000
C       3.557466000000000      0.404505000000000      3.325602000000000
H       3.367322000000000      1.143915000000000      1.323397000000000
C       2.538254000000000     -1.696668000000000      3.799305000000000
H       1.503316000000000     -2.650501000000000      2.169801000000000
C       3.267103000000000     -0.599777000000000      4.242778000000000
Cl      4.423792000000000      1.816563000000000      3.861459000000000
Cl      2.151851000000000     -2.962661000000000      4.926954000000000
H       3.590153000000000     -0.523847000000000      5.274253000000000
C       3.383947000000000     -1.564471000000000     -0.953229000000000
C       4.604267000000000     -0.889873000000000     -0.838508000000000
C       3.313667000000000     -2.762761000000000     -1.661205000000000
C       5.734245000000000     -1.425193000000000     -1.440450000000000
H       4.682792000000000      0.046003000000000     -0.294886000000000
C       4.466558000000000     -3.276843000000000     -2.251260000000000
H       2.368288000000000     -3.291785000000000     -1.739712000000000
C       5.686159000000000     -2.622076000000000     -2.153002000000000
Cl      7.252910000000000     -0.586915000000000     -1.307858000000000
Cl      4.376377000000000     -4.773318000000000     -3.132000000000000
H       6.577665000000000     -3.028956000000000     -2.615512000000000
H      -0.221078000000000     -2.439994000000000      0.856442000000000
H       0.134702000000000      3.740379000000000     -0.156821000000000
H       1.568802000000000      2.939051000000000      2.120373000000000
Rh     -0.169799000000000     -2.051841000000000     -0.671048000000000
C       0.024479000000000     -1.654495000000000     -2.586194000000000
O       0.227832000000000     -1.425205000000000     -3.687315000000000
