78

C       2.265349000000000      0.642888000000000     -2.378226000000000
C       1.635646000000000      0.518324000000000     -1.137024000000000
C       0.679820000000000      1.490873000000000     -0.748019000000000
C       0.418495000000000      2.550891000000000     -1.623367000000000
C       1.031327000000000      2.647286000000000     -2.869321000000000
C       1.962747000000000      1.689608000000000     -3.246103000000000
H       3.013455000000000     -0.081765000000000     -2.681634000000000
H       0.791048000000000      3.476173000000000     -3.526788000000000
H       2.465880000000000      1.755060000000000     -4.205097000000000
C       0.046703000000000      1.587846000000000      0.617111000000000
C       0.583706000000000      2.588819000000000      1.439023000000000
C      -1.038435000000000      0.826761000000000      1.112027000000000
C       0.132537000000000      2.799199000000000      2.737215000000000
C      -1.478207000000000      1.044869000000000      2.424163000000000
C      -0.893755000000000      2.008280000000000      3.240298000000000
H       0.587388000000000      3.571394000000000      3.349667000000000
H      -2.289503000000000      0.448685000000000      2.827413000000000
H      -1.247260000000000      2.138484000000000      4.257804000000000
P       1.921660000000000     -0.984655000000000     -0.084373000000000
P      -1.804677000000000     -0.534385000000000      0.124345000000000
C      -3.299535000000000     -0.992963000000000      1.103306000000000
C      -4.416030000000000     -0.160466000000000      1.209857000000000
C      -3.305854000000000     -2.232968000000000      1.740449000000000
C      -5.526860000000000     -0.567206000000000      1.953974000000000
H      -4.435790000000000      0.809166000000000      0.720218000000000
C      -4.419215000000000     -2.635103000000000      2.488378000000000
H      -2.444586000000000     -2.889895000000000      1.651202000000000
C      -5.535519000000000     -1.806823000000000      2.598705000000000
C      -6.670919000000000      0.300854000000000      2.055562000000000
C      -4.413785000000000     -3.918596000000000      3.140509000000000
H      -6.399988000000000     -2.121055000000000      3.172664000000000
C      -2.596327000000000      0.363489000000000     -1.279132000000000
C      -3.074132000000000     -0.389465000000000     -2.354192000000000
C      -2.719406000000000      1.751349000000000     -1.315816000000000
C      -3.663868000000000      0.240465000000000     -3.453514000000000
H      -2.986135000000000     -1.472951000000000     -2.347296000000000
C      -3.284475000000000      2.380963000000000     -2.431163000000000
H      -2.367824000000000      2.359075000000000     -0.487163000000000
C      -3.762545000000000      1.632710000000000     -3.505855000000000
C      -4.154758000000000     -0.551751000000000     -4.550680000000000
C      -3.335953000000000      3.818988000000000     -2.468774000000000
H      -4.198294000000000      2.121873000000000     -4.369584000000000
C       2.465451000000000     -0.161119000000000      1.475432000000000
C       3.415162000000000      0.864456000000000      1.430035000000000
C       1.841010000000000     -0.457959000000000      2.683026000000000
C       3.749693000000000      1.569341000000000      2.588816000000000
H       3.884060000000000      1.140788000000000      0.488457000000000
C       2.156143000000000      0.272328000000000      3.835658000000000
H       1.076633000000000     -1.227522000000000      2.725106000000000
C       3.116599000000000      1.281287000000000      3.800652000000000
C       4.717312000000000      2.632919000000000      2.521325000000000
C       1.428548000000000      0.019140000000000      5.051702000000000
H       3.355950000000000      1.847267000000000      4.694052000000000
C       3.500600000000000     -1.713344000000000     -0.721706000000000
C       4.717321000000000     -1.676418000000000     -0.040104000000000
C       3.422159000000000     -2.450786000000000     -1.909206000000000
C       5.839645000000000     -2.339903000000000     -0.553299000000000
H       4.818091000000000     -1.150436000000000      0.902308000000000
C       4.548562000000000     -3.089457000000000     -2.431106000000000
H       2.476743000000000     -2.541341000000000     -2.437745000000000
C       5.769893000000000     -3.040527000000000     -1.755218000000000
C       7.080529000000000     -2.291785000000000      0.175344000000000
C       4.442844000000000     -3.819234000000000     -3.667598000000000
H       6.641640000000000     -3.548387000000000     -2.151578000000000
H      -0.185707000000000     -1.948144000000000      1.302103000000000
H      -0.277977000000000      3.324864000000000     -1.310852000000000
H       1.395149000000000      3.195576000000000      1.045821000000000
Rh     -0.135760000000000     -1.939962000000000     -0.290189000000000
C      -0.213916000000000     -2.063774000000000     -2.248772000000000
O      -0.298434000000000     -2.150155000000000     -3.384372000000000
N       8.073626000000001     -2.247366000000000      0.765876000000000
N       4.353748000000000     -4.400229000000000     -4.663301000000000
N       5.486433000000000      3.494104000000000      2.457919000000000
N       0.818476000000000     -0.167447000000000      6.016350000000000
N      -7.584452000000000      1.005340000000000      2.133767000000000
N      -4.405825000000000     -4.950432000000000      3.662171000000000
N      -4.549742000000000     -1.190479000000000     -5.429808000000000
N      -3.346413000000000      4.975362000000000     -2.486414000000000
