94

C       2.585505000000000      0.797741000000000     -2.237811000000000
C       1.885987000000000      0.566339000000000     -1.051363000000000
C       0.870620000000000      1.475180000000000     -0.664461000000000
C       0.588954000000000      2.559579000000000     -1.501492000000000
C       1.266293000000000      2.754116000000000     -2.702775000000000
C       2.280937000000000      1.878253000000000     -3.062713000000000
H       3.379324000000000      0.120689000000000     -2.535787000000000
H       1.011135000000000      3.596157000000000     -3.337869000000000
H       2.838385000000000      2.026971000000000     -3.981854000000000
C       0.180012000000000      1.498225000000000      0.676741000000000
C       0.719158000000000      2.430848000000000      1.572838000000000
C      -0.972970000000000      0.776905000000000      1.064421000000000
C       0.177505000000000      2.642326000000000      2.835090000000000
C      -1.529712000000000      1.032792000000000      2.324867000000000
C      -0.960585000000000      1.941619000000000      3.211501000000000
H       0.643380000000000      3.349424000000000      3.514438000000000
H      -2.433164000000000      0.520577000000000      2.631178000000000
H      -1.406156000000000      2.092414000000000      4.189534000000000
P       2.073768000000000     -1.049105000000000     -0.158760000000000
P      -1.710760000000000     -0.511241000000000     -0.047780000000000
C      -3.158253000000000     -1.130406000000000      0.919645000000000
C      -4.465540000000000     -1.024991000000000      0.441602000000000
C      -2.938631000000000     -1.783302000000000      2.140490000000000
C      -5.531177000000000     -1.573011000000000      1.160830000000000
H      -4.674822000000000     -0.517025000000000     -0.493600000000000
C      -4.011719000000000     -2.285474000000000      2.877566000000000
H      -1.931254000000000     -1.884184000000000      2.541821000000000
C      -5.312998000000000     -2.201511000000000      2.381157000000000
C      -6.935029000000000     -1.488289000000000      0.667918000000000
C      -3.747766000000000     -2.867945000000000      4.221141000000000
H      -6.154971000000000     -2.604005000000000      2.933368000000000
C      -2.521492000000000      0.522660000000000     -1.338630000000000
C      -2.885919000000000     -0.083354000000000     -2.543769000000000
C      -2.741750000000000      1.891380000000000     -1.175210000000000
C      -3.468532000000000      0.665549000000000     -3.566783000000000
H      -2.710921000000000     -1.145563000000000     -2.692311000000000
C      -3.297018000000000      2.644103000000000     -2.212590000000000
H      -2.469135000000000      2.384990000000000     -0.247298000000000
C      -3.668703000000000      2.034395000000000     -3.407370000000000
C      -3.862592000000000      0.046305000000000     -4.863519000000000
C      -3.489217000000000      4.115672000000000     -2.089487000000000
H      -4.099808000000000      2.621676000000000     -4.211855000000000
C       2.427119000000000     -0.472937000000000      1.552086000000000
C       3.376090000000000      0.510132000000000      1.840832000000000
C       1.571931000000000     -0.892948000000000      2.566835000000000
C       3.468486000000000      1.042433000000000      3.129506000000000
H       4.036226000000000      0.907164000000000      1.072507000000000
C       1.616377000000000     -0.314756000000000      3.832477000000000
H       0.813697000000000     -1.634317000000000      2.352864000000000
C       2.576392000000000      0.647722000000000      4.127967000000000
C       4.489166000000000      2.100765000000000      3.361128000000000
C       0.548083000000000     -0.637742000000000      4.825159000000000
H       2.599023000000000      1.101913000000000      5.113159000000000
C       3.683735000000000     -1.728330000000000     -0.750409000000000
C       4.858046000000000     -1.749711000000000      0.001300000000000
C       3.682235000000000     -2.351416000000000     -2.005705000000000
C       6.014179000000000     -2.352791000000000     -0.503113000000000
H       4.908876000000000     -1.316745000000000      0.994829000000000
C       4.841339000000000     -2.931550000000000     -2.515740000000000
H       2.767200000000000     -2.391454000000000     -2.591218000000000
C       6.017000000000000     -2.936096000000000     -1.765010000000000
C       7.226292000000000     -2.344010000000000      0.364193000000000
C       4.867784000000000     -3.583764000000000     -3.854916000000000
H       6.908043000000000     -3.403828000000000     -2.169142000000000
H      -0.196237000000000     -2.184270000000000      0.881660000000000
H      -0.177504000000000      3.266871000000000     -1.193500000000000
H       1.602272000000000      2.984260000000000      1.264902000000000
Rh     -0.032551000000000     -1.842249000000000     -0.659755000000000
C       0.026413000000000     -1.567619000000000     -2.601704000000000
O       0.019470000000000     -1.436689000000000     -3.737933000000000
O       7.267594000000000     -1.871402000000000      1.473428000000000
O       8.288797000000001     -2.924888000000000     -0.220670000000000
H       9.019410000000001     -2.869230000000000      0.419667000000000
O       5.839762000000000     -4.109408000000000     -4.338627000000000
O       3.680461000000000     -3.526685000000000     -4.485652000000000
H       3.798867000000000     -3.978248000000000     -5.339383000000000
O       5.216110000000000      2.548928000000000      2.507810000000000
O       4.518107000000000      2.528557000000000      4.636683000000000
H       5.213220000000000      3.208013000000000      4.681343000000000
O       0.428593000000000     -0.101075000000000      5.900056000000000
O      -0.287860000000000     -1.570212000000000      4.351146000000000
H      -1.024877000000000     -1.746179000000000      4.967830000000000
O      -7.892336000000000     -1.922427000000000      1.259823000000000
O      -7.033007000000000     -0.869332000000000     -0.522346000000000
H      -7.978234000000000     -0.863558000000000     -0.753816000000000
O      -2.722634000000000     -2.730448000000000      4.853562000000000
O      -4.784918000000000     -3.565413000000000      4.700459000000000
H      -4.528192000000000     -3.879508000000000      5.585577000000000
O      -4.356455000000000      0.648171000000000     -5.784500000000000
O      -3.608267000000000     -1.274026000000000     -4.906588000000000
H      -3.885860000000000     -1.579763000000000     -5.787623000000000
O      -4.032564000000000      4.808404000000000     -2.913175000000000
O      -2.970316000000000      4.612659000000000     -0.948896000000000
H      -3.146666000000000      5.569703000000000     -0.961526000000000
