102

C       1.729213000000000      0.251106000000000     -2.838480000000000
C       1.293555000000000      0.398481000000000     -1.517378000000000
C       0.364680000000000      1.420100000000000     -1.214140000000000
C      -0.052917000000000      2.279227000000000     -2.236459000000000
C       0.376376000000000      2.112236000000000     -3.548172000000000
C       1.266100000000000      1.087792000000000     -3.850856000000000
H       2.447836000000000     -0.525535000000000     -3.083437000000000
H       0.007548000000000      2.771473000000000     -4.327618000000000
H       1.606273000000000      0.938102000000000     -4.870754000000000
C      -0.198300000000000      1.678439000000000      0.153959000000000
C       0.226893000000000      2.838551000000000      0.809396000000000
C      -1.156017000000000      0.852989000000000      0.781548000000000
C      -0.226541000000000      3.160978000000000      2.083444000000000
C      -1.622737000000000      1.200754000000000      2.052853000000000
C      -1.152666000000000      2.334740000000000      2.709658000000000
H       0.147417000000000      4.049973000000000      2.581659000000000
H      -2.371642000000000      0.583272000000000      2.538381000000000
H      -1.516216000000000      2.569534000000000      3.705126000000000
P       1.787514000000000     -0.833178000000000     -0.222691000000000
P      -1.701985000000000     -0.709671000000000     -0.043525000000000
C      -3.231033000000000     -1.213178000000000      0.839874000000000
C      -4.485640000000000     -1.215655000000000      0.233983000000000
C      -3.086650000000000     -1.770603000000000      2.116193000000000
C      -5.597018000000000     -1.762052000000000      0.892154000000000
H      -4.604343000000000     -0.834445000000000     -0.774227000000000
C      -4.175806000000000     -2.316444000000000      2.792721000000000
H      -2.097514000000000     -1.833200000000000      2.561578000000000
C      -5.420807000000000     -2.324189000000000      2.156169000000000
C      -6.936789000000000     -1.763724000000000      0.276445000000000
C      -4.019731000000000     -2.921592000000000      4.128161000000000
H      -6.271088000000000     -2.778778000000000      2.659969000000000
C      -2.335038000000000      0.002914000000000     -1.620411000000000
C      -1.939283000000000     -0.528451000000000     -2.842196000000000
C      -3.145972000000000      1.142597000000000     -1.592702000000000
C      -2.330728000000000      0.069317000000000     -4.048428000000000
H      -1.314008000000000     -1.413098000000000     -2.865907000000000
C      -3.556550000000000      1.757092000000000     -2.777189000000000
H      -3.464735000000000      1.549390000000000     -0.635543000000000
C      -3.151557000000000      1.195957000000000     -3.994745000000000
C      -1.875705000000000     -0.438673000000000     -5.354877000000000
C      -4.372674000000000      2.985931000000000     -2.778493000000000
H      -3.462342000000000      1.670135000000000     -4.923986000000000
C       2.324509000000000      0.314673000000000      1.113147000000000
C       3.096721000000000      1.439086000000000      0.803104000000000
C       1.892072000000000      0.119707000000000      2.420319000000000
C       3.444638000000000      2.364631000000000      1.789105000000000
H       3.427018000000000      1.596745000000000     -0.221240000000000
C       2.206402000000000      1.044382000000000      3.425316000000000
H       1.295319000000000     -0.755125000000000      2.656946000000000
C       3.006108000000000      2.140262000000000      3.099156000000000
C       4.208036000000000      3.587599000000000      1.478030000000000
C       1.675254000000000      0.901407000000000      4.792746000000000
H       3.258701000000000      2.863087000000000      3.872949000000000
C       3.383826000000000     -1.528691000000000     -0.843352000000000
C       3.317757000000000     -2.565814000000000     -1.774060000000000
C       4.640838000000000     -1.115193000000000     -0.389867000000000
C       4.475533000000000     -3.162259000000000     -2.289711000000000
H       2.349577000000000     -2.936128000000000     -2.091009000000000
C       5.814686000000000     -1.699447000000000     -0.876354000000000
H       4.724766000000000     -0.337380000000000      0.361680000000000
C       5.714417000000000     -2.722087000000000     -1.824244000000000
C       4.422654000000000     -4.252841000000000     -3.281289000000000
C       7.111303000000000     -1.214662000000000     -0.367880000000000
H       6.615326000000000     -3.206908000000000     -2.191414000000000
H      -0.022932000000000     -1.813483000000000      1.583254000000000
H      -0.763824000000000      3.064797000000000     -1.992917000000000
H       0.958332000000000      3.474739000000000      0.317188000000000
Rh     -0.025715000000000     -2.345272000000000      0.093977000000000
C      -0.049107000000000     -3.119460000000000     -1.681414000000000
O      -0.031967000000000     -3.619963000000000     -2.715785000000000
C       3.337553000000000     -4.691539000000000     -3.920701000000000
H       5.382381000000000     -4.719727000000000     -3.497937000000000
H       2.349464000000000     -4.267375000000000     -3.765571000000000
H       3.407193000000000     -5.505943000000000     -4.633445000000000
C       8.307321999999999     -1.448084000000000     -0.908871000000000
H       7.051219000000000     -0.594394000000000      0.525054000000000
H       8.432601000000000     -2.032686000000000     -1.815551000000000
H       9.209751000000001     -1.046368000000000     -0.461539000000000
C       4.314852000000000      4.149295000000000      0.272823000000000
H       4.688878000000000      4.067833000000000      2.329161000000000
H       3.825958000000000      3.734063000000000     -0.604520000000000
H       4.892215000000000      5.055531000000000      0.126590000000000
C       0.561190000000000      0.238686000000000      5.107931000000000
H       2.232394000000000      1.413521000000000      5.575983000000000
H      -0.048101000000000     -0.244854000000000      4.347905000000000
H       0.216542000000000      0.171615000000000      6.134294000000000
C      -7.332047000000000     -0.990297000000000     -0.735580000000000
H      -7.651136000000000     -2.453903000000000      0.723032000000000
H      -6.674957000000000     -0.258723000000000     -1.198126000000000
H      -8.340251000000000     -1.057645000000000     -1.129456000000000
C      -3.122529000000000     -2.537412000000000      5.036131000000000
H      -4.703104000000000     -3.737078000000000      4.355013000000000
H      -2.442253000000000     -1.709108000000000      4.853663000000000
H      -3.044935000000000     -3.032648000000000      5.997844000000000
C      -0.824065000000000     -1.235004000000000     -5.553300000000000
H      -2.450709000000000     -0.096817000000000     -6.214381000000000
H      -0.194837000000000     -1.577721000000000     -4.736243000000000
H      -0.554516000000000     -1.565689000000000     -6.550572000000000
C      -4.470973000000000      3.849955000000000     -1.767360000000000
H      -4.906213000000000      3.192700000000000     -3.705154000000000
H      -3.929494000000000      3.712612000000000     -0.835268000000000
H      -5.092310000000000      4.735295000000000     -1.845753000000000
