70

C       2.300264000000000      0.810325000000000     -2.275202000000000
C       1.615008000000000      0.636153000000000     -1.070222000000000
C       0.535650000000000      1.500413000000000     -0.760068000000000
C       0.199908000000000      2.501805000000000     -1.676240000000000
C       0.872903000000000      2.647157000000000     -2.886220000000000
C       1.932687000000000      1.801270000000000     -3.182673000000000
H       3.136539000000000      0.162578000000000     -2.516726000000000
H       0.574712000000000      3.425444000000000     -3.581070000000000
H       2.480931000000000      1.908260000000000     -4.113169000000000
C      -0.176031000000000      1.544631000000000      0.568105000000000
C       0.245219000000000      2.572296000000000      1.422138000000000
C      -1.228537000000000      0.704185000000000      0.996183000000000
C      -0.290034000000000      2.738366000000000      2.694013000000000
C      -1.766234000000000      0.888429000000000      2.275617000000000
C      -1.294587000000000      1.881808000000000      3.127729000000000
H       0.081566000000000      3.528425000000000      3.338950000000000
H      -2.563318000000000      0.238686000000000      2.620850000000000
H      -1.721412000000000      1.987484000000000      4.119859000000000
P       1.984608000000000     -0.823709000000000      0.016947000000000
P      -1.815577000000000     -0.713055000000000     -0.037547000000000
C      -3.303343000000000     -1.316557000000000      0.869666000000000
C      -4.521224000000000     -0.629444000000000      0.857312000000000
C      -3.174588000000000     -2.505517000000000      1.589767000000000
C      -5.585836000000000     -1.150579000000000      1.575628000000000
H      -4.657994000000000      0.293404000000000      0.303730000000000
C      -4.270808000000000     -2.981686000000000      2.296476000000000
H      -2.239821000000000     -3.057355000000000      1.596175000000000
C      -5.491433000000000     -2.326059000000000      2.307934000000000
F      -6.753423000000000     -0.497887000000000      1.568867000000000
F      -4.151262000000000     -4.119589000000000      2.987999000000000
H      -6.338262000000000     -2.717277000000000      2.857912000000000
C      -2.603329000000000      0.136890000000000     -1.469793000000000
C      -2.859507000000000     -0.615932000000000     -2.617658000000000
C      -2.960692000000000      1.486947000000000     -1.425448000000000
C      -3.463974000000000      0.000605000000000     -3.703263000000000
H      -2.592703000000000     -1.665977000000000     -2.681967000000000
C      -3.549257000000000      2.059574000000000     -2.543583000000000
H      -2.779447000000000      2.100126000000000     -0.548475000000000
C      -3.814843000000000      1.342598000000000     -3.699529000000000
F      -3.710215000000000     -0.718237000000000     -4.802422000000000
F      -3.868843000000000      3.359040000000000     -2.508135000000000
H      -4.271768000000000      1.809509000000000     -4.563028000000000
C       2.358532000000000      0.042241000000000      1.600972000000000
C       3.186969000000000      1.172345000000000      1.598147000000000
C       1.745397000000000     -0.371855000000000      2.780118000000000
C       3.387299000000000      1.856388000000000      2.784902000000000
H       3.651770000000000      1.539030000000000      0.687590000000000
C       1.965684000000000      0.359985000000000      3.940667000000000
H       1.075171000000000     -1.224112000000000      2.798217000000000
C       2.785846000000000      1.475207000000000      3.977082000000000
F       4.172835000000000      2.940486000000000      2.785657000000000
F       1.352689000000000     -0.017746000000000      5.067069000000000
H       2.942441000000000      2.033060000000000      4.892036000000000
C       3.651415000000000     -1.404999000000000     -0.539332000000000
C       4.835128000000000     -1.170553000000000      0.163733000000000
C       3.682816000000000     -2.197930000000000     -1.693980000000000
C       6.020293000000000     -1.715878000000000     -0.313229000000000
H       4.864901000000000     -0.589614000000000      1.076929000000000
C       4.893972000000000     -2.702520000000000     -2.138016000000000
H       2.779558000000000     -2.439006000000000     -2.245435000000000
C       6.087213000000000     -2.480168000000000     -1.465812000000000
F       7.148207000000000     -1.490567000000000      0.369343000000000
F       4.916800000000000     -3.445663000000000     -3.249190000000000
H       7.022768000000000     -2.896014000000000     -1.818003000000000
H      -0.129278000000000     -1.933403000000000      1.263899000000000
H      -0.610641000000000      3.181199000000000     -1.427422000000000
H       1.037601000000000      3.231808000000000      1.079331000000000
Rh      0.023901000000000     -1.944972000000000     -0.324423000000000
C       0.108001000000000     -2.120062000000000     -2.267394000000000
O       0.134511000000000     -2.270920000000000     -3.401600000000000
