134

C       2.173032000000000      0.129615000000000     -2.343995000000000
C       1.528440000000000      0.187834000000000     -1.103322000000000
C       0.536302000000000      1.178255000000000     -0.898608000000000
C       0.248335000000000      2.067834000000000     -1.938563000000000
C       0.875754000000000      1.978660000000000     -3.175959000000000
C       1.847824000000000      1.007792000000000     -3.376695000000000
H       2.945340000000000     -0.614324000000000     -2.508058000000000
H       0.603442000000000      2.668011000000000     -3.969967000000000
H       2.362039000000000      0.930410000000000     -4.330429000000000
C      -0.191042000000000      1.435379000000000      0.393928000000000
C       0.256436000000000      2.538761000000000      1.129864000000000
C      -1.311378000000000      0.717798000000000      0.864497000000000
C      -0.334885000000000      2.908838000000000      2.332491000000000
C      -1.911706000000000      1.110854000000000      2.064608000000000
C      -1.423593000000000      2.185788000000000      2.804469000000000
H       0.060249000000000      3.751186000000000      2.893001000000000
H      -2.782133000000000      0.572371000000000      2.426465000000000
H      -1.903874000000000      2.456874000000000      3.740626000000000
P       1.849503000000000     -1.110941000000000      0.190904000000000
P      -1.952696000000000     -0.761871000000000     -0.060607000000000
C      -3.553238000000000     -1.117891000000000      0.775359000000000
C      -4.779466000000000     -0.687730000000000      0.274343000000000
C      -3.477057000000000     -1.881558000000000      1.938409000000000
C      -5.966639000000000     -1.003431000000000      0.959250000000000
H      -4.807302000000000     -0.144478000000000     -0.657208000000000
C      -4.649629000000000     -2.190384000000000      2.650797000000000
H      -2.507333000000000     -2.241222000000000      2.260750000000000
C      -5.882301000000000     -1.756272000000000      2.139407000000000
N      -7.202746000000000     -0.542827000000000      0.486678000000000
N      -4.590303000000000     -2.907566000000000      3.840914000000000
H      -6.783708000000000     -1.997205000000000      2.682182000000000
C      -2.405663000000000      0.079274000000000     -1.641860000000000
C      -1.973351000000000     -0.469784000000000     -2.836414000000000
C      -3.037292000000000      1.326418000000000     -1.606510000000000
C      -2.128383000000000      0.246267000000000     -4.038757000000000
H      -1.456488000000000     -1.419272000000000     -2.823741000000000
C      -3.231852000000000      2.044702000000000     -2.795808000000000
H      -3.319619000000000      1.747247000000000     -0.648918000000000
C      -2.748541000000000      1.502880000000000     -4.001644000000000
N      -1.640051000000000     -0.281824000000000     -5.223297000000000
N      -3.862158000000000      3.288435000000000     -2.775499000000000
H      -2.850425000000000      2.068244000000000     -4.915703000000000
C       2.248011000000000     -0.025980000000000      1.623386000000000
C       3.130564000000000      1.048940000000000      1.451026000000000
C       1.551062000000000     -0.194948000000000      2.805939000000000
C       3.323749000000000      1.957692000000000      2.494325000000000
H       3.614486000000000      1.186059000000000      0.490841000000000
C       1.709389000000000      0.728472000000000      3.860633000000000
H       0.853846000000000     -1.018357000000000      2.883049000000000
C       2.612303000000000      1.784561000000000      3.692054000000000
N       4.220725000000000      3.044064000000000      2.381951000000000
N       0.972092000000000      0.588236000000000      5.025721000000000
H       2.781177000000000      2.484308000000000      4.500016000000000
C       3.481746000000000     -1.834909000000000     -0.289453000000000
C       4.652390000000000     -1.555875000000000      0.404103000000000
C       3.477554000000000     -2.746910000000000     -1.345829000000000
C       5.853132000000000     -2.183654000000000      0.022303000000000
H       4.629610000000000     -0.888438000000000      1.252668000000000
C       4.670349000000000     -3.364239000000000     -1.768139000000000
H       2.535550000000000     -2.988119000000000     -1.812890000000000
C       5.846123000000000     -3.084328000000000     -1.051565000000000
N       7.029207000000000     -1.895250000000000      0.706756000000000
N       4.678950000000000     -4.226036000000000     -2.863497000000000
H       6.770276000000000     -3.568964000000000     -1.320792000000000
H      -0.379364000000000     -1.815392000000000      1.534541000000000
H      -0.515056000000000      2.822999000000000     -1.773009000000000
H       1.110421000000000      3.094072000000000      0.751898000000000
Rh     -0.175916000000000     -2.174597000000000     -0.006033000000000
C       0.006078000000000     -2.942094000000000     -1.765300000000000
O       0.122114000000000     -3.543942000000000     -2.740601000000000
C       8.176265000000001     -2.756981000000000      0.513273000000000
H       7.958701000000000     -3.812056000000000      0.740507000000000
H       8.538520000000000     -2.698583000000000     -0.518914000000000
H       8.986295999999999     -2.422325000000000      1.162621000000000
C       6.917911000000000     -1.204285000000000      1.976441000000000
H       6.478660000000000     -0.210495000000000      1.840655000000000
H       6.300241000000000     -1.749191000000000      2.706006000000000
H       7.916175000000000     -1.068432000000000      2.394583000000000
C       5.809499000000000     -5.121166000000000     -3.016626000000000
H       6.710319000000000     -4.588955000000000     -3.326512000000000
H       6.036496000000000     -5.694415000000000     -2.105488000000000
H       5.579061000000000     -5.819229000000000     -3.822321000000000
C       3.407308000000000     -4.757547000000000     -3.319321000000000
H       3.589007000000000     -5.403428000000000     -4.179250000000000
H       2.872184000000000     -5.333102000000000     -2.546602000000000
H       2.750280000000000     -3.950390000000000     -3.650293000000000
C       4.988098000000000      3.117391000000000      1.155511000000000
H       5.733642000000000      3.910521000000000      1.256737000000000
H       5.512518000000000      2.174227000000000      0.982838000000000
H       4.368457000000000      3.337576000000000      0.268329000000000
C       3.691595000000000      4.347118000000000      2.755336000000000
H       3.183535000000000      4.303978000000000      3.718359000000000
H       4.518677000000000      5.057558000000000      2.842617000000000
H       2.979226000000000      4.735404000000000      2.006440000000000
C      -0.093280000000000     -0.395780000000000      5.044944000000000
H       0.313962000000000     -1.406180000000000      4.934027000000000
H      -0.599844000000000     -0.347907000000000      6.010014000000000
H      -0.833201000000000     -0.234042000000000      4.245678000000000
C       0.863424000000000      1.731256000000000      5.904531000000000
H       0.182640000000000      1.491887000000000      6.722226000000000
H       1.834550000000000      1.982314000000000      6.345993000000000
H       0.485007000000000      2.625235000000000      5.382662000000000
C      -7.205129000000000      0.119671000000000     -0.802996000000000
H      -6.524577000000000      0.975004000000000     -0.790796000000000
H      -6.908974000000000     -0.541762000000000     -1.633418000000000
H      -8.211268000000000      0.496131000000000     -0.998820000000000
C      -8.369745000000000     -1.380277000000000      0.703650000000000
H      -9.245241000000000     -0.860729000000000      0.307487000000000
H      -8.288833000000000     -2.360515000000000      0.207774000000000
H      -8.556272000000000     -1.544766000000000      1.764430000000000
C      -5.809932000000000     -3.501043000000000      4.346114000000000
H      -6.295546000000000     -4.163532000000000      3.613017000000000
H      -5.578274000000000     -4.083111000000000      5.239081000000000
H      -6.529524000000000     -2.727925000000000      4.636553000000000
C      -3.341461000000000     -3.558281000000000      4.182765000000000
H      -3.459916000000000     -4.071202000000000      5.138389000000000
H      -3.017866000000000     -4.290139000000000      3.426620000000000
H      -2.542940000000000     -2.819221000000000      4.301244000000000
C      -0.738270000000000     -1.415093000000000     -5.128840000000000
H       0.139051000000000     -1.200332000000000     -4.499939000000000
H      -1.250721000000000     -2.287034000000000     -4.708704000000000
H      -0.398037000000000     -1.681261000000000     -6.130528000000000
C      -1.504521000000000      0.599301000000000     -6.362078000000000
H      -2.483426000000000      0.962618000000000     -6.693248000000000
H      -0.871040000000000      1.474883000000000     -6.146063000000000
H      -1.061227000000000      0.046730000000000     -7.191278000000000
C      -3.646370000000000      4.174878000000000     -3.901062000000000
H      -2.577420000000000      4.350907000000000     -4.104081000000000
H      -4.103258000000000      3.770314000000000     -4.809635000000000
H      -4.123976000000000      5.133814000000000     -3.694990000000000
C      -4.040486000000000      3.915078000000000     -1.480754000000000
H      -4.538525000000000      4.876084000000000     -1.617240000000000
H      -4.681827000000000      3.298299000000000     -0.843801000000000
H      -3.090262000000000      4.079785000000000     -0.946685000000000
