94

C      -2.448521000000000     -1.964417000000000      0.625642000000000
C      -1.621628000000000     -0.868361000000000      0.536806000000000
C      -0.426429000000000     -0.823908000000000      1.346305000000000
C      -0.147493000000000     -1.885556000000000      2.173298000000000
H      -3.362414000000000     -2.010997000000000      0.040087000000000
C       0.479806000000000      0.374297000000000      1.441959000000000
C       0.260837000000000      1.212726000000000      2.510843000000000
C       1.556835000000000      0.677746000000000      0.537495000000000
C       2.292121000000000      1.825813000000000      0.723823000000000
H       3.104947000000000      2.071432000000000      0.045258000000000
P      -1.886447000000000      0.403163000000000     -0.791391000000000
P       1.861308000000000     -0.406693000000000     -0.932472000000000
C       3.473512000000000      0.197116000000000     -1.589402000000000
C       4.714835000000000     -0.340791000000000     -1.236917000000000
C       3.425169000000000      1.240528000000000     -2.523754000000000
C       5.886517000000000      0.167922000000000     -1.789988000000000
H       4.777611000000000     -1.169522000000000     -0.540276000000000
C       4.593737000000000      1.762389000000000     -3.064607000000000
H       2.459356000000000      1.633628000000000     -2.830323000000000
C       5.823261000000000      1.223148000000000     -2.693847000000000
H       6.847557000000000     -0.259766000000000     -1.524297000000000
H       4.551996000000000      2.569662000000000     -3.788238000000000
C       7.091518000000000      1.814826000000000     -3.240399000000000
C       2.293708000000000     -1.969828000000000     -0.048312000000000
C       1.753997000000000     -3.184436000000000     -0.469449000000000
C       3.029864000000000     -1.928831000000000      1.144387000000000
C       1.896102000000000     -4.332686000000000      0.306263000000000
H       1.178348000000000     -3.231356000000000     -1.386882000000000
C       3.190403000000000     -3.072991000000000      1.914892000000000
H       3.436296000000000     -0.984150000000000      1.497300000000000
C       2.598336000000000     -4.266854000000000      1.503674000000000
H       1.429792000000000     -5.262881000000000      0.000225000000000
H       3.735492000000000     -3.032966000000000      2.852821000000000
C       2.733953000000000     -5.485963000000000      2.371001000000000
C      -1.928190000000000      1.956776000000000      0.197821000000000
C      -2.670202000000000      2.010752000000000      1.387083000000000
C      -1.159692000000000      3.057092000000000     -0.175992000000000
C      -2.646153000000000      3.148191000000000      2.181171000000000
H      -3.249969000000000      1.145419000000000      1.700945000000000
C      -1.121080000000000      4.198777000000000      0.625324000000000
H      -0.561538000000000      3.007762000000000     -1.080452000000000
C      -1.863851000000000      4.238745000000000      1.797442000000000
H      -3.211627000000000      3.186910000000000      3.107254000000000
H      -0.496670000000000      5.041971000000000      0.350238000000000
C      -1.862802000000000      5.467175000000000      2.662449000000000
C      -3.654229000000000      0.194001000000000     -1.293202000000000
C      -4.669879000000000      1.097742000000000     -0.966206000000000
C      -3.964709000000000     -0.888396000000000     -2.129883000000000
C      -5.967485000000000      0.907471000000000     -1.435198000000000
H      -4.457410000000000      1.966801000000000     -0.354467000000000
C      -5.260616000000000     -1.094078000000000     -2.582881000000000
H      -3.182529000000000     -1.576701000000000     -2.436372000000000
C      -6.262752000000000     -0.192367000000000     -2.231376000000000
H      -6.746904000000000      1.619694000000000     -1.185672000000000
H      -5.489684000000000     -1.937126000000000     -3.226237000000000
C      -7.674319000000000     -0.436907000000000     -2.682908000000000
H       0.371193000000000      1.324290000000000     -1.874512000000000
C      -0.624841000000000     -1.991089000000000     -2.566725000000000
O      -0.947643000000000     -3.015172000000000     -2.969118000000000
Rh     -0.086095000000000     -0.188424000000000     -2.066665000000000
H      -0.537287000000000      0.973881000000000      3.209959000000000
H       0.739748000000000     -1.844348000000000      2.800158000000000
C      -2.134070000000000     -3.086612000000000      1.438137000000000
C      -2.948570000000000     -4.248203000000000      1.470811000000000
C      -0.949264000000000     -3.054326000000000      2.215285000000000
C      -2.579646000000000     -5.334102000000000      2.224268000000000
H      -3.860003000000000     -4.266966000000000      0.879209000000000
C      -0.590303000000000     -4.188596000000000      2.987131000000000
C      -1.384233000000000     -5.307571000000000      2.984087000000000
H      -3.201049000000000     -6.223834000000000      2.235835000000000
H       0.332449000000000     -4.163701000000000      3.561266000000000
H      -1.094068000000000     -6.180032000000000      3.560596000000000
C       2.695562000000000      3.974610000000000      1.906599000000000
C       2.361514000000000      4.849275000000000      2.908836000000000
C       1.336905000000000      4.524607000000000      3.833235000000000
C       0.671738000000000      3.329659000000000      3.736765000000000
C       0.982591000000000      2.417073000000000      2.696029000000000
C       2.006084000000000      2.740680000000000      1.769886000000000
H       3.480801000000000      4.217865000000000      1.195736000000000
H       2.880004000000000      5.798524000000000      2.997864000000000
H       1.070441000000000      5.233384000000000      4.610563000000000
H      -0.126096000000000      3.081756000000000      4.431538000000000
F      -8.367279999999999      0.704819000000000     -2.789966000000000
F      -8.335998000000000     -1.218816000000000     -1.815815000000000
F      -7.713009000000000     -1.052474000000000     -3.872651000000000
F      -0.822216000000000      6.268311000000000      2.405782000000000
F      -1.821013000000000      5.151030000000000      3.968678000000000
F      -2.977768000000000      6.191553000000000      2.480890000000000
F       7.540309000000000      2.811516000000000     -2.461485000000000
F       6.912258000000000      2.325916000000000     -4.465902000000000
F       8.071828999999999      0.904527000000000     -3.315996000000000
F       2.673737000000000     -5.161717000000000      3.675880000000000
F       3.906002000000000     -6.106740000000000      2.181398000000000
F       1.764934000000000     -6.378909000000000      2.135355000000000
