98

C      -2.548622000000000     -1.706220000000000      0.654688000000000
C      -1.661931000000000     -0.665766000000000      0.499355000000000
C      -0.464419000000000     -0.639040000000000      1.306049000000000
C      -0.242943000000000     -1.662765000000000      2.196230000000000
H      -3.463069000000000     -1.736050000000000      0.068522000000000
C       0.521057000000000      0.499944000000000      1.327776000000000
C       0.372175000000000      1.413717000000000      2.345596000000000
C       1.619162000000000      0.659667000000000      0.411141000000000
C       2.452875000000000      1.746199000000000      0.540059000000000
H       3.282917000000000      1.881208000000000     -0.148780000000000
P      -1.870963000000000      0.538898000000000     -0.901336000000000
P       1.835695000000000     -0.526393000000000     -0.995896000000000
C       3.471028000000000     -0.062689000000000     -1.695563000000000
C       4.694478000000000     -0.580845000000000     -1.253072000000000
C       3.478221000000000      0.862153000000000     -2.745763000000000
C       5.888848000000000     -0.167226000000000     -1.828068000000000
H       4.718725000000000     -1.327405000000000     -0.466112000000000
C       4.676996000000000      1.283169000000000     -3.308929000000000
H       2.532331000000000      1.245835000000000     -3.120128000000000
C       5.903906000000000      0.785281000000000     -2.855179000000000
H       6.820969000000000     -0.604131000000000     -1.482900000000000
H       4.664412000000000      2.006413000000000     -4.120307000000000
C       7.149557000000000      1.267009000000000     -3.477340000000000
C       2.165093000000000     -2.062657000000000     -0.033941000000000
C       1.582890000000000     -3.270966000000000     -0.413416000000000
C       2.891183000000000     -2.018659000000000      1.166238000000000
C       1.684717000000000     -4.393950000000000      0.402349000000000
H       1.016384000000000     -3.332086000000000     -1.336233000000000
C       3.004143000000000     -3.141986000000000      1.972065000000000
H       3.343249000000000     -1.083295000000000      1.488321000000000
C       2.373796000000000     -4.343909000000000      1.617418000000000
H       1.194425000000000     -5.317683000000000      0.106730000000000
H       3.578422000000000     -3.081925000000000      2.891968000000000
C       2.392495000000000     -5.537268000000000      2.481380000000000
C      -1.809993000000000      2.138009000000000      0.000355000000000
C      -2.530301000000000      2.302585000000000      1.193526000000000
C      -0.967442000000000      3.164821000000000     -0.420172000000000
C      -2.411876000000000      3.464621000000000      1.939697000000000
H      -3.163459000000000      1.494305000000000      1.554293000000000
C      -0.840845000000000      4.326633000000000      0.337983000000000
H      -0.379769000000000      3.036468000000000     -1.324078000000000
C      -1.560732000000000      4.499657000000000      1.522765000000000
H      -2.956923000000000      3.555390000000000      2.874831000000000
H      -0.156069000000000      5.106521000000000      0.014713000000000
C      -1.372458000000000      5.734452000000000      2.304393000000000
C      -3.647590000000000      0.392185000000000     -1.378505000000000
C      -4.625108000000000      1.345001000000000     -1.065599000000000
C      -4.022685000000000     -0.696875000000000     -2.175978000000000
C      -5.934779000000000      1.193893000000000     -1.504860000000000
H      -4.364435000000000      2.226479000000000     -0.490636000000000
C      -5.336510000000000     -0.855234000000000     -2.596363000000000
H      -3.278156000000000     -1.429626000000000     -2.474722000000000
C      -6.321307000000000      0.081719000000000     -2.260853000000000
H      -6.662006000000000      1.964233000000000     -1.266732000000000
H      -5.604520000000000     -1.715451000000000     -3.204336000000000
C      -7.703580000000000     -0.128410000000000     -2.724680000000000
H       0.448231000000000      1.246512000000000     -2.017683000000000
C      -0.750006000000000     -2.030321000000000     -2.532803000000000
O      -1.130272000000000     -3.053680000000000     -2.887649000000000
Rh     -0.105540000000000     -0.243660000000000     -2.129257000000000
H      -0.444422000000000      1.284639000000000      3.051914000000000
H       0.650600000000000     -1.637778000000000      2.814697000000000
C      -2.299151000000000     -2.789325000000000      1.538976000000000
C      -3.183424000000000     -3.893675000000000      1.651700000000000
C      -1.112590000000000     -2.776184000000000      2.313933000000000
C      -2.884259000000000     -4.942119000000000      2.484878000000000
H      -4.094420000000000     -3.897748000000000      1.059021000000000
C      -0.825388000000000     -3.871638000000000      3.167545000000000
C      -1.689824000000000     -4.934135000000000      3.246904000000000
H      -3.561619000000000     -5.787027000000000      2.560079000000000
H       0.098388000000000     -3.862863000000000      3.740580000000000
H      -1.459471000000000     -5.774951000000000      3.893738000000000
C       3.071270000000000      3.890668000000000      1.632580000000000
C       2.837427000000000      4.831753000000000      2.602957000000000
C       1.783432000000000      4.653916000000000      3.533999000000000
C       0.987875000000000      3.538321000000000      3.473622000000000
C       1.202319000000000      2.554915000000000      2.473759000000000
C       2.255799000000000      2.732031000000000      1.541243000000000
H       3.877547000000000      4.020339000000000      0.915385000000000
H       3.460494000000000      5.718723000000000      2.662443000000000
H       1.602056000000000      5.410037000000000      4.291582000000000
H       0.164821000000000      3.406038000000000      4.171445000000000
C      -8.787265000000000      0.518004000000000     -2.292861000000000
H      -7.822705000000000     -0.903430000000000     -3.480425000000000
H      -8.740831000000000      1.281588000000000     -1.522057000000000
H      -9.768727999999999      0.292905000000000     -2.695298000000000
C      -2.140556000000000      6.157940000000000      3.309488000000000
H      -0.517725000000000      6.338822000000000      2.004293000000000
H      -3.019027000000000      5.612361000000000      3.641467000000000
H      -1.919402000000000      7.083807000000000      3.829090000000000
C       8.386277000000000      1.085540000000000     -3.012337000000000
H       7.014313000000000      1.837166000000000     -4.395253000000000
H       8.589192000000001      0.549770000000000     -2.089815000000000
H       9.245208999999999      1.481547000000000     -3.542728000000000
C       2.752048000000000     -5.574583000000000      3.765891000000000
H       2.050513000000000     -6.455290000000000      2.006021000000000
H       3.075050000000000     -4.689030000000000      4.305926000000000
H       2.728100000000000     -6.502909000000000      4.325885000000000
