90

C      -2.363883000000000     -1.799940000000000      0.485052000000000
C      -1.585799000000000     -0.661664000000000      0.459817000000000
C      -0.480228000000000     -0.555022000000000      1.375952000000000
C      -0.307878000000000     -1.535155000000000      2.326436000000000
H      -3.175273000000000     -1.922338000000000     -0.229001000000000
C       0.511540000000000      0.572133000000000      1.379401000000000
C       0.392515000000000      1.512742000000000      2.376241000000000
C       1.603112000000000      0.680388000000000      0.444699000000000
C       2.455587000000000      1.757004000000000      0.536246000000000
H       3.281677000000000      1.861973000000000     -0.162235000000000
P      -1.812611000000000      0.561053000000000     -0.914524000000000
P       1.788677000000000     -0.528633000000000     -0.955002000000000
C       3.482059000000000     -0.169704000000000     -1.589827000000000
C       4.652335000000000     -0.748868000000000     -1.079561000000000
C       3.572043000000000      0.731763000000000     -2.658037000000000
C       5.889372000000000     -0.418164000000000     -1.616190000000000
H       4.598611000000000     -1.467910000000000     -0.269235000000000
C       4.812659000000000      1.072742000000000     -3.185745000000000
H       2.660330000000000      1.156487000000000     -3.070639000000000
C       5.972356000000000      0.498986000000000     -2.666078000000000
H       6.805992000000000     -0.858571000000000     -1.236018000000000
H       4.881142000000000      1.777051000000000     -4.011679000000000
C       7.296188000000000      0.855659000000000     -3.234684000000000
C       1.985403000000000     -2.096114000000000      0.000403000000000
C       1.335862000000000     -3.249303000000000     -0.440368000000000
C       2.655409000000000     -2.114909000000000      1.235196000000000
C       1.313059000000000     -4.392300000000000      0.355209000000000
H       0.813868000000000     -3.243760000000000     -1.390708000000000
C       2.639142000000000     -3.253387000000000      2.026683000000000
H       3.143986000000000     -1.212884000000000      1.596678000000000
C       1.945807000000000     -4.388291000000000      1.594627000000000
H       0.768756000000000     -5.275234000000000      0.028217000000000
H       3.124024000000000     -3.275875000000000      2.998305000000000
C       1.816502000000000     -5.564754000000000      2.489820000000000
C      -1.751298000000000      2.180120000000000     -0.024046000000000
C      -2.494878000000000      2.389064000000000      1.147993000000000
C      -0.887439000000000      3.178976000000000     -0.472814000000000
C      -2.345445000000000      3.558371000000000      1.876412000000000
H      -3.158086000000000      1.613565000000000      1.518653000000000
C      -0.736896000000000      4.356260000000000      0.257770000000000
H      -0.303508000000000      3.014326000000000     -1.372264000000000
C      -1.451770000000000      4.540343000000000      1.436926000000000
H      -2.889492000000000      3.723995000000000      2.801601000000000
H      -0.033889000000000      5.117853000000000     -0.072426000000000
C      -1.210914000000000      5.748187000000000      2.264383000000000
C      -3.605406000000000      0.437440000000000     -1.343569000000000
C      -4.639687000000000      0.248233000000000     -0.411724000000000
C      -3.925335000000000      0.583307000000000     -2.696209000000000
C      -5.961836000000000      0.217925000000000     -0.826274000000000
H      -4.406620000000000      0.094892000000000      0.637383000000000
C      -5.254219000000000      0.561640000000000     -3.113171000000000
H      -3.123592000000000      0.709407000000000     -3.419707000000000
C      -6.271450000000000      0.379517000000000     -2.180486000000000
H      -6.773623000000000      0.067779000000000     -0.121216000000000
H      -5.499812000000000      0.677936000000000     -4.166164000000000
C      -7.688190000000000      0.345048000000000     -2.623217000000000
H       0.514939000000000      1.289523000000000     -2.029817000000000
C      -0.860958000000000     -1.906425000000000     -2.656583000000000
O      -1.348080000000000     -2.874890000000000     -3.025598000000000
Rh     -0.087168000000000     -0.169073000000000     -2.190593000000000
H      -0.418314000000000      1.416536000000000      3.094397000000000
H       0.507160000000000     -1.436659000000000      3.038920000000000
C      -2.128780000000000     -2.858174000000000      1.399916000000000
C      -2.883843000000000     -4.061356000000000      1.377787000000000
C      -1.097173000000000     -2.710194000000000      2.361946000000000
C      -2.612412000000000     -5.068202000000000      2.268616000000000
H      -3.673106000000000     -4.171525000000000      0.638901000000000
C      -0.846581000000000     -3.760652000000000      3.283095000000000
C      -1.582845000000000     -4.917011000000000      3.232527000000000
H      -3.188281000000000     -5.987756000000000      2.241253000000000
H      -0.044039000000000     -3.646397000000000      4.007971000000000
H      -1.376549000000000     -5.722215000000000      3.930900000000000
C       3.107745000000000      3.932314000000000      1.544423000000000
C       2.889567000000000      4.913235000000000      2.477993000000000
C       1.846573000000000      4.778938000000000      3.429722000000000
C       1.046500000000000      3.664569000000000      3.426724000000000
C       1.241627000000000      2.643079000000000      2.460904000000000
C       2.282906000000000      2.776610000000000      1.507870000000000
H       3.906884000000000      4.028579000000000      0.814179000000000
H       3.517474000000000      5.798419000000000      2.494270000000000
H       1.677803000000000      5.565547000000000      4.158524000000000
H       0.232373000000000      3.566550000000000      4.140677000000000
O      -8.623246000000000      0.181114000000000     -1.876814000000000
H      -7.843721000000000      0.482710000000000     -3.713384000000000
O      -1.722289000000000      5.941525000000000      3.342467000000000
H      -0.497897000000000      6.478979000000000      1.829554000000000
O       8.344443999999999      0.405231000000000     -2.838653000000000
H       7.267303000000000      1.584817000000000     -4.071108000000000
O       2.234270000000000     -5.598280000000000      3.623587000000000
H       1.279895000000000     -6.431424000000000      2.051661000000000
