82

C       2.319492000000000     -1.910004000000000     -0.568336000000000
C       1.578927000000000     -0.747528000000000     -0.551058000000000
C       0.443316000000000     -0.632548000000000     -1.429197000000000
C       0.189265000000000     -1.645840000000000     -2.324029000000000
H       3.151833000000000     -2.036878000000000      0.120006000000000
C      -0.495221000000000      0.540419000000000     -1.447816000000000
C      -0.331152000000000      1.465318000000000     -2.452190000000000
C      -1.582181000000000      0.706379000000000     -0.516688000000000
C      -2.398117000000000      1.808214000000000     -0.631375000000000
H      -3.221460000000000      1.953539000000000      0.063199000000000
P       1.868594000000000      0.495488000000000      0.791164000000000
P      -1.796847000000000     -0.462924000000000      0.909584000000000
C      -3.445723000000000     -0.001177000000000      1.585926000000000
C      -4.661730000000000     -0.517177000000000      1.127699000000000
C      -3.461622000000000      0.926115000000000      2.635393000000000
C      -5.867502000000000     -0.106787000000000      1.688703000000000
H      -4.681465000000000     -1.256802000000000      0.334443000000000
C      -4.659634000000000      1.356365000000000      3.194966000000000
H      -2.518718000000000      1.310562000000000      3.016613000000000
C      -5.855290000000000      0.833807000000000      2.712659000000000
H      -6.810139000000000     -0.511637000000000      1.337294000000000
H      -4.670046000000000      2.077993000000000      4.004318000000000
Cl     -7.362010000000000      1.356662000000000      3.411849000000000
C      -2.112043000000000     -2.029100000000000     -0.009022000000000
C      -1.527988000000000     -3.220896000000000      0.421514000000000
C      -2.836159000000000     -2.030167000000000     -1.208318000000000
C      -1.640193000000000     -4.388989000000000     -0.328874000000000
H      -0.952699000000000     -3.238157000000000      1.341138000000000
C      -2.970533000000000     -3.190182000000000     -1.962464000000000
H      -3.269509000000000     -1.104330000000000     -1.580005000000000
C      -2.358180000000000     -4.359127000000000     -1.517606000000000
H      -1.159405000000000     -5.306256000000000     -0.007425000000000
H      -3.524286000000000     -3.189372000000000     -2.895276000000000
Cl     -2.474856000000000     -5.802121000000000     -2.485596000000000
C       1.868261000000000      2.096230000000000     -0.127329000000000
C       2.638478000000000      2.269434000000000     -1.283044000000000
C       1.041956000000000      3.139983000000000      0.290293000000000
C       2.584901000000000      3.452707000000000     -2.008613000000000
H       3.268510000000000      1.464426000000000     -1.648546000000000
C       0.971102000000000      4.331087000000000     -0.429609000000000
H       0.424598000000000      3.009667000000000      1.173488000000000
C       1.746192000000000      4.475511000000000     -1.572367000000000
H       3.178096000000000      3.584497000000000     -2.907130000000000
H       0.310248000000000      5.132261000000000     -0.117114000000000
Cl      1.660958000000000      5.953681000000000     -2.489624000000000
C       3.650235000000000      0.296716000000000      1.222876000000000
C       4.680043000000000      0.064696000000000      0.301526000000000
C       3.980772000000000      0.425844000000000      2.574631000000000
C       6.003136000000000     -0.024385000000000      0.715507000000000
H       4.452418000000000     -0.081687000000000     -0.749921000000000
C       5.302925000000000      0.347737000000000      3.005288000000000
H       3.187314000000000      0.586667000000000      3.300678000000000
C       6.302810000000000      0.124296000000000      2.067607000000000
H       6.799012000000000     -0.210972000000000      0.002965000000000
H       5.555255000000000      0.450508000000000      4.054802000000000
Cl      7.959887000000000      0.012099000000000      2.589357000000000
H      -0.423441000000000      1.324478000000000      1.920187000000000
C       0.827448000000000     -1.922167000000000      2.550712000000000
O       1.272165000000000     -2.914216000000000      2.911259000000000
Rh      0.124127000000000     -0.157289000000000      2.088852000000000
H       0.480616000000000      1.330152000000000     -3.163277000000000
H      -0.654146000000000     -1.546617000000000     -3.002820000000000
C       2.010789000000000     -2.992663000000000     -1.431314000000000
C       2.731838000000000     -4.215391000000000     -1.398979000000000
C       0.933448000000000     -2.851157000000000     -2.343011000000000
C       2.383427000000000     -5.249214000000000     -2.230330000000000
H       3.555171000000000     -4.319886000000000     -0.697359000000000
C       0.600458000000000     -3.932268000000000     -3.199103000000000
C       1.305174000000000     -5.107358000000000     -3.139386000000000
H       2.931931000000000     -6.185026000000000     -2.193368000000000
H      -0.236474000000000     -3.821006000000000     -3.884158000000000
H       1.033695000000000     -5.936972000000000     -3.784196000000000
C      -2.990712000000000      3.971820000000000     -1.696742000000000
C      -2.742901000000000      4.924194000000000     -2.652216000000000
C      -1.690053000000000      4.747477000000000     -3.584117000000000
C      -0.910084000000000      3.620273000000000     -3.542263000000000
C      -1.139983000000000      2.623640000000000     -2.559189000000000
C      -2.190329000000000      2.801835000000000     -1.622778000000000
H      -3.795403000000000      4.101903000000000     -0.977916000000000
H      -3.352071000000000      5.821303000000000     -2.697580000000000
H      -1.496902000000000      5.514665000000000     -4.326921000000000
H      -0.091809000000000      3.484997000000000     -4.245164000000000
