86

C      -2.378879000000000     -1.770723000000000      0.506191000000000
C      -1.589342000000000     -0.640092000000000      0.505223000000000
C      -0.480034000000000     -0.565288000000000      1.419788000000000
C      -0.320881000000000     -1.564594000000000      2.352883000000000
H      -3.187827000000000     -1.873017000000000     -0.213989000000000
C       0.535235000000000      0.540560000000000      1.430018000000000
C       0.446555000000000      1.473654000000000      2.437001000000000
C       1.623803000000000      0.631457000000000      0.489360000000000
C       2.509450000000000      1.679464000000000      0.592255000000000
H       3.336725000000000      1.769328000000000     -0.106710000000000
P      -1.802387000000000      0.610235000000000     -0.844584000000000
P       1.757493000000000     -0.563124000000000     -0.927695000000000
C       3.452294000000000     -0.254580000000000     -1.586919000000000
C       3.573775000000000      0.750693000000000     -2.557398000000000
C       4.589463000000000     -0.978687000000000     -1.215315000000000
C       4.807060000000000      1.056394000000000     -3.115028000000000
H       2.685400000000000      1.289352000000000     -2.877343000000000
C       5.826830000000000     -0.692369000000000     -1.781658000000000
H       4.519096000000000     -1.781206000000000     -0.489656000000000
C       5.939253000000000      0.332181000000000     -2.724831000000000
H       4.899322000000000      1.839956000000000     -3.859320000000000
H       6.707159000000000     -1.257818000000000     -1.495626000000000
C       7.221100000000000      0.637106000000000     -3.304005000000000
C       1.930291000000000     -2.139470000000000      0.019064000000000
C       1.192095000000000     -3.261756000000000     -0.358385000000000
C       2.689513000000000     -2.186207000000000      1.196801000000000
C       1.178739000000000     -4.404927000000000      0.434388000000000
H       0.591239000000000     -3.233723000000000     -1.260522000000000
C       2.700056000000000     -3.326647000000000      1.987646000000000
H       3.244661000000000     -1.307918000000000      1.517660000000000
C       1.928078000000000     -4.433023000000000      1.612072000000000
H       0.568208000000000     -5.259694000000000      0.163382000000000
H       3.276154000000000     -3.359391000000000      2.906523000000000
C       1.857228000000000     -5.580698000000000      2.477997000000000
C      -1.708775000000000      2.213488000000000      0.075131000000000
C      -2.482592000000000      2.429569000000000      1.222040000000000
C      -0.804553000000000      3.196457000000000     -0.329691000000000
C      -2.339123000000000      3.591785000000000      1.965379000000000
H      -3.180650000000000      1.672037000000000      1.563575000000000
C      -0.645672000000000      4.364026000000000      0.410840000000000
H      -0.195031000000000      3.029431000000000     -1.211617000000000
C      -1.408883000000000      4.558064000000000      1.563361000000000
H      -2.927476000000000      3.752099000000000      2.862737000000000
H       0.083089000000000      5.111476000000000      0.115418000000000
C      -1.208703000000000      5.732699000000000      2.370878000000000
C      -3.602706000000000      0.539840000000000     -1.257142000000000
C      -4.631616000000000      0.313866000000000     -0.332428000000000
C      -3.934542000000000      0.771144000000000     -2.595765000000000
C      -5.960068000000000      0.331622000000000     -0.733231000000000
H      -4.397928000000000      0.092734000000000      0.704320000000000
C      -5.262156000000000      0.800313000000000     -3.008386000000000
H      -3.138578000000000      0.924674000000000     -3.320219000000000
C      -6.276699000000000      0.580891000000000     -2.073917000000000
H      -6.755917000000000      0.151404000000000     -0.018616000000000
H      -5.515960000000000      0.982956000000000     -4.046846000000000
C      -7.654460000000000      0.598703000000000     -2.490904000000000
H       0.525130000000000      1.306964000000000     -1.961586000000000
C      -0.928313000000000     -1.843908000000000     -2.651594000000000
O      -1.438032000000000     -2.793949000000000     -3.035184000000000
Rh     -0.110500000000000     -0.132964000000000     -2.149741000000000
H      -0.363175000000000      1.390584000000000      3.158425000000000
H       0.500310000000000     -1.492376000000000      3.062116000000000
C      -2.157720000000000     -2.848528000000000      1.401156000000000
C      -2.920809000000000     -4.045347000000000      1.348748000000000
C      -1.128603000000000     -2.728049000000000      2.370216000000000
C      -2.656729000000000     -5.075140000000000      2.215434000000000
H      -3.707105000000000     -4.134156000000000      0.603812000000000
C      -0.891838000000000     -3.800261000000000      3.269102000000000
C      -1.630581000000000     -4.952810000000000      3.186516000000000
H      -3.233683000000000     -5.992661000000000      2.161263000000000
H      -0.095463000000000     -3.705759000000000      4.003327000000000
H      -1.421217000000000     -5.779982000000000      3.856890000000000
C       3.232563000000000      3.819320000000000      1.624990000000000
C       3.042420000000000      4.798713000000000      2.566302000000000
C       1.995410000000000      4.688687000000000      3.515753000000000
C       1.165294000000000      3.596987000000000      3.505896000000000
C       1.327789000000000      2.578970000000000      2.530917000000000
C       2.371830000000000      2.691158000000000      1.577688000000000
H       4.033679000000000      3.898672000000000      0.894914000000000
H       3.692777000000000      5.667145000000000      2.587476000000000
H       1.843142000000000      5.480041000000000      4.242140000000000
H       0.353763000000000      3.512391000000000      4.224435000000000
N      -8.762147000000001      0.612382000000000     -2.824004000000000
N      -1.037654000000000      6.663759000000000      3.036355000000000
N       8.251795000000000      0.885322000000000     -3.767009000000000
N       1.779329000000000     -6.489103000000000      3.190520000000000
