114

C       2.642167000000000     -1.542309000000000     -0.642337000000000
C       1.696815000000000     -0.545831000000000     -0.543660000000000
C       0.525829000000000     -0.607118000000000     -1.384514000000000
C       0.404741000000000     -1.641655000000000     -2.281508000000000
H       3.526626000000000     -1.512335000000000     -0.009817000000000
C      -0.549877000000000      0.445134000000000     -1.423195000000000
C      -0.482981000000000      1.343236000000000     -2.462757000000000
C      -1.652677000000000      0.531241000000000     -0.501459000000000
C      -2.569161000000000      1.547335000000000     -0.647032000000000
H      -3.403792000000000      1.627102000000000      0.044888000000000
P       1.827943000000000      0.711391000000000      0.818785000000000
P      -1.784545000000000     -0.644904000000000      0.930895000000000
C      -3.456540000000000     -0.312281000000000      1.595006000000000
C      -4.630309000000000     -0.906135000000000      1.121715000000000
C      -3.573708000000000      0.602565000000000      2.647820000000000
C      -5.870691000000000     -0.588036000000000      1.656547000000000
H      -4.582358000000000     -1.648087000000000      0.330462000000000
C      -4.806643000000000      0.941792000000000      3.184917000000000
H      -2.671183000000000      1.053589000000000      3.054491000000000
C      -5.993136000000000      0.361488000000000      2.691504000000000
H      -6.747710000000000     -1.088808000000000      1.265041000000000
H      -4.839851000000000      1.650610000000000      4.003175000000000
N      -7.229997000000000      0.708058000000000      3.205425000000000
C      -1.932266000000000     -2.222794000000000      0.011308000000000
C      -1.216342000000000     -3.349388000000000      0.422133000000000
C      -2.615824000000000     -2.305522000000000     -1.208030000000000
C      -1.146234000000000     -4.495792000000000     -0.353863000000000
H      -0.670250000000000     -3.324368000000000      1.359000000000000
C      -2.567757000000000     -3.446184000000000     -1.996666000000000
H      -3.163261000000000     -1.440863000000000     -1.578121000000000
C      -1.803483000000000     -4.564430000000000     -1.598911000000000
H      -0.550503000000000     -5.328337000000000     -0.000648000000000
H      -3.099528000000000     -3.451547000000000     -2.940952000000000
N      -1.691547000000000     -5.677754000000000     -2.401899000000000
C       1.651385000000000      2.278673000000000     -0.106943000000000
C       2.241101000000000      2.478553000000000     -1.361065000000000
C       0.806725000000000      3.282236000000000      0.372752000000000
C       2.012742000000000      3.628500000000000     -2.101573000000000
H       2.847711000000000      1.691341000000000     -1.804316000000000
C       0.556063000000000      4.434879000000000     -0.356839000000000
H       0.305281000000000      3.139259000000000      1.325401000000000
C       1.153518000000000      4.638259000000000     -1.616669000000000
H       2.474849000000000      3.722335000000000     -3.077434000000000
H      -0.127634000000000      5.169626000000000      0.050114000000000
N       0.892243000000000      5.774106000000000     -2.351893000000000
C       3.592867000000000      0.639021000000000      1.313680000000000
C       4.660126000000000      1.119433000000000      0.544931000000000
C       3.906301000000000      0.054277000000000      2.544373000000000
C       5.974298000000000      1.002509000000000      0.968966000000000
H       4.470732000000000      1.613193000000000     -0.402266000000000
C       5.215994000000000     -0.076634000000000      2.985049000000000
H       3.099042000000000     -0.297490000000000      3.181921000000000
C       6.289180000000000      0.383472000000000      2.197782000000000
H       6.759888000000000      1.401949000000000      0.339208000000000
H       5.395896000000000     -0.530253000000000      3.951842000000000
N       7.599491000000000      0.238238000000000      2.611668000000000
H      -0.556038000000000      1.277438000000000      1.912284000000000
C       0.947776000000000     -1.852490000000000      2.522155000000000
O       1.448871000000000     -2.812659000000000      2.905163000000000
Rh      0.124302000000000     -0.156958000000000      2.070530000000000
H       0.335575000000000      1.264446000000000     -3.173890000000000
H      -0.468514000000000     -1.679168000000000     -2.927262000000000
C       2.491705000000000     -2.644717000000000     -1.524791000000000
C       3.438652000000000     -3.700344000000000     -1.589911000000000
C       1.347833000000000     -2.696155000000000     -2.361124000000000
C       3.249565000000000     -4.756932000000000     -2.444945000000000
H       4.312758000000000     -3.658035000000000     -0.945416000000000
C       1.174038000000000     -3.798946000000000     -3.236073000000000
C       2.104868000000000     -4.806758000000000     -3.279489000000000
H       3.977712000000000     -5.561052000000000     -2.486040000000000
H       0.286697000000000     -3.830165000000000     -3.864531000000000
H       1.966985000000000     -5.648558000000000     -3.952004000000000
C      -3.365788000000000      3.610103000000000     -1.785655000000000
C      -3.224271000000000      4.536336000000000     -2.788555000000000
C      -2.168296000000000      4.418694000000000     -3.728475000000000
C      -1.279995000000000      3.377437000000000     -3.639051000000000
C      -1.400489000000000      2.411973000000000     -2.606444000000000
C      -2.456941000000000      2.525472000000000     -1.668640000000000
H      -4.174514000000000      3.693166000000000     -1.064227000000000
H      -3.922952000000000      5.363700000000000     -2.868912000000000
H      -2.065970000000000      5.158506000000000     -4.517516000000000
H      -0.465779000000000      3.274307000000000     -4.352675000000000
C       7.859537000000000     -0.190878000000000      3.969659000000000
H       7.429597000000000      0.491714000000000      4.717590000000000
H       7.450077000000000     -1.191227000000000      4.145589000000000
H       8.937676000000000     -0.242051000000000      4.125986000000000
C       8.643621000000000      0.937783000000000      1.893390000000000
H       8.701067000000000      0.592263000000000      0.855645000000000
H       8.492573000000000      2.027417000000000      1.883956000000000
H       9.603327999999999      0.725498000000000      2.365950000000000
C      -0.157676000000000      6.669882000000000     -1.914170000000000
H      -0.281549000000000      7.460792000000000     -2.655203000000000
H      -1.117659000000000      6.147838000000000     -1.798737000000000
H       0.098863000000000      7.141532000000000     -0.957734000000000
C       1.417148000000000      5.891823000000000     -3.692341000000000
H       1.131825000000000      6.861000000000000     -4.103230000000000
H       2.512101000000000      5.838611000000000     -3.691255000000000
H       1.038257000000000      5.106659000000000     -4.363599000000000
C      -8.382702000000000     -0.091270000000000      2.847662000000000
H      -8.268511999999999     -1.148712000000000      3.129464000000000
H      -9.262940000000000      0.308901000000000      3.352281000000000
H      -8.568452000000001     -0.043865000000000      1.769450000000000
C      -7.284703000000000      1.488423000000000      4.423710000000000
H      -8.328633999999999      1.655522000000000      4.691831000000000
H      -6.781831000000000      0.992233000000000      5.267140000000000
H      -6.818769000000000      2.468596000000000      4.277829000000000
C      -2.296784000000000     -5.675620000000000     -3.713238000000000
H      -1.903623000000000     -4.870857000000000     -4.352636000000000
H      -2.095306000000000     -6.629246000000000     -4.201998000000000
H      -3.385082000000000     -5.552217000000000     -3.650748000000000
C      -0.787391000000000     -6.741896000000000     -2.019860000000000
H      -1.106792000000000     -7.219726000000000     -1.085305000000000
H      -0.783458000000000     -7.502680000000000     -2.801464000000000
H       0.238866000000000     -6.373423000000000     -1.887733000000000
