90

C      -2.681868000000000     -1.221839000000000      0.746971000000000
C      -1.677480000000000     -0.304242000000000      0.536952000000000
C      -0.513197000000000     -0.335487000000000      1.389811000000000
C      -0.462948000000000     -1.258074000000000      2.408878000000000
H      -3.570679000000000     -1.207267000000000      0.121811000000000
C       0.650211000000000      0.619202000000000      1.313571000000000
C       0.666623000000000      1.647884000000000      2.226574000000000
C       1.775352000000000      0.459758000000000      0.428046000000000
C       2.823113000000000      1.346701000000000      0.505976000000000
H       3.680241000000000      1.233611000000000     -0.153002000000000
P      -1.745709000000000      0.840361000000000     -0.931285000000000
P       1.746259000000000     -0.833881000000000     -0.900921000000000
C       3.438443000000000     -0.785480000000000     -1.597715000000000
C       4.503523000000000     -1.579178000000000     -1.159579000000000
C       3.673228000000000      0.103048000000000     -2.656318000000000
C       5.759499000000000     -1.479465000000000     -1.743489000000000
H       4.353446000000000     -2.301350000000000     -0.363499000000000
C       4.928226000000000      0.221031000000000     -3.233712000000000
H       2.848560000000000      0.706212000000000     -3.030156000000000
C       5.993592000000000     -0.572715000000000     -2.785196000000000
H       6.572481000000000     -2.109202000000000     -1.391180000000000
H       5.089100000000000      0.922060000000000     -4.048697000000000
N       7.265231000000000     -0.429953000000000     -3.332588000000000
C       1.691540000000000     -2.338282000000000      0.146507000000000
C       0.766111000000000     -3.353917000000000     -0.107623000000000
C       2.444617000000000     -2.419785000000000      1.325569000000000
C       0.575402000000000     -4.397558000000000      0.785988000000000
H       0.155872000000000     -3.313856000000000     -1.002914000000000
C       2.272372000000000     -3.466197000000000      2.220787000000000
H       3.146190000000000     -1.625541000000000      1.572303000000000
C       1.314028000000000     -4.459669000000000      1.973939000000000
H      -0.173582000000000     -5.158437000000000      0.583079000000000
H       2.857702000000000     -3.501513000000000      3.136559000000000
N       1.113416000000000     -5.504551000000000      2.872510000000000
C      -1.512133000000000      2.447611000000000     -0.086640000000000
C      -2.232504000000000      2.744753000000000      1.078695000000000
C      -0.526146000000000      3.346314000000000     -0.497632000000000
C      -1.984217000000000      3.900002000000000      1.803283000000000
H      -2.983750000000000      2.044717000000000      1.439368000000000
C      -0.260425000000000      4.501065000000000      0.227680000000000
H       0.066215000000000      3.116917000000000     -1.378650000000000
C      -0.983880000000000      4.793685000000000      1.390135000000000
H      -2.542252000000000      4.105440000000000      2.713571000000000
H       0.535917000000000      5.170287000000000     -0.088286000000000
N      -0.672434000000000      5.903897000000000      2.169125000000000
C      -3.521450000000000      0.861828000000000     -1.417799000000000
C      -4.397751000000000      1.920813000000000     -1.155242000000000
C      -4.017230000000000     -0.212269000000000     -2.171480000000000
C      -5.714020000000000      1.897302000000000     -1.599186000000000
H      -4.051178000000000      2.792488000000000     -0.611123000000000
C      -5.334434000000000     -0.255530000000000     -2.600612000000000
H      -3.357649000000000     -1.034830000000000     -2.433181000000000
C      -6.207920000000000      0.804666000000000     -2.320709000000000
H      -6.371198000000000      2.736039000000000     -1.383780000000000
H      -5.690995000000000     -1.108291000000000     -3.172457000000000
N      -7.541995000000000      0.750171000000000     -2.713542000000000
H       0.691934000000000      1.167136000000000     -1.939366000000000
C      -0.952454000000000     -1.861547000000000     -2.627043000000000
O      -1.438863000000000     -2.795154000000000     -3.089494000000000
Rh     -0.085426000000000     -0.214750000000000     -2.100533000000000
H      -0.175102000000000      1.763785000000000      2.904916000000000
H       0.406557000000000     -1.271150000000000      3.061245000000000
C      -2.600605000000000     -2.220240000000000      1.752892000000000
C      -3.606038000000000     -3.207901000000000      1.924314000000000
C      -1.470110000000000     -2.234576000000000      2.607106000000000
C      -3.483105000000000     -4.168973000000000      2.895828000000000
H      -4.471498000000000     -3.191907000000000      1.267035000000000
C      -1.371541000000000     -3.231208000000000      3.611860000000000
C      -2.352800000000000     -4.180877000000000      3.751338000000000
H      -4.254232000000000     -4.923392000000000      3.016445000000000
H      -0.498142000000000     -3.230914000000000      4.260084000000000
H      -2.273744000000000     -4.940081000000000      4.524300000000000
C       3.868360000000000      3.398022000000000      1.440082000000000
C       3.809332000000000      4.468217000000000      2.296793000000000
C       2.698190000000000      4.632978000000000      3.160389000000000
C       1.677062000000000      3.716927000000000      3.157180000000000
C       1.713543000000000      2.602217000000000      2.280785000000000
C       2.817207000000000      2.445047000000000      1.404516000000000
H       4.713984000000000      3.268054000000000      0.769689000000000
H       4.613963000000000      5.197023000000000      2.313361000000000
H       2.654969000000000      5.491369000000000      3.823558000000000
H       0.811955000000000      3.849666000000000      3.801135000000000
H      -7.993416000000000      1.650350000000000     -2.809848000000000
H      -7.726429000000000      0.152219000000000     -3.508443000000000
H      -1.445971000000000      6.290719000000000      2.693765000000000
H      -0.138732000000000      6.620402000000000      1.694991000000000
H       7.283097000000000     -0.058638000000000     -4.273438000000000
H       7.861594000000000     -1.241734000000000     -3.239333000000000
H       1.435308000000000     -5.313213000000000      3.813003000000000
H       0.164889000000000     -5.860736000000000      2.876798000000000
