86

C      -2.735393000000000     -1.154824000000000      0.736049000000000
C      -1.699894000000000     -0.269528000000000      0.538221000000000
C      -0.533525000000000     -0.360718000000000      1.385030000000000
C      -0.512497000000000     -1.304901000000000      2.385268000000000
H      -3.627125000000000     -1.096034000000000      0.117760000000000
C       0.660094000000000      0.556514000000000      1.322976000000000
C       0.728670000000000      1.541903000000000      2.281170000000000
C       1.756283000000000      0.410706000000000      0.399011000000000
C       2.811513000000000      1.290195000000000      0.465075000000000
H       3.644556000000000      1.192971000000000     -0.226305000000000
P      -1.728792000000000      0.893836000000000     -0.917227000000000
P       1.693665000000000     -0.872085000000000     -0.942042000000000
C       3.388125000000000     -0.849014000000000     -1.642717000000000
C       4.428276000000000     -1.681676000000000     -1.223766000000000
C       3.640270000000000      0.056957000000000     -2.685029000000000
C       5.687912000000000     -1.601540000000000     -1.810160000000000
H       4.261978000000000     -2.415994000000000     -0.442641000000000
C       4.895677000000000      0.157803000000000     -3.264182000000000
H       2.828730000000000      0.686365000000000     -3.043165000000000
C       5.926881000000000     -0.675758000000000     -2.824722000000000
H       6.485617000000000     -2.262696000000000     -1.479030000000000
H       5.095623000000000      0.858205000000000     -4.067845000000000
O       7.135788000000000     -0.546416000000000     -3.429704000000000
C       1.625815000000000     -2.377408000000000      0.108566000000000
C       0.667722000000000     -3.362290000000000     -0.132807000000000
C       2.391242000000000     -2.470883000000000      1.281111000000000
C       0.445218000000000     -4.388914000000000      0.777721000000000
H       0.053324000000000     -3.311182000000000     -1.024237000000000
C       2.191167000000000     -3.497989000000000      2.191937000000000
H       3.121626000000000     -1.697882000000000      1.510078000000000
C       1.189990000000000     -4.443071000000000      1.954177000000000
H      -0.338271000000000     -5.120864000000000      0.595622000000000
H       2.762540000000000     -3.560452000000000      3.112222000000000
O       0.968064000000000     -5.376735000000000      2.915447000000000
C      -1.392417000000000      2.479285000000000     -0.062028000000000
C      -2.080291000000000      2.809037000000000      1.115807000000000
C      -0.342736000000000      3.301602000000000     -0.471556000000000
C      -1.723392000000000      3.916712000000000      1.869409000000000
H      -2.882932000000000      2.164172000000000      1.468061000000000
C       0.034842000000000      4.407453000000000      0.283007000000000
H       0.215945000000000      3.045765000000000     -1.366586000000000
C      -0.642442000000000      4.704514000000000      1.464338000000000
H      -2.234556000000000      4.165134000000000      2.793705000000000
H       0.883970000000000      5.015005000000000     -0.022012000000000
O      -0.280876000000000      5.732349000000000      2.275118000000000
C      -3.507218000000000      1.018742000000000     -1.381614000000000
C      -4.306260000000000      2.133562000000000     -1.114136000000000
C      -4.073382000000000     -0.026610000000000     -2.129625000000000
C      -5.628100000000000      2.192246000000000     -1.547315000000000
H      -3.900100000000000      2.982419000000000     -0.575666000000000
C      -5.393720000000000      0.010071000000000     -2.548427000000000
H      -3.466465000000000     -0.887791000000000     -2.394548000000000
C      -6.179402000000000      1.127091000000000     -2.255522000000000
H      -6.229797000000000      3.073009000000000     -1.334367000000000
H      -5.828849000000000     -0.802344000000000     -3.120189000000000
O      -7.463443000000000      1.122336000000000     -2.697301000000000
H       0.697859000000000      1.134575000000000     -1.999273000000000
C      -1.085446000000000     -1.838978000000000     -2.592889000000000
O      -1.631175000000000     -2.759591000000000     -3.010609000000000
Rh     -0.132449000000000     -0.218137000000000     -2.122247000000000
H      -0.086518000000000      1.639800000000000      2.993774000000000
H       0.356570000000000     -1.360435000000000      3.035810000000000
C      -2.682266000000000     -2.180950000000000      1.716241000000000
C      -3.715238000000000     -3.144301000000000      1.862561000000000
C      -1.548937000000000     -2.254437000000000      2.563462000000000
C      -3.611233000000000     -4.141354000000000      2.799371000000000
H      -4.584223000000000     -3.082539000000000      1.212712000000000
C      -1.467903000000000     -3.288776000000000      3.531920000000000
C      -2.473889000000000     -4.216157000000000      3.642765000000000
H      -4.402361000000000     -4.877800000000000      2.900102000000000
H      -0.586181000000000     -3.346580000000000      4.165341000000000
H      -2.407415000000000     -5.006172000000000      4.385176000000000
C       3.895551000000000      3.315749000000000      1.411119000000000
C       3.880562000000000      4.354876000000000      2.307073000000000
C       2.820940000000000      4.478121000000000      3.241230000000000
C       1.802701000000000      3.557225000000000      3.259071000000000
C       1.789956000000000      2.480110000000000      2.334886000000000
C       2.847079000000000      2.358557000000000      1.398186000000000
H       4.704019000000000      3.214830000000000      0.691775000000000
H       4.682798000000000      5.086240000000000      2.306862000000000
H       2.821711000000000      5.301260000000000      3.949845000000000
H       0.978351000000000      3.656164000000000      3.960681000000000
H      -7.890283000000000      1.954272000000000     -2.447420000000000
H       0.600191000000000      6.039738000000000      2.013830000000000
H       7.753473000000000     -1.187549000000000     -3.050039000000000
H       0.151048000000000     -5.852984000000000      2.704928000000000
