82

C       2.093478000000000      2.334076000000000      0.171099000000000
C       1.473984000000000      1.124901000000000      0.406105000000000
C       0.385422000000000      1.068554000000000      1.347550000000000
C       0.062934000000000      2.203313000000000      2.056772000000000
H       2.890950000000000      2.406026000000000     -0.565031000000000
C      -0.417890000000000     -0.167027000000000      1.637888000000000
C      -0.153437000000000     -0.822129000000000      2.818477000000000
C      -1.469069000000000     -0.664609000000000      0.787759000000000
C      -2.137906000000000     -1.811882000000000      1.149604000000000
H      -2.931228000000000     -2.206362000000000      0.520141000000000
P       1.868808000000000     -0.320781000000000     -0.680321000000000
P      -1.837420000000000      0.154748000000000     -0.835882000000000
C      -3.453675000000000     -0.591298000000000     -1.322128000000000
C      -4.696898000000000     -0.090281000000000     -0.930158000000000
C      -3.388689000000000     -1.719283000000000     -2.147274000000000
C      -5.854763000000000     -0.731823000000000     -1.357702000000000
H      -4.779328000000000      0.794508000000000     -0.310340000000000
C      -4.562770000000000     -2.346666000000000     -2.544487000000000
H      -2.425339000000000     -2.095809000000000     -2.478364000000000
C      -5.809863000000000     -1.865746000000000     -2.160182000000000
Br     -7.537020000000000     -0.047178000000000     -0.834293000000000
Br     -4.469231000000000     -3.877300000000000     -3.647780000000000
H      -6.720094000000000     -2.354817000000000     -2.484429000000000
C      -2.287953000000000      1.838932000000000     -0.222441000000000
C      -1.786619000000000      2.957872000000000     -0.884168000000000
C      -2.969487000000000      1.998263000000000      0.989737000000000
C      -1.950233000000000      4.220624000000000     -0.323511000000000
H      -1.233489000000000      2.849638000000000     -1.809010000000000
C      -3.128944000000000      3.272212000000000      1.518430000000000
H      -3.319443000000000      1.135389000000000      1.548983000000000
C      -2.624300000000000      4.398733000000000      0.877335000000000
Br     -1.172143000000000      5.716409000000000     -1.167691000000000
Br     -3.962630000000000      3.480108000000000      3.203609000000000
H      -2.722670000000000      5.382811000000000      1.319229000000000
C       2.045511000000000     -1.697242000000000      0.542286000000000
C       1.386266000000000     -2.901943000000000      0.307895000000000
C       2.744764000000000     -1.510316000000000      1.738562000000000
C       1.422060000000000     -3.902869000000000      1.274749000000000
H       0.818583000000000     -3.045212000000000     -0.604555000000000
C       2.757956000000000     -2.525045000000000      2.684469000000000
H       3.223321000000000     -0.564634000000000      1.968651000000000
C       2.105710000000000     -3.735239000000000      2.470625000000000
Br      0.474569000000000     -5.509039000000000      0.977885000000000
Br      3.608431000000000     -2.228818000000000      4.348702000000000
H       2.101203000000000     -4.508305000000000      3.229153000000000
C       3.627860000000000     -0.044801000000000     -1.179929000000000
C       4.626777000000000      0.431958000000000     -0.323460000000000
C       3.949229000000000     -0.383014000000000     -2.495091000000000
C       5.927490000000000      0.551240000000000     -0.793630000000000
H       4.399654000000000      0.735639000000000      0.692262000000000
C       5.263712000000000     -0.260479000000000     -2.936868000000000
H       3.174972000000000     -0.737039000000000     -3.169399000000000
C       6.267910000000000      0.204863000000000     -2.098760000000000
Br      7.274003000000000      1.207519000000000      0.359089000000000
Br      5.691830000000000     -0.725785000000000     -4.715902000000000
H       7.287239000000000      0.303831000000000     -2.451163000000000
H      -0.297614000000000     -1.624332000000000     -1.538570000000000
C       0.559709000000000      1.533942000000000     -2.893771000000000
O       0.892695000000000      2.460117000000000     -3.475819000000000
Rh      0.064848000000000     -0.163573000000000     -2.031607000000000
H       0.626480000000000     -0.435750000000000      3.471917000000000
H      -0.738518000000000      2.154131000000000      2.791087000000000
C       1.710298000000000      3.523856000000000      0.841657000000000
C       2.316766000000000      4.777830000000000      0.564122000000000
C       0.686651000000000      3.453096000000000      1.820673000000000
C       1.909877000000000      5.906160000000000      1.227365000000000
H       3.100543000000000      4.826580000000000     -0.186850000000000
C       0.288244000000000      4.635363000000000      2.497650000000000
C       0.882526000000000      5.835267000000000      2.202397000000000
H       2.370157000000000      6.863469000000000      1.005198000000000
H      -0.505185000000000      4.570349000000000      3.238987000000000
H       0.569598000000000      6.739180000000000      2.715270000000000
C      -2.464313000000000     -3.748515000000000      2.671544000000000
C      -2.112054000000000     -4.425232000000000      3.810458000000000
C      -1.102061000000000     -3.915240000000000      4.665314000000000
C      -0.470130000000000     -2.735626000000000      4.365950000000000
C      -0.811870000000000     -2.020148000000000      3.188754000000000
C      -1.815839000000000     -2.532852000000000      2.328813000000000
H      -3.231730000000000     -4.138105000000000      2.008265000000000
H      -2.602306000000000     -5.360360000000000      4.061181000000000
H      -0.832052000000000     -4.465595000000000      5.561056000000000
H       0.314178000000000     -2.342458000000000      5.008744000000000
