106

C      -2.269128000000000     -2.199219000000000      0.631741000000000
C      -1.542151000000000     -1.029386000000000      0.612154000000000
C      -0.394402000000000     -0.904495000000000      1.478210000000000
C      -0.086799000000000     -1.943522000000000      2.325368000000000
H      -3.137129000000000     -2.318135000000000     -0.011687000000000
C       0.436163000000000      0.341932000000000      1.588915000000000
C       0.203028000000000      1.134311000000000      2.689081000000000
C       1.438751000000000      0.752850000000000      0.641062000000000
C       2.045736000000000      1.978434000000000      0.792631000000000
H       2.787638000000000      2.318039000000000      0.074399000000000
P      -1.881623000000000      0.227020000000000     -0.713625000000000
P       1.829620000000000     -0.313087000000000     -0.822752000000000
C       3.413831000000000      0.393431000000000     -1.443441000000000
C       4.678455000000000      0.026009000000000     -0.976055000000000
C       3.320902000000000      1.346634000000000     -2.460597000000000
C       5.819297000000000      0.615407000000000     -1.511627000000000
H       4.790747000000000     -0.722194000000000     -0.198717000000000
C       4.468616000000000      1.943961000000000     -2.973614000000000
H       2.344448000000000      1.615689000000000     -2.856748000000000
C       5.726179000000000      1.583740000000000     -2.506373000000000
C       7.177371000000000      0.161869000000000     -1.049671000000000
C       4.319210000000000      3.017597000000000     -4.016547000000000
H       6.619907000000000      2.043040000000000     -2.914478000000000
C       2.341045000000000     -1.845322000000000      0.074281000000000
C       1.875124000000000     -3.080829000000000     -0.363451000000000
C       3.013906000000000     -1.775962000000000      1.301504000000000
C       2.042707000000000     -4.221568000000000      0.420146000000000
H       1.336095000000000     -3.159740000000000     -1.301356000000000
C       3.197373000000000     -2.922729000000000      2.062709000000000
H       3.348179000000000     -0.817929000000000      1.692353000000000
C       2.703579000000000     -4.154070000000000      1.635637000000000
C       1.399188000000000     -5.498935000000000     -0.043841000000000
C       3.780626000000000     -2.821199000000000      3.442520000000000
H       2.813728000000000     -5.038480000000000      2.254009000000000
C      -1.952063000000000      1.806548000000000      0.231579000000000
C      -2.557269000000000      1.880547000000000      1.490478000000000
C      -1.297549000000000      2.931558000000000     -0.263262000000000
C      -2.506877000000000      3.059665000000000      2.225110000000000
H      -3.026329000000000      0.999052000000000      1.925366000000000
C      -1.241471000000000      4.104834000000000      0.487858000000000
H      -0.791006000000000      2.880724000000000     -1.222518000000000
C      -1.848150000000000      4.183180000000000      1.732881000000000
C      -3.114983000000000      3.062982000000000      3.598238000000000
C      -0.498358000000000      5.278718000000000     -0.086798000000000
H      -1.775102000000000      5.085627000000000      2.328401000000000
C      -3.657339000000000     -0.065513000000000     -1.143640000000000
C      -4.737294000000000      0.619974000000000     -0.578417000000000
C      -3.917328000000000     -1.020564000000000     -2.129320000000000
C      -6.037746000000000      0.332320000000000     -0.979498000000000
H      -4.583023000000000      1.387346000000000      0.171427000000000
C      -5.223898000000000     -1.318963000000000     -2.504588000000000
H      -3.094497000000000     -1.535949000000000     -2.617685000000000
C      -6.295914000000000     -0.645001000000000     -1.935303000000000
C      -7.188509000000000      1.121379000000000     -0.416041000000000
C      -5.453870000000000     -2.415171000000000     -3.508348000000000
H      -7.313660000000000     -0.869305000000000     -2.235964000000000
H       0.288231000000000      1.272663000000000     -1.859186000000000
C      -0.530919000000000     -2.114831000000000     -2.478976000000000
O      -0.812074000000000     -3.155372000000000     -2.841816000000000
Rh     -0.081986000000000     -0.261220000000000     -2.017630000000000
H      -0.539092000000000      0.817225000000000      3.418363000000000
H       0.753327000000000     -1.837348000000000      3.007481000000000
C      -1.905817000000000     -3.303599000000000      1.445885000000000
C      -2.607994000000000     -4.536445000000000      1.405949000000000
C      -0.791025000000000     -3.172683000000000      2.311468000000000
C      -2.198648000000000     -5.591643000000000      2.179992000000000
H      -3.461989000000000     -4.633589000000000      0.741090000000000
C      -0.394609000000000     -4.275006000000000      3.112036000000000
C      -1.079061000000000     -5.461481000000000      3.039667000000000
H      -2.729817000000000     -6.536770000000000      2.134837000000000
H       0.463425000000000     -4.157865000000000      3.769866000000000
H      -0.768114000000000     -6.307766000000000      3.643753000000000
C       2.244550000000000      4.167260000000000      1.952578000000000
C       1.876869000000000      4.991661000000000      2.985686000000000
C       0.987779000000000      4.532937000000000      3.989774000000000
C       0.470069000000000      3.263708000000000      3.931118000000000
C       0.809836000000000      2.403707000000000      2.854502000000000
C       1.715571000000000      2.853574000000000      1.860522000000000
H       2.924092000000000      4.515079000000000      1.179846000000000
H       2.267599000000000      6.002610000000000      3.038481000000000
H       0.712724000000000      5.195451000000000      4.804346000000000
H      -0.226172000000000      2.910281000000000      4.686708000000000
F      -4.553214000000000     -2.365996000000000     -4.497700000000000
F      -6.672838000000000     -2.340725000000000     -4.054335000000000
F      -5.342894000000000     -3.622328000000000     -2.935232000000000
F      -7.540644000000000      2.119542000000000     -1.236839000000000
F      -6.882885000000000      1.665924000000000      0.767951000000000
F      -8.270018000000000      0.349115000000000     -0.247760000000000
F      -2.608510000000000      2.063137000000000      4.347939000000000
F      -4.438612000000000      2.873080000000000      3.554377000000000
F      -2.883278000000000      4.206331000000000      4.251160000000000
F      -1.174472000000000      5.833249000000000     -1.102099000000000
F       0.693899000000000      4.902351000000000     -0.576629000000000
F      -0.284430000000000      6.233705000000000      0.825178000000000
F       7.140867000000000     -0.297815000000000      0.207749000000000
F       8.068263000000000      1.160596000000000     -1.097279000000000
F       7.648771000000000     -0.826770000000000     -1.820780000000000
F       5.462076000000000      3.226856000000000     -4.680581000000000
F       3.958211000000000      4.182767000000000     -3.460859000000000
F       3.374480000000000      2.698945000000000     -4.910104000000000
F       1.836224000000000     -5.851363000000000     -1.259929000000000
F       0.070375000000000     -5.352722000000000     -0.131708000000000
F       1.644109000000000     -6.514762000000000      0.791899000000000
F       2.796147000000000     -2.716804000000000      4.359123000000000
F       4.564597000000000     -1.748835000000000      3.582319000000000
F       4.494029000000000     -3.905749000000000      3.763020000000000
