114

C      -2.545930000000000     -1.751815000000000      0.794699000000000
C      -1.682216000000000     -0.696272000000000      0.606464000000000
C      -0.492608000000000     -0.613417000000000      1.419440000000000
C      -0.266523000000000     -1.584489000000000      2.367238000000000
H      -3.451824000000000     -1.829438000000000      0.199273000000000
C       0.486449000000000      0.528952000000000      1.383312000000000
C       0.358928000000000      1.466021000000000      2.383178000000000
C       1.558513000000000      0.669650000000000      0.433948000000000
C       2.392612000000000      1.761188000000000      0.520783000000000
H       3.211927000000000      1.881582000000000     -0.183024000000000
P      -1.921888000000000      0.453967000000000     -0.836287000000000
P       1.759245000000000     -0.578192000000000     -0.926213000000000
C       3.396813000000000     -0.145469000000000     -1.648763000000000
C       4.581208000000000     -0.813249000000000     -1.339812000000000
C       3.419514000000000      0.898296000000000     -2.579809000000000
C       5.795142000000000     -0.426893000000000     -1.920956000000000
H       4.564921000000000     -1.661044000000000     -0.664686000000000
C       4.618541000000000      1.314909000000000     -3.164836000000000
H       2.481027000000000      1.370474000000000     -2.859408000000000
C       5.793494000000000      0.634139000000000     -2.828247000000000
C       7.065450000000000     -1.101397000000000     -1.594947000000000
C       4.683432000000000      2.431617000000000     -4.125988000000000
H       6.731873000000000      0.940374000000000     -3.286618000000000
C       2.095634000000000     -2.054758000000000      0.127185000000000
C       1.362746000000000     -3.223679000000000     -0.053446000000000
C       2.970388000000000     -1.950375000000000      1.212942000000000
C       1.454943000000000     -4.279073000000000      0.862473000000000
H       0.682325000000000     -3.306554000000000     -0.893470000000000
C       3.145543000000000     -3.018449000000000      2.097812000000000
H       3.495803000000000     -1.014382000000000      1.387711000000000
C       2.364816000000000     -4.165738000000000      1.915249000000000
C       0.589343000000000     -5.468504000000000      0.770095000000000
C       4.097168000000000     -2.961398000000000      3.222837000000000
H       2.455881000000000     -4.985799000000000      2.625465000000000
C      -1.815127000000000      2.091913000000000     -0.008036000000000
C      -2.473470000000000      2.325626000000000      1.205596000000000
C      -0.986634000000000      3.075803000000000     -0.531864000000000
C      -2.309038000000000      3.530399000000000      1.892524000000000
H      -3.092972000000000      1.543460000000000      1.643308000000000
C      -0.789471000000000      4.288824000000000      0.144913000000000
H      -0.478072000000000      2.894520000000000     -1.473012000000000
C      -1.476619000000000      4.510581000000000      1.335684000000000
C      -2.968119000000000      3.707445000000000      3.199431000000000
C       0.152203000000000      5.302890000000000     -0.363955000000000
H      -1.337913000000000      5.455636000000000      1.854767000000000
C      -3.716158000000000      0.291614000000000     -1.242572000000000
C      -4.680650000000000      1.228652000000000     -0.872058000000000
C      -4.098481000000000     -0.807795000000000     -2.017158000000000
C      -6.023304000000000      1.059365000000000     -1.231819000000000
H      -4.388978000000000      2.119021000000000     -0.327942000000000
C      -5.433238000000000     -1.014678000000000     -2.375309000000000
H      -3.340036000000000     -1.503077000000000     -2.364397000000000
C      -6.379477000000000     -0.063718000000000     -1.980739000000000
C      -7.064012000000000      2.028240000000000     -0.840457000000000
C      -5.863815000000000     -2.185625000000000     -3.161495000000000
H      -7.420380000000000     -0.202392000000000     -2.266432000000000
H       0.371289000000000      1.126452000000000     -2.027063000000000
C      -0.855454000000000     -2.155098000000000     -2.402608000000000
O      -1.283275000000000     -3.177831000000000     -2.705781000000000
Rh     -0.183714000000000     -0.365489000000000     -2.074908000000000
H      -0.440077000000000      1.351977000000000      3.112597000000000
H       0.627284000000000     -1.517271000000000      2.984197000000000
C      -2.291679000000000     -2.781171000000000      1.739050000000000
C      -3.159151000000000     -3.894637000000000      1.895390000000000
C      -1.126478000000000     -2.697541000000000      2.541441000000000
C      -2.871603000000000     -4.877252000000000      2.808561000000000
H      -4.050933000000000     -3.954166000000000      1.276623000000000
C      -0.852862000000000     -3.726673000000000      3.478666000000000
C      -1.706073000000000     -4.792441000000000      3.609485000000000
H      -3.537440000000000     -5.727284000000000      2.920493000000000
H       0.048349000000000     -3.654800000000000      4.082415000000000
H      -1.490638000000000     -5.579154000000000      4.325765000000000
C       3.052510000000000      3.915092000000000      1.571479000000000
C       2.849868000000000      4.868221000000000      2.535516000000000
C       1.812756000000000      4.713108000000000      3.490616000000000
C       1.005476000000000      3.605061000000000      3.462387000000000
C       1.191384000000000      2.608192000000000      2.469154000000000
C       2.223234000000000      2.764065000000000      1.510652000000000
H       3.840351000000000      4.031292000000000      0.831555000000000
H       3.482071000000000      5.749881000000000      2.570865000000000
H       1.664421000000000      5.477034000000000      4.247936000000000
H       0.200561000000000      3.479175000000000      4.182858000000000
C      -5.135046000000000     -3.273187000000000     -3.416158000000000
H      -6.882002000000000     -2.133750000000000     -3.544344000000000
H      -4.120315000000000     -3.399549000000000     -3.048413000000000
H      -5.539511000000000     -4.085451000000000     -4.010060000000000
C      -6.935720000000000      2.997987000000000      0.065907000000000
H      -8.021381000000000      1.905380000000000     -1.344785000000000
H      -6.016538000000000      3.159845000000000      0.622405000000000
H      -7.760385000000000      3.666622000000000      0.286705000000000
C      -2.628208000000000      4.599371000000000      4.132030000000000
H      -3.783299000000000      3.015038000000000      3.406249000000000
H      -1.801182000000000      5.291070000000000      3.995884000000000
H      -3.165972000000000      4.659194000000000      5.071888000000000
C       1.195208000000000      5.038334000000000     -1.151726000000000
H      -0.017153000000000      6.323451000000000     -0.024276000000000
H       1.432276000000000      4.023408000000000     -1.463947000000000
H       1.863735000000000      5.824727000000000     -1.485390000000000
C       7.274360000000000     -1.933963000000000     -0.574157000000000
H       7.897020000000000     -0.864449000000000     -2.257054000000000
H       6.496497000000000     -2.194060000000000      0.138930000000000
H       8.247719000000000     -2.384395000000000     -0.413968000000000
C       3.708474000000000      3.300759000000000     -4.395099000000000
H       5.637395000000000      2.539692000000000     -4.640167000000000
H       2.739094000000000      3.262294000000000     -3.906494000000000
H       3.852921000000000      4.090579000000000     -5.123930000000000
C      -0.576403000000000     -5.521178000000000      0.124390000000000
H       0.933701000000000     -6.344379000000000      1.318012000000000
H      -0.990551000000000     -4.663159000000000     -0.398175000000000
H      -1.169446000000000     -6.429271000000000      0.115839000000000
C       5.066961000000000     -2.060482000000000      3.387015000000000
H       3.984777000000000     -3.752128000000000      3.963391000000000
H       5.247460000000000     -1.261730000000000      2.673012000000000
H       5.722043000000000     -2.096879000000000      4.250346000000000
