98

C       2.657285000000000      1.986319000000000      0.688266000000000
C       1.813983000000000      0.902420000000000      0.629225000000000
C       0.571758000000000      0.942924000000000      1.365481000000000
C       0.234954000000000      2.083003000000000      2.050165000000000
H       3.601376000000000      1.980266000000000      0.150193000000000
C      -0.308360000000000     -0.261891000000000      1.538222000000000
C      -0.058131000000000     -1.018050000000000      2.659597000000000
C      -1.364285000000000     -0.657305000000000      0.645976000000000
C      -2.054089000000000     -1.820286000000000      0.906389000000000
H      -2.863299000000000     -2.143902000000000      0.260343000000000
P       2.012938000000000     -0.342067000000000     -0.734258000000000
P      -1.727187000000000      0.387124000000000     -0.847168000000000
C      -3.203010000000000     -0.423797000000000     -1.586682000000000
C      -4.425615000000000      0.223269000000000     -1.734749000000000
C      -3.063902000000000     -1.721552000000000     -2.112183000000000
C      -5.495568000000000     -0.411300000000000     -2.383521000000000
H      -4.589310000000000      1.229867000000000     -1.360327000000000
C      -4.133049000000000     -2.361920000000000     -2.727534000000000
H      -2.115995000000000     -2.251399000000000     -2.020693000000000
C      -5.357477000000000     -1.701728000000000     -2.872192000000000
C      -6.786006000000000      0.310641000000000     -2.532206000000000
C      -3.972225000000000     -3.754561000000000     -3.226719000000000
H      -6.178481000000000     -2.215710000000000     -3.366956000000000
C      -2.433597000000000      1.847462000000000      0.039256000000000
C      -1.890509000000000      3.119616000000000     -0.155843000000000
C      -3.392512000000000      1.676193000000000      1.038489000000000
C      -2.270123000000000      4.193422000000000      0.648782000000000
H      -1.129447000000000      3.271199000000000     -0.916397000000000
C      -3.801949000000000      2.756725000000000      1.827364000000000
H      -3.828047000000000      0.699533000000000      1.241572000000000
C      -3.232479000000000      4.012614000000000      1.642460000000000
C      -1.605757000000000      5.514946000000000      0.492307000000000
C      -4.824580000000000      2.544598000000000      2.886221000000000
H      -3.513507000000000      4.860453000000000      2.263840000000000
C       1.862280000000000     -1.973039000000000      0.114675000000000
C       2.526398000000000     -2.253730000000000      1.314739000000000
C       0.955818000000000     -2.908719000000000     -0.374577000000000
C       2.313755000000000     -3.462546000000000      1.979696000000000
H       3.194783000000000     -1.527057000000000      1.774283000000000
C       0.708194000000000     -4.103219000000000      0.308165000000000
H       0.386611000000000     -2.703626000000000     -1.274882000000000
C       1.407518000000000     -4.395713000000000      1.472976000000000
C       2.958870000000000     -3.699772000000000      3.295263000000000
C      -0.398114000000000     -4.973031000000000     -0.158704000000000
H       1.203313000000000     -5.313306000000000      2.023468000000000
C       3.805438000000000     -0.266335000000000     -1.178453000000000
C       4.750879000000000     -1.230667000000000     -0.823870000000000
C       4.211226000000000      0.787927000000000     -2.006123000000000
C       6.074336000000000     -1.130324000000000     -1.264036000000000
H       4.494179000000000     -2.090448000000000     -0.213276000000000
C       5.535637000000000      0.905208000000000     -2.427567000000000
H       3.498955000000000      1.537597000000000     -2.345974000000000
C       6.471686000000000     -0.059022000000000     -2.057241000000000
C       7.052449000000000     -2.181144000000000     -0.878717000000000
C       5.934786000000000      2.049459000000000     -3.288210000000000
H       7.503824000000000      0.019704000000000     -2.396801000000000
H      -0.223941000000000     -1.077222000000000     -2.041578000000000
C       0.812263000000000      2.307738000000000     -2.077538000000000
O       1.167123000000000      3.387816000000000     -2.207276000000000
Rh      0.238476000000000      0.432993000000000     -1.954257000000000
H       0.732745000000000     -0.706672000000000      3.339470000000000
H      -0.702868000000000      2.109609000000000      2.603397000000000
C       2.300737000000000      3.183613000000000      1.367910000000000
C       3.125105000000000      4.336977000000000      1.341026000000000
C       1.049301000000000      3.246192000000000      2.032659000000000
C       2.705836000000000      5.505472000000000      1.927712000000000
H       4.082665000000000      4.285807000000000      0.829937000000000
C       0.642851000000000      4.461580000000000      2.637200000000000
C       1.449600000000000      5.571518000000000      2.576219000000000
H       3.334501000000000      6.389052000000000      1.888477000000000
H      -0.324410000000000      4.506004000000000      3.132013000000000
H       1.120138000000000      6.505788000000000      3.018809000000000
C      -2.351418000000000     -3.920003000000000      2.196645000000000
C      -1.981528000000000     -4.723874000000000      3.246836000000000
C      -0.999527000000000     -4.289229000000000      4.172664000000000
C      -0.394721000000000     -3.066859000000000      4.017734000000000
C      -0.734814000000000     -2.234248000000000      2.920302000000000
C      -1.733380000000000     -2.656044000000000      2.007710000000000
H      -3.106573000000000     -4.245749000000000      1.485879000000000
H      -2.451552000000000     -5.693067000000000      3.380911000000000
H      -0.730978000000000     -4.928822000000000      5.007723000000000
H       0.365268000000000     -2.727394000000000      4.717701000000000
O       5.178682000000000      2.923383000000000     -3.635125000000000
H       6.999577000000000      2.055204000000000     -3.600183000000000
O       6.771609000000000     -3.144514000000000     -0.208410000000000
H       8.084429000000000     -2.024736000000000     -1.254823000000000
O       3.621605000000000     -2.874209000000000      3.876453000000000
H       2.771274000000000     -4.700256000000000      3.737249000000000
O      -1.173156000000000     -4.653141000000000     -1.032963000000000
H      -0.502600000000000     -5.942393000000000      0.367799000000000
O      -6.975591000000000      1.434014000000000     -2.132389000000000
H      -7.586430000000000     -0.258830000000000     -3.046834000000000
O      -4.853761000000000     -4.357525000000000     -3.791872000000000
H      -2.984153000000000     -4.215890000000000     -3.034192000000000
O      -1.855050000000000      6.468280000000000      1.191093000000000
H      -0.840922000000000      5.569165000000000     -0.308644000000000
O      -5.333888000000000      1.475541000000000      3.118683000000000
H      -5.096708000000000      3.449947000000000      3.465894000000000
