82

C      -2.490507000000000     -1.989472000000000      0.912257000000000
C      -1.682321000000000     -0.897227000000000      0.699070000000000
C      -0.518564000000000     -0.706923000000000      1.534943000000000
C      -0.253326000000000     -1.633329000000000      2.515066000000000
H      -3.375535000000000     -2.144422000000000      0.300943000000000
C       0.314603000000000      0.547363000000000      1.532861000000000
C       0.007042000000000      1.451698000000000      2.524987000000000
C       1.382799000000000      0.864754000000000      0.620978000000000
C       1.994875000000000      2.095899000000000      0.706572000000000
H       2.787157000000000      2.362822000000000      0.012965000000000
P      -1.932151000000000      0.165769000000000     -0.799880000000000
P       1.839427000000000     -0.286108000000000     -0.749279000000000
C       3.397886000000000      0.444671000000000     -1.409866000000000
C       4.607433000000000      0.375715000000000     -0.712454000000000
C       3.337269000000000      1.087719000000000     -2.646678000000000
C       5.741397000000000      0.958063000000000     -1.264587000000000
H       4.674824000000000     -0.124007000000000      0.248774000000000
C       4.489949000000000      1.666895000000000     -3.169534000000000
H       2.399922000000000      1.131841000000000     -3.193571000000000
C       5.702922000000000      1.610459000000000     -2.493886000000000
Cl      7.251360000000000      0.872761000000000     -0.404383000000000
Cl      4.418876000000000      2.472553000000000     -4.708671000000000
H       6.596407000000000      2.056911000000000     -2.914241000000000
C       2.491043000000000     -1.754286000000000      0.155851000000000
C       2.624475000000000     -2.951771000000000     -0.550035000000000
C       2.820194000000000     -1.706848000000000      1.511706000000000
C       3.072391000000000     -4.089694000000000      0.110459000000000
H       2.371500000000000     -3.004599000000000     -1.604853000000000
C       3.240419000000000     -2.868402000000000      2.150182000000000
H       2.729573000000000     -0.784434000000000      2.077489000000000
C       3.373875000000000     -4.071833000000000      1.468650000000000
Cl      3.235306000000000     -5.579932000000000     -0.768762000000000
Cl      3.582134000000000     -2.819289000000000      3.857750000000000
H       3.696622000000000     -4.970846000000000      1.979952000000000
C      -2.064168000000000      1.842217000000000     -0.042927000000000
C      -2.768549000000000      2.020623000000000      1.153891000000000
C      -1.380570000000000      2.913719000000000     -0.611839000000000
C      -2.772566000000000      3.268598000000000      1.760646000000000
H      -3.273709000000000      1.185705000000000      1.632789000000000
C      -1.404741000000000      4.154401000000000      0.022326000000000
H      -0.805794000000000      2.778440000000000     -1.521820000000000
C      -2.095461000000000      4.353160000000000      1.209613000000000
Cl     -3.595340000000000      3.474867000000000      3.281996000000000
Cl     -0.526120000000000      5.482424000000000     -0.675845000000000
H      -2.084225000000000      5.315186000000000      1.708144000000000
C      -3.674952000000000     -0.192313000000000     -1.311936000000000
C      -4.771050000000000      0.606379000000000     -0.979760000000000
C      -3.863499000000000     -1.316004000000000     -2.125081000000000
C      -6.035419000000000      0.260212000000000     -1.448145000000000
H      -4.660815000000000      1.499705000000000     -0.376848000000000
C      -5.140677000000000     -1.647481000000000     -2.558396000000000
H      -3.018129000000000     -1.927850000000000     -2.426593000000000
C      -6.245074000000000     -0.866919000000000     -2.232234000000000
Cl     -7.395815000000000      1.265840000000000     -1.041659000000000
Cl     -5.369521000000000     -3.058267000000000     -3.549029000000000
H      -7.235442000000000     -1.123720000000000     -2.588678000000000
H       0.269911000000000      1.088010000000000     -2.046777000000000
C      -0.339953000000000     -2.406457000000000     -1.905416000000000
O      -0.482649000000000     -3.540579000000000     -1.917491000000000
Rh     -0.047304000000000     -0.467879000000000     -1.923943000000000
H      -0.781709000000000      1.204731000000000      3.232870000000000
H       0.597425000000000     -1.476987000000000      3.174965000000000
C      -2.200104000000000     -2.964879000000000      1.903555000000000
C      -3.016784000000000     -4.107371000000000      2.100739000000000
C      -1.048877000000000     -2.791308000000000      2.711963000000000
C      -2.692106000000000     -5.035174000000000      3.058289000000000
H      -3.897839000000000     -4.236828000000000      1.478058000000000
C      -0.734831000000000     -3.763355000000000      3.694682000000000
C      -1.539149000000000     -4.862498000000000      3.862196000000000
H      -3.318538000000000     -5.909573000000000      3.202239000000000
H       0.153234000000000     -3.623120000000000      4.305505000000000
H      -1.294022000000000     -5.606977000000000      4.612812000000000
C       2.189252000000000      4.362980000000000      1.705144000000000
C       1.783249000000000      5.274924000000000      2.645404000000000
C       0.794192000000000      4.929538000000000      3.600852000000000
C       0.226606000000000      3.680979000000000      3.592051000000000
C       0.616545000000000      2.726476000000000      2.617088000000000
C       1.611842000000000      3.066858000000000      1.667231000000000
H       2.946050000000000      4.622109000000000      0.969888000000000
H       2.219298000000000      6.268477000000000      2.662734000000000
H       0.487400000000000      5.661656000000000      4.341161000000000
H      -0.539849000000000      3.411221000000000      4.314180000000000
