90

C       2.284502000000000      2.045133000000000      0.241313000000000
C       1.549113000000000      0.891197000000000      0.417556000000000
C       0.463920000000000      0.895164000000000      1.363586000000000
C       0.275674000000000      2.007064000000000      2.153398000000000
H       3.075670000000000      2.083039000000000     -0.504881000000000
C      -0.461587000000000     -0.266679000000000      1.564650000000000
C      -0.293374000000000     -1.009891000000000      2.710047000000000
C      -1.504507000000000     -0.637527000000000      0.642087000000000
C      -2.227067000000000     -1.785227000000000      0.876228000000000
H      -3.007270000000000     -2.096225000000000      0.186209000000000
P       1.797079000000000     -0.508434000000000     -0.769000000000000
P      -1.790056000000000      0.345586000000000     -0.906684000000000
C      -3.465584000000000     -0.204392000000000     -1.459703000000000
C      -4.662683000000000      0.412829000000000     -1.096347000000000
C      -3.505205000000000     -1.287114000000000     -2.344713000000000
C      -5.882234000000000     -0.059346000000000     -1.596897000000000
H      -4.675194000000000      1.273657000000000     -0.437505000000000
C      -4.726037000000000     -1.767209000000000     -2.826375000000000
H      -2.579394000000000     -1.755024000000000     -2.669271000000000
C      -5.925486000000000     -1.155797000000000     -2.456815000000000
C      -7.104518000000000      0.598857000000000     -1.215430000000000
C      -4.744324000000000     -2.890478000000000     -3.726834000000000
H      -6.871953000000000     -1.519767000000000     -2.840202000000000
C      -2.104788000000000      1.999241000000000     -0.140189000000000
C      -1.464215000000000      3.125084000000000     -0.651933000000000
C      -2.833068000000000      2.113418000000000      1.047717000000000
C      -1.535548000000000      4.350112000000000      0.021071000000000
H      -0.869174000000000      3.053274000000000     -1.555464000000000
C      -2.926670000000000      3.344816000000000      1.703139000000000
H      -3.296001000000000      1.238920000000000      1.498596000000000
C      -2.271971000000000      4.470271000000000      1.198059000000000
C      -0.787862000000000      5.479257000000000     -0.467357000000000
C      -3.649540000000000      3.439638000000000      2.944495000000000
H      -2.313134000000000      5.415729000000000      1.727366000000000
C       1.757164000000000     -2.011858000000000      0.313895000000000
C       2.446072000000000     -2.055792000000000      1.528772000000000
C       0.973130000000000     -3.100984000000000     -0.055375000000000
C       2.336775000000000     -3.170100000000000      2.363207000000000
H       3.034020000000000     -1.207688000000000      1.867408000000000
C       0.865921000000000     -4.218983000000000      0.783693000000000
H       0.416650000000000     -3.078192000000000     -0.986446000000000
C       1.546538000000000     -4.263300000000000      1.996591000000000
C       2.980175000000000     -3.160078000000000      3.650483000000000
C       0.004481000000000     -5.308205000000000      0.402911000000000
H       1.441856000000000     -5.114580000000000      2.659549000000000
C       3.603984000000000     -0.435604000000000     -1.164972000000000
C       4.603979000000000     -0.087275000000000     -0.252434000000000
C       3.966778000000000     -0.795041000000000     -2.462870000000000
C       5.947791000000000     -0.111761000000000     -0.635839000000000
H       4.354013000000000      0.234310000000000      0.753957000000000
C       5.314493000000000     -0.828484000000000     -2.841215000000000
H       3.198162000000000     -1.047476000000000     -3.189126000000000
C       6.313360000000000     -0.487927000000000     -1.930718000000000
C       6.963782000000000      0.263003000000000      0.312889000000000
C       5.668951000000000     -1.205751000000000     -4.184515000000000
H       7.356904000000000     -0.505470000000000     -2.224071000000000
H      -0.456888000000000     -1.491812000000000     -1.809707000000000
C       0.754561000000000      1.681269000000000     -2.832274000000000
O       1.190740000000000      2.619646000000000     -3.314726000000000
Rh      0.066781000000000     -0.037955000000000     -2.142173000000000
H       0.473766000000000     -0.710745000000000      3.421962000000000
H      -0.517679000000000      1.992362000000000      2.897948000000000
C       2.030677000000000      3.226418000000000      0.983959000000000
C       2.741018000000000      4.433842000000000      0.749786000000000
C       1.027425000000000      3.195853000000000      1.987460000000000
C       2.455273000000000      5.557431000000000      1.480545000000000
H       3.501959000000000      4.454985000000000     -0.025235000000000
C       0.766854000000000      4.368038000000000      2.744620000000000
C       1.460745000000000      5.523311000000000      2.491063000000000
H       2.986106000000000      6.482836000000000      1.285023000000000
H       0.002024000000000      4.333961000000000      3.516852000000000
H       1.251642000000000      6.421152000000000      3.063448000000000
C      -2.633967000000000     -3.863897000000000      2.175008000000000
C      -2.343878000000000     -4.651842000000000      3.260115000000000
C      -1.402896000000000     -4.222532000000000      4.229695000000000
C      -0.756235000000000     -3.020775000000000      4.086133000000000
C      -1.016289000000000     -2.202458000000000      2.956599000000000
C      -1.974429000000000     -2.620042000000000      1.996722000000000
H      -3.351048000000000     -4.193171000000000      1.428352000000000
H      -2.835386000000000     -5.611600000000000      3.379227000000000
H      -1.193586000000000     -4.853547000000000      5.087541000000000
H      -0.022315000000000     -2.691851000000000      4.817940000000000
N       5.949401000000000     -1.508970000000000     -5.264487000000000
N       7.774009000000000      0.568607000000000      1.079129000000000
N       3.471913000000000     -3.135886000000000      4.697227000000000
N      -0.700278000000000     -6.172267000000000      0.095607000000000
N      -8.082039999999999      1.131895000000000     -0.903424000000000
N      -4.756705000000000     -3.793101000000000     -4.449361000000000
N      -0.173807000000000      6.382046000000000     -0.848709000000000
N      -4.216094000000000      3.510111000000000      3.950198000000000
