130

C      -2.544800000000000     -1.661038000000000      0.863732000000000
C      -1.657259000000000     -0.632403000000000      0.641305000000000
C      -0.448176000000000     -0.563265000000000      1.425149000000000
C      -0.222305000000000     -1.529670000000000      2.376939000000000
H      -3.459721000000000     -1.724808000000000      0.279496000000000
C       0.561066000000000      0.555538000000000      1.365764000000000
C       0.449145000000000      1.528945000000000      2.331774000000000
C       1.676158000000000      0.609252000000000      0.456909000000000
C       2.604482000000000      1.616431000000000      0.590893000000000
H       3.463536000000000      1.660374000000000     -0.072937000000000
P      -1.914743000000000      0.513776000000000     -0.792167000000000
P       1.796410000000000     -0.598050000000000     -0.946825000000000
C       3.441072000000000     -0.197418000000000     -1.661378000000000
C       3.484005000000000      0.834502000000000     -2.604100000000000
C       4.629450000000000     -0.823204000000000     -1.280167000000000
C       4.697711000000000      1.275680000000000     -3.131604000000000
H       2.552902000000000      1.305327000000000     -2.917468000000000
C       5.854364000000000     -0.415433000000000     -1.813391000000000
H       4.612669000000000     -1.640280000000000     -0.563138000000000
C       5.873003000000000      0.640661000000000     -2.725115000000000
C       4.732570000000000      2.461880000000000     -4.063869000000000
C       7.136662000000000     -1.058281000000000     -1.342696000000000
H       6.826083000000000      0.971692000000000     -3.136071000000000
C       2.078133000000000     -2.152263000000000     -0.003120000000000
C       1.474089000000000     -3.335406000000000     -0.418476000000000
C       2.809976000000000     -2.144647000000000      1.189949000000000
C       1.562267000000000     -4.501189000000000      0.347451000000000
H       0.899104000000000     -3.352862000000000     -1.339833000000000
C       2.924087000000000     -3.295472000000000      1.968365000000000
H       3.272781000000000     -1.220434000000000      1.534799000000000
C       2.284483000000000     -4.461883000000000      1.538621000000000
C       0.808180000000000     -5.735756000000000     -0.080217000000000
C       3.756670000000000     -3.280605000000000      3.227582000000000
H       2.345802000000000     -5.358974000000000      2.153307000000000
C      -1.896841000000000      2.150433000000000      0.040424000000000
C      -1.271677000000000      3.228188000000000     -0.583584000000000
C      -2.432418000000000      2.320161000000000      1.320274000000000
C      -1.170625000000000      4.466288000000000      0.054530000000000
H      -0.822482000000000      3.088228000000000     -1.564405000000000
C      -2.353974000000000      3.548612000000000      1.975634000000000
H      -2.870111000000000      1.469929000000000      1.842777000000000
C      -1.716161000000000      4.609375000000000      1.330431000000000
C      -0.386766000000000      5.585795000000000     -0.582861000000000
C      -2.969175000000000      3.714789000000000      3.344426000000000
H      -1.623759000000000      5.565969000000000      1.843194000000000
C      -3.691551000000000      0.265818000000000     -1.221534000000000
C      -3.977314000000000     -0.426844000000000     -2.398892000000000
C      -4.751906000000000      0.706420000000000     -0.423415000000000
C      -5.293969000000000     -0.704262000000000     -2.776856000000000
H      -3.158254000000000     -0.750016000000000     -3.038445000000000
C      -6.075247000000000      0.452876000000000     -0.781057000000000
H      -4.556856000000000      1.264588000000000      0.487894000000000
C      -6.329032000000000     -0.258348000000000     -1.956760000000000
C      -5.567253000000000     -1.515719000000000     -4.019852000000000
C      -7.201246000000000      0.992927000000000      0.068045000000000
H      -7.359981000000000     -0.463151000000000     -2.241714000000000
H       0.387820000000000      1.230756000000000     -1.889678000000000
C      -0.878893000000000     -2.018941000000000     -2.434809000000000
O      -1.326799000000000     -3.023303000000000     -2.766211000000000
Rh     -0.172624000000000     -0.256769000000000     -2.036254000000000
H      -0.382794000000000      1.482931000000000      3.030480000000000
H       0.682492000000000     -1.474466000000000      2.977621000000000
C      -2.306312000000000     -2.670145000000000      1.834119000000000
C      -3.222160000000000     -3.729322000000000      2.066563000000000
C      -1.113783000000000     -2.610193000000000      2.598513000000000
C      -2.960657000000000     -4.679885000000000      3.021189000000000
H      -4.133444000000000     -3.771494000000000      1.475792000000000
C      -0.859327000000000     -3.613308000000000      3.568893000000000
C      -1.765205000000000     -4.622749000000000      3.780055000000000
H      -3.667118000000000     -5.485430000000000      3.195177000000000
H       0.064307000000000     -3.563743000000000      4.140329000000000
H      -1.567953000000000     -5.385379000000000      4.526972000000000
C       3.433700000000000      3.677720000000000      1.701440000000000
C       3.272171000000000      4.654002000000000      2.651566000000000
C       2.142684000000000      4.638537000000000      3.508512000000000
C       1.209493000000000      3.637398000000000      3.406233000000000
C       1.363189000000000      2.606413000000000      2.443226000000000
C       2.479321000000000      2.634902000000000      1.570579000000000
H       4.289380000000000      3.689726000000000      1.030935000000000
H       4.004738000000000      5.449493000000000      2.745987000000000
H       2.021479000000000      5.423371000000000      4.248627000000000
H       0.340810000000000      3.615998000000000      4.060217000000000
H      -8.122434999999999      0.440169000000000     -0.146347000000000
H      -6.971972000000000      0.829079000000000      1.127686000000000
C      -7.425817000000000      2.489230000000000     -0.177666000000000
H      -8.241607000000000      2.873270000000000      0.441738000000000
H      -6.520023000000000      3.057882000000000      0.055977000000000
H      -7.672475000000000      2.673848000000000     -1.227500000000000
H      -6.605332000000000     -1.365999000000000     -4.336162000000000
H      -4.930063000000000     -1.158700000000000     -4.837162000000000
C      -5.305813000000000     -3.008238000000000     -3.786023000000000
H      -5.944312000000000     -3.388497000000000     -2.982604000000000
H      -5.506530000000000     -3.590175000000000     -4.690137000000000
H      -4.264273000000000     -3.176933000000000     -3.494580000000000
H      -0.532027000000000      5.568577000000000     -1.668731000000000
H      -0.758874000000000      6.551794000000000     -0.223501000000000
C       1.104124000000000      5.449343000000000     -0.254471000000000
H       1.688643000000000      6.259096000000000     -0.702261000000000
H       1.258950000000000      5.464336000000000      0.829285000000000
H       1.491188000000000      4.493717000000000     -0.625004000000000
H      -2.702267000000000      2.857106000000000      3.974993000000000
H      -2.554472000000000      4.606275000000000      3.828238000000000
C      -4.495698000000000      3.831077000000000      3.268729000000000
H      -4.935703000000000      3.952845000000000      4.262711000000000
H      -4.784977000000000      4.688936000000000      2.654215000000000
H      -4.927795000000000      2.934104000000000      2.811992000000000
H       5.633818000000000      2.419254000000000     -4.685247000000000
H       3.872932000000000      2.422787000000000     -4.742074000000000
C       4.706371000000000      3.780281000000000     -3.281063000000000
H       4.726812000000000      4.642590000000000     -3.953729000000000
H       3.801408000000000      3.844607000000000     -2.667762000000000
H       5.569272000000000      3.845690000000000     -2.610589000000000
H       6.964293000000000     -2.123196000000000     -1.150691000000000
H       7.894675000000000     -0.994141000000000     -2.131078000000000
C       7.661583000000000     -0.387223000000000     -0.068123000000000
H       6.919512000000000     -0.454037000000000      0.734083000000000
H       8.585827999999999     -0.859038000000000      0.277836000000000
H       7.861885000000000      0.673866000000000     -0.246606000000000
H       0.956795000000000     -5.903669000000000     -1.153227000000000
H       1.210080000000000     -6.612267000000000      0.439960000000000
C      -0.689373000000000     -5.595132000000000      0.216531000000000
H      -1.238427000000000     -6.491539000000000     -0.087271000000000
H      -0.853700000000000     -5.430683000000000      1.285715000000000
H      -1.110061000000000     -4.737523000000000     -0.319201000000000
H       3.617050000000000     -2.326962000000000      3.750375000000000
H       3.414247000000000     -4.070279000000000      3.905956000000000
C       5.244718000000000     -3.478005000000000      2.917099000000000
H       5.407486000000000     -4.434553000000000      2.411238000000000
H       5.605805000000000     -2.684916000000000      2.253851000000000
H       5.847579000000000     -3.462277000000000      3.829631000000000
