82

C       2.715279000000000     -1.593784000000000     -0.811544000000000
C       1.759532000000000     -0.624371000000000     -0.617616000000000
C       0.586368000000000     -0.610882000000000     -1.461694000000000
C       0.459012000000000     -1.578487000000000     -2.429123000000000
H       3.605004000000000     -1.617136000000000     -0.187561000000000
C      -0.406830000000000      0.520570000000000     -1.474129000000000
C      -0.200933000000000      1.461919000000000     -2.457270000000000
C      -1.516891000000000      0.697437000000000     -0.574392000000000
C      -2.275016000000000      1.843689000000000     -0.661815000000000
H      -3.103285000000000      2.004024000000000      0.022614000000000
P       1.845345000000000      0.464260000000000      0.880808000000000
P      -1.839040000000000     -0.508546000000000      0.787711000000000
C      -3.481732000000000      0.019622000000000      1.435357000000000
C      -3.506989000000000      0.672103000000000      2.668866000000000
C      -4.669169000000000     -0.204064000000000      0.731489000000000
C      -4.727881000000000      1.099336000000000      3.173986000000000
H      -2.593869000000000      0.841177000000000      3.231003000000000
C      -5.861368000000000      0.238115000000000      1.282504000000000
H      -4.684626000000000     -0.712223000000000     -0.226873000000000
C      -5.923286000000000      0.895779000000000      2.503547000000000
F      -4.757226000000000      1.726024000000000      4.354645000000000
F      -7.001574000000000      0.028374000000000      0.615150000000000
H      -6.867120000000000      1.228503000000000      2.917226000000000
C      -2.292687000000000     -2.037864000000000     -0.134212000000000
C      -2.256595000000000     -3.252051000000000      0.554475000000000
C      -2.651939000000000     -2.010920000000000     -1.484003000000000
C      -2.571592000000000     -4.419100000000000     -0.125686000000000
H      -1.976924000000000     -3.304333000000000      1.601992000000000
C      -2.933864000000000     -3.208731000000000     -2.124185000000000
H      -2.690236000000000     -1.085205000000000     -2.049585000000000
C      -2.904681000000000     -4.431269000000000     -1.472296000000000
F      -2.539493000000000     -5.581646000000000      0.532133000000000
F      -3.233092000000000     -3.184944000000000     -3.429555000000000
H      -3.124384000000000     -5.355665000000000     -1.991473000000000
C       1.764936000000000      2.149738000000000      0.138884000000000
C       2.420933000000000      2.432780000000000     -1.066287000000000
C       0.974503000000000      3.122844000000000      0.745290000000000
C       2.261377000000000      3.684988000000000     -1.634905000000000
H       3.002457000000000      1.680286000000000     -1.591393000000000
C       0.852450000000000      4.366551000000000      0.135995000000000
H       0.428544000000000      2.916232000000000      1.659062000000000
C       1.486058000000000      4.679254000000000     -1.053912000000000
F       2.845759000000000      3.940880000000000     -2.813686000000000
F       0.078252000000000      5.291990000000000      0.711347000000000
H       1.351274000000000      5.641730000000000     -1.531322000000000
C       3.611905000000000      0.322944000000000      1.412975000000000
C       4.642004000000000      1.145603000000000      0.950357000000000
C       3.893923000000000     -0.680431000000000      2.346091000000000
C       5.930038000000000      0.936082000000000      1.422623000000000
H       4.472188000000000      1.952279000000000      0.248119000000000
C       5.200354000000000     -0.858197000000000      2.775482000000000
H       3.109724000000000     -1.312751000000000      2.750572000000000
C       6.245039000000000     -0.062166000000000      2.331238000000000
F       6.913178000000000      1.728621000000000      0.981587000000000
F       5.465396000000000     -1.824700000000000      3.660330000000000
H       7.257480000000000     -0.204586000000000      2.687771000000000
H      -0.477801000000000      1.069295000000000      2.095617000000000
C       0.619861000000000     -2.302494000000000      1.960866000000000
O       0.933033000000000     -3.402316000000000      1.977947000000000
Rh      0.050687000000000     -0.429605000000000      1.977086000000000
H       0.620924000000000      1.318338000000000     -3.155416000000000
H      -0.404105000000000     -1.554750000000000     -3.090269000000000
C       2.572808000000000     -2.611429000000000     -1.792322000000000
C       3.544675000000000     -3.628636000000000     -1.970399000000000
C       1.413455000000000     -2.613563000000000     -2.607802000000000
C       3.362310000000000     -4.605565000000000     -2.916656000000000
H       4.430736000000000     -3.623287000000000     -1.341389000000000
C       1.248221000000000     -3.633520000000000     -3.578271000000000
C       2.201832000000000     -4.609008000000000     -3.728066000000000
H       4.107757000000000     -5.383662000000000     -3.045798000000000
H       0.352692000000000     -3.629944000000000     -4.194330000000000
H       2.069834000000000     -5.390135000000000     -4.469858000000000
C      -2.718559000000000      4.086893000000000     -1.636196000000000
C      -2.410160000000000      5.052382000000000     -2.560369000000000
C      -1.374397000000000      4.838400000000000     -3.504426000000000
C      -0.663909000000000      3.665293000000000     -3.499743000000000
C      -0.954937000000000      2.657130000000000     -2.544548000000000
C      -1.996455000000000      2.865186000000000     -1.606072000000000
H      -3.511662000000000      4.245578000000000     -0.910698000000000
H      -2.960174000000000      5.987813000000000     -2.573210000000000
H      -1.143688000000000      5.612245000000000     -4.229773000000000
H       0.146667000000000      3.501208000000000     -4.205336000000000
