106

C      -2.560348000000000     -1.524142000000000      0.801682000000000
C      -1.651676000000000     -0.514661000000000      0.581234000000000
C      -0.473471000000000     -0.440260000000000      1.412713000000000
C      -0.303017000000000     -1.376838000000000      2.405847000000000
H      -3.461472000000000     -1.587181000000000      0.198225000000000
C       0.569499000000000      0.646678000000000      1.349221000000000
C       0.473438000000000      1.641963000000000      2.294613000000000
C       1.692856000000000      0.653693000000000      0.448239000000000
C       2.627842000000000      1.657734000000000      0.545144000000000
H       3.485860000000000      1.669290000000000     -0.121737000000000
P      -1.846620000000000      0.624434000000000     -0.877466000000000
P       1.807101000000000     -0.616392000000000     -0.899091000000000
C       3.478999000000000     -0.346667000000000     -1.616079000000000
C       4.595109000000000     -1.121561000000000     -1.309541000000000
C       3.599277000000000      0.680589000000000     -2.564635000000000
C       5.829968000000000     -0.874244000000000     -1.922768000000000
H       4.517261000000000     -1.937889000000000     -0.597259000000000
C       4.819834000000000      0.958475000000000     -3.170786000000000
H       2.717718000000000      1.261465000000000     -2.830086000000000
C       5.927419000000000      0.169892000000000     -2.836345000000000
C       7.019483000000000     -1.742486000000000     -1.598224000000000
C       4.954384000000000      2.071114000000000     -4.179341000000000
H       6.885198000000000      0.371918000000000     -3.313094000000000
C       1.978273000000000     -2.117783000000000      0.154770000000000
C       1.146433000000000     -3.213143000000000     -0.047097000000000
C       2.820890000000000     -2.096105000000000      1.275874000000000
C       1.118117000000000     -4.276650000000000      0.862592000000000
H       0.467755000000000     -3.227213000000000     -0.894151000000000
C       2.838480000000000     -3.155482000000000      2.178389000000000
H       3.447583000000000     -1.225638000000000      1.462723000000000
C       1.972545000000000     -4.233827000000000      1.959885000000000
C       0.120049000000000     -5.391268000000000      0.690595000000000
C       3.750967000000000     -3.140992000000000      3.378943000000000
H       1.950691000000000     -5.050214000000000      2.680443000000000
C      -1.782592000000000      2.244282000000000     -0.010471000000000
C      -2.537004000000000      2.435073000000000      1.153558000000000
C      -0.894143000000000      3.234420000000000     -0.420608000000000
C      -2.414794000000000      3.603718000000000      1.901989000000000
H      -3.210298000000000      1.649817000000000      1.494379000000000
C      -0.731968000000000      4.404208000000000      0.327774000000000
H      -0.283850000000000      3.070102000000000     -1.304874000000000
C      -1.502920000000000      4.573728000000000      1.476157000000000
C      -3.232751000000000      3.816334000000000      3.151056000000000
C       0.312384000000000      5.422566000000000     -0.047409000000000
H      -1.370782000000000      5.475546000000000      2.072800000000000
C      -3.622861000000000      0.466183000000000     -1.358724000000000
C      -4.573337000000000      1.461006000000000     -1.136911000000000
C      -4.004603000000000     -0.683371000000000     -2.067426000000000
C      -5.891411000000000      1.312869000000000     -1.587679000000000
H      -4.299355000000000      2.375158000000000     -0.619307000000000
C      -5.312022000000000     -0.865620000000000     -2.504509000000000
H      -3.266702000000000     -1.451150000000000     -2.285199000000000
C      -6.246504000000000      0.146101000000000     -2.255334000000000
C      -6.892398000000000      2.416998000000000     -1.357079000000000
C      -5.717775000000000     -2.118354000000000     -3.238885000000000
H      -7.270162000000000      0.021354000000000     -2.604278000000000
H       0.511255000000000      1.232204000000000     -1.916623000000000
C      -0.785248000000000     -1.972191000000000     -2.577018000000000
O      -1.178228000000000     -2.960917000000000     -3.010185000000000
Rh     -0.096921000000000     -0.229662000000000     -2.074342000000000
H      -0.368438000000000      1.634210000000000      2.983018000000000
H       0.582736000000000     -1.319891000000000      3.034570000000000
C      -2.363254000000000     -2.520457000000000      1.793713000000000
C      -3.279598000000000     -3.588596000000000      1.986048000000000
C      -1.208584000000000     -2.447835000000000      2.611832000000000
C      -3.045522000000000     -4.543757000000000      2.943021000000000
H      -4.165267000000000     -3.637143000000000      1.357892000000000
C      -0.989681000000000     -3.447811000000000      3.594450000000000
C      -1.885725000000000     -4.474291000000000      3.755305000000000
H      -3.747729000000000     -5.359929000000000      3.081081000000000
H      -0.093814000000000     -3.387878000000000      4.207565000000000
H      -1.711107000000000     -5.238878000000000      4.505801000000000
C       3.457651000000000      3.765110000000000      1.569277000000000
C       3.302894000000000      4.773877000000000      2.486030000000000
C       2.190709000000000      4.776041000000000      3.366329000000000
C       1.267123000000000      3.763110000000000      3.315513000000000
C       1.406492000000000      2.705298000000000      2.379631000000000
C       2.508867000000000      2.710720000000000      1.488748000000000
H       4.304120000000000      3.758940000000000      0.887509000000000
H       4.029723000000000      5.578375000000000      2.539494000000000
H       2.076517000000000      5.583559000000000      4.082723000000000
H       0.409417000000000      3.757256000000000      3.983845000000000
H      -6.197615000000000     -1.877392000000000     -4.192629000000000
H      -6.433914000000000     -2.703517000000000     -2.651978000000000
H      -4.852071000000000     -2.752979000000000     -3.445237000000000
H      -6.661435000000000      3.289123000000000     -1.978064000000000
H      -6.881581000000000      2.747877000000000     -0.314010000000000
H      -7.906725000000000      2.090853000000000     -1.600748000000000
H      -3.680447000000000      2.880273000000000      3.495073000000000
H      -4.044990000000000      4.529816000000000      2.973610000000000
H      -2.618231000000000      4.219376000000000      3.962501000000000
H       1.209277000000000      5.285898000000000      0.569396000000000
H      -0.048428000000000      6.442939000000000      0.112792000000000
H       0.607469000000000      5.321029000000000     -1.095075000000000
H       6.897588000000000     -2.745210000000000     -2.021647000000000
H       7.140729000000000     -1.858160000000000     -0.516788000000000
H       7.942693000000000     -1.318358000000000     -2.001229000000000
H       3.999011000000000      2.577110000000000     -4.338499000000000
H       5.298606000000000      1.686252000000000     -5.144753000000000
H       5.683008000000000      2.818110000000000     -3.847277000000000
H       0.374396000000000     -6.254616000000000      1.311199000000000
H       0.064634000000000     -5.717639000000000     -0.352184000000000
H      -0.880035000000000     -5.050138000000000      0.986228000000000
H       4.192951000000000     -2.152553000000000      3.528306000000000
H       4.568759000000000     -3.860146000000000      3.260426000000000
H       3.208937000000000     -3.412957000000000      4.290512000000000
