146

C      -2.392051000000000     -2.099466000000000      0.790252000000000
C      -1.653602000000000     -0.948853000000000      0.643464000000000
C      -0.439647000000000     -0.790532000000000      1.410055000000000
C      -0.027059000000000     -1.819548000000000      2.222016000000000
H      -3.313327000000000     -2.229517000000000      0.228853000000000
C       0.374037000000000      0.477530000000000      1.463945000000000
C       0.098531000000000      1.329435000000000      2.508594000000000
C       1.449932000000000      0.805152000000000      0.566897000000000
C       2.159761000000000      1.967052000000000      0.764628000000000
H       2.982737000000000      2.221343000000000      0.101398000000000
P      -2.028550000000000      0.224057000000000     -0.749059000000000
P       1.828439000000000     -0.317960000000000     -0.862470000000000
C       3.345731000000000      0.424746000000000     -1.596240000000000
C       4.617375000000000     -0.112329000000000     -1.390849000000000
C       3.166498000000000      1.547304000000000     -2.400144000000000
C       5.733820000000000      0.509517000000000     -1.964512000000000
H       4.731100000000000     -1.011249000000000     -0.802301000000000
C       4.276546000000000      2.185497000000000     -2.987730000000000
H       2.159803000000000      1.912905000000000     -2.564091000000000
C       5.554448000000000      1.663257000000000     -2.738370000000000
N       7.040467000000000      0.034386000000000     -1.729556000000000
N       4.102734000000000      3.308118000000000     -3.789916000000000
H       6.432280000000000      2.169840000000000     -3.116970000000000
C       2.449506000000000     -1.756471000000000      0.113331000000000
C       1.951795000000000     -3.022953000000000     -0.132308000000000
C       3.325227000000000     -1.520709000000000      1.184095000000000
C       2.293101000000000     -4.101740000000000      0.718104000000000
H       1.257429000000000     -3.172540000000000     -0.948406000000000
C       3.698007000000000     -2.575629000000000      2.017831000000000
H       3.692612000000000     -0.515905000000000      1.357786000000000
C       3.166531000000000     -3.854666000000000      1.784642000000000
N       1.744749000000000     -5.353633000000000      0.508348000000000
N       4.539079000000000     -2.387267000000000      3.137484000000000
H       3.394642000000000     -4.638334000000000      2.496448000000000
C      -2.149405000000000      1.815964000000000      0.159448000000000
C      -2.868707000000000      1.874943000000000      1.361653000000000
C      -1.433302000000000      2.905889000000000     -0.299536000000000
C      -2.838627000000000      3.045777000000000      2.121019000000000
H      -3.405587000000000      0.996407000000000      1.702412000000000
C      -1.392979000000000      4.101168000000000      0.452656000000000
H      -0.861784000000000      2.804172000000000     -1.212463000000000
C      -2.096626000000000      4.145474000000000      1.661541000000000
N      -3.467382000000000      3.138494000000000      3.385941000000000
N      -0.644048000000000      5.177813000000000      0.006019000000000
H      -2.003687000000000      5.004614000000000      2.313873000000000
C      -3.771737000000000     -0.163589000000000     -1.213354000000000
C      -4.853915000000000      0.626280000000000     -0.821754000000000
C      -3.965003000000000     -1.282248000000000     -2.017933000000000
C      -6.152207000000000      0.262519000000000     -1.202120000000000
H      -4.682025000000000      1.523618000000000     -0.245616000000000
C      -5.263102000000000     -1.672630000000000     -2.402391000000000
H      -3.104337000000000     -1.853961000000000     -2.340707000000000
C      -6.346230000000000     -0.894979000000000     -1.967447000000000
N      -7.274466000000000      1.005649000000000     -0.782043000000000
N      -5.452538000000000     -2.802538000000000     -3.185578000000000
H      -7.359455000000000     -1.200716000000000     -2.192469000000000
H       0.188563000000000      1.211227000000000     -1.890093000000000
C      -0.572115000000000     -2.205934000000000     -2.286892000000000
O      -0.838691000000000     -3.283630000000000     -2.589898000000000
Rh     -0.160075000000000     -0.346705000000000     -1.958440000000000
H      -0.705548000000000      1.078080000000000      3.196281000000000
H       0.900189000000000     -1.712595000000000      2.782229000000000
C      -1.958379000000000     -3.175659000000000      1.609031000000000
C      -2.680821000000000     -4.394346000000000      1.695744000000000
C      -0.735771000000000     -3.045549000000000      2.315519000000000
C      -2.194397000000000     -5.441973000000000      2.437275000000000
H      -3.618125000000000     -4.485310000000000      1.152594000000000
C      -0.254125000000000     -4.142395000000000      3.074305000000000
C      -0.966182000000000     -5.315707000000000      3.131425000000000
H      -2.748558000000000     -6.373842000000000      2.493361000000000
H       0.694821000000000     -4.037482000000000      3.595362000000000
H      -0.590943000000000     -6.153016000000000      3.712572000000000
C       2.576051000000000      4.075491000000000      2.014248000000000
C       2.267579000000000      4.910244000000000      3.058435000000000
C       1.208549000000000      4.586714000000000      3.945433000000000
C       0.487213000000000      3.433162000000000      3.770155000000000
C       0.801520000000000      2.542967000000000      2.710042000000000
C       1.853913000000000      2.867790000000000      1.818277000000000
H       3.382698000000000      4.318501000000000      1.326802000000000
H       2.829262000000000      5.827627000000000      3.206991000000000
H       0.966841000000000      5.262780000000000      4.759919000000000
H      -0.346934000000000      3.190342000000000      4.424154000000000
C      -4.351288000000000     -3.737405000000000     -3.315358000000000
H      -3.976629000000000     -4.088052000000000     -2.340840000000000
H      -4.686171000000000     -4.601014000000000     -3.891369000000000
H      -3.511834000000000     -3.285209000000000     -3.852754000000000
C      -6.796701000000000     -3.310385000000000     -3.349536000000000
H      -7.431353000000000     -2.567031000000000     -3.843247000000000
H      -6.767448000000000     -4.194141000000000     -3.988290000000000
H      -7.270853000000000     -3.583829000000000     -2.393656000000000
C      -8.227708000000000      1.387678000000000     -1.813324000000000
H      -9.162711000000000      1.701108000000000     -1.339505000000000
H      -7.854524000000000      2.220379000000000     -2.432339000000000
H      -8.447939000000000      0.547701000000000     -2.471150000000000
C      -7.026835000000000      2.090528000000000      0.145861000000000
H      -7.988693000000000      2.462844000000000      0.509342000000000
H      -6.453183000000000      1.727495000000000      1.002790000000000
H      -6.478541000000000      2.934822000000000     -0.306318000000000
C      -4.045976000000000      1.915745000000000      3.905026000000000
H      -4.923660000000000      1.572191000000000      3.329251000000000
H      -3.301347000000000      1.115723000000000      3.906285000000000
H      -4.364214000000000      2.090561000000000      4.936307000000000
C      -4.378199000000000      4.263132000000000      3.550448000000000
H      -4.617027000000000      4.381057000000000      4.611448000000000
H      -3.919962000000000      5.187240000000000      3.199158000000000
H      -5.320465000000000      4.113380000000000      2.995453000000000
C       0.370099000000000      4.931195000000000     -1.001777000000000
H       0.952077000000000      5.843187000000000     -1.146705000000000
H       1.054293000000000      4.117360000000000     -0.714672000000000
H      -0.084836000000000      4.669210000000000     -1.964131000000000
C      -0.457750000000000      6.302572000000000      0.897616000000000
H      -1.425512000000000      6.749737000000000      1.150162000000000
H       0.052264000000000      6.023550000000000      1.831289000000000
H       0.135312000000000      7.063999000000000      0.388512000000000
C       7.881977000000000     -0.167059000000000     -2.899746000000000
H       7.811281000000000      0.679981000000000     -3.581223000000000
H       8.924446000000000     -0.259330000000000     -2.580696000000000
H       7.605509000000000     -1.078815000000000     -3.454802000000000
C       7.177293000000000     -1.050498000000000     -0.778944000000000
H       6.674167000000000     -0.794461000000000      0.157366000000000
H       6.764026000000000     -2.006007000000000     -1.145093000000000
H       8.240627000000000     -1.196336000000000     -0.569118000000000
C       2.838203000000000      4.011872000000000     -3.710800000000000
H       2.015696000000000      3.377799000000000     -4.055488000000000
H       2.606103000000000      4.346794000000000     -2.687023000000000
H       2.877522000000000      4.885221000000000     -4.363596000000000
C       5.271125000000000      4.081708000000000     -4.149919000000000
H       5.810625000000000      4.477928000000000     -3.274845000000000
H       5.969164000000000      3.472957000000000     -4.733283000000000
H       4.962687000000000      4.919545000000000     -4.776932000000000
C       2.052072000000000     -6.410878000000000      1.442644000000000
H       1.592695000000000     -7.337256000000000      1.094732000000000
H       3.134816000000000     -6.571211000000000      1.492764000000000
H       1.686955000000000     -6.203753000000000      2.460914000000000
C       0.521142000000000     -5.449710000000000     -0.270125000000000
H      -0.248256000000000     -4.749280000000000      0.084925000000000
H       0.705811000000000     -5.248298000000000     -1.331153000000000
H       0.127753000000000     -6.463597000000000     -0.184105000000000
C       5.716456000000000     -3.241292000000000      3.190149000000000
H       6.145214000000000     -3.203725000000000      4.195955000000000
H       5.453765000000000     -4.275747000000000      2.968919000000000
H       6.489875000000000     -2.921771000000000      2.470125000000000
C       4.860913000000000     -1.015954000000000      3.475937000000000
H       3.945208000000000     -0.425270000000000      3.561205000000000
H       5.369513000000000     -1.005917000000000      4.443863000000000
H       5.522460000000000     -0.529833000000000      2.736913000000000
