98

C       2.553819000000000     -1.466036000000000     -0.754783000000000
C       1.636009000000000     -0.460480000000000     -0.553800000000000
C       0.485882000000000     -0.381211000000000     -1.424945000000000
C       0.374518000000000     -1.278786000000000     -2.462358000000000
H       3.428335000000000     -1.536281000000000     -0.113411000000000
C      -0.598457000000000      0.661845000000000     -1.343920000000000
C      -0.556829000000000      1.663198000000000     -2.286837000000000
C      -1.703171000000000      0.626295000000000     -0.419334000000000
C      -2.654112000000000      1.618772000000000     -0.468857000000000
H      -3.493364000000000      1.602768000000000      0.221514000000000
P       1.806483000000000      0.677274000000000      0.914508000000000
P      -1.784143000000000     -0.685329000000000      0.893666000000000
C      -3.476523000000000     -0.504288000000000      1.592368000000000
C      -4.544837000000000     -1.323211000000000      1.236292000000000
C      -3.636217000000000      0.484691000000000      2.566729000000000
C      -5.792991000000000     -1.143654000000000      1.850953000000000
H      -4.422491000000000     -2.109016000000000      0.498466000000000
C      -4.884972000000000      0.682260000000000      3.165700000000000
H      -2.784027000000000      1.090246000000000      2.867431000000000
C      -5.958724000000000     -0.135997000000000      2.801682000000000
N      -6.877438000000000     -1.935642000000000      1.466239000000000
N      -5.067778000000000      1.714307000000000      4.087361000000000
H      -6.931166000000000      0.012988000000000      3.266124000000000
C      -1.863711000000000     -2.159794000000000     -0.211542000000000
C      -2.690219000000000     -2.130687000000000     -1.339588000000000
C      -0.955451000000000     -3.194869000000000     -0.031706000000000
C      -2.602853000000000     -3.150977000000000     -2.292217000000000
H      -3.362587000000000     -1.292561000000000     -1.508939000000000
C      -0.828938000000000     -4.196931000000000     -1.005843000000000
H      -0.283607000000000     -3.195861000000000      0.818705000000000
C      -1.672608000000000     -4.179478000000000     -2.116829000000000
N      -3.360848000000000     -3.090237000000000     -3.466164000000000
N       0.133097000000000     -5.197450000000000     -0.869986000000000
H      -1.566439000000000     -4.946236000000000     -2.881539000000000
C       1.687801000000000      2.292873000000000      0.039648000000000
C       2.460126000000000      2.501443000000000     -1.107304000000000
C       0.722225000000000      3.215705000000000      0.420468000000000
C       2.279525000000000      3.661657000000000     -1.866378000000000
H       3.186336000000000      1.756748000000000     -1.425742000000000
C       0.492255000000000      4.350420000000000     -0.373217000000000
H       0.088675000000000      3.016370000000000      1.279726000000000
C       1.295135000000000      4.580082000000000     -1.491081000000000
N       3.090614000000000      3.913836000000000     -2.976103000000000
N      -0.529625000000000      5.244276000000000     -0.050699000000000
H       1.122988000000000      5.465815000000000     -2.099185000000000
C       3.588516000000000      0.560071000000000      1.397746000000000
C       4.515407000000000      1.564013000000000      1.125484000000000
C       3.972468000000000     -0.559296000000000      2.142037000000000
C       5.838160000000000      1.437839000000000      1.576480000000000
H       4.230003000000000      2.454543000000000      0.577542000000000
C       5.293264000000000     -0.697701000000000      2.582804000000000
H       3.245625000000000     -1.321274000000000      2.405852000000000
C       6.223020000000000      0.304138000000000      2.291791000000000
N       6.777041000000000      2.419687000000000      1.256984000000000
N       5.661897000000000     -1.789791000000000      3.367832000000000
H       7.247973000000000      0.208038000000000      2.643176000000000
H      -0.578339000000000      1.190027000000000      1.973286000000000
C       0.826542000000000     -1.974059000000000      2.579671000000000
O       1.252229000000000     -2.959830000000000      2.991557000000000
Rh      0.084193000000000     -0.250907000000000      2.105258000000000
H       0.268374000000000      1.684139000000000     -2.994722000000000
H      -0.485835000000000     -1.213465000000000     -3.124853000000000
C       2.401742000000000     -2.440232000000000     -1.776071000000000
C       3.315487000000000     -3.516316000000000     -1.938383000000000
C       1.299723000000000     -2.334252000000000     -2.660394000000000
C       3.131274000000000     -4.445356000000000     -2.931324000000000
H       4.162666000000000     -3.588954000000000     -1.261098000000000
C       1.136276000000000     -3.300937000000000     -3.686664000000000
C       2.028810000000000     -4.336042000000000     -3.818000000000000
H       3.833116000000000     -5.265426000000000     -3.047801000000000
H       0.281571000000000     -3.210816000000000     -4.352626000000000
H       1.899805000000000     -5.072122000000000     -4.605914000000000
C      -3.518840000000000      3.756223000000000     -1.397575000000000
C      -3.399193000000000      4.791404000000000     -2.289986000000000
C      -2.332803000000000      4.808001000000000     -3.226577000000000
C      -1.416109000000000      3.786971000000000     -3.247444000000000
C      -1.511359000000000      2.709582000000000     -2.328515000000000
C      -2.573570000000000      2.694721000000000     -1.390364000000000
H      -4.334994000000000      3.732934000000000     -0.679899000000000
H      -4.122563000000000      5.600891000000000     -2.286996000000000
H      -2.251713000000000      5.629880000000000     -3.931506000000000
H      -0.591670000000000      3.793576000000000     -3.956372000000000
H       6.638324000000000     -2.046500000000000      3.306902000000000
H       5.055984000000000     -2.594988000000000      3.277905000000000
H       6.372772000000000      3.323965000000000      1.048841000000000
H       7.539868000000000      2.500887000000000      1.916884000000000
H       3.500010000000000      3.084716000000000     -3.387637000000000
H       2.668162000000000      4.506284000000000     -3.679376000000000
H      -1.248432000000000      4.824711000000000      0.527950000000000
H      -0.955753000000000      5.670406000000000     -0.867387000000000
H      -7.598407000000000     -2.025773000000000      2.170736000000000
H      -6.612738000000000     -2.840607000000000      1.098157000000000
H      -4.216653000000000      2.006388000000000      4.551115000000000
H      -5.811921000000000      1.553637000000000      4.754075000000000
H      -3.563991000000000     -3.992976000000000     -3.876486000000000
H      -4.199877000000000     -2.529801000000000     -3.385224000000000
H       0.514130000000000     -5.504172000000000     -1.758977000000000
H       0.888531000000000     -4.935436000000000     -0.246764000000000
