120

H       5.755446000000000      4.232412000000000     -3.761896000000000
C      -1.084569000000000      0.137807000000000      2.036022000000000
C       6.190056000000000     -1.499999000000000      0.783066000000000
C       0.100925000000000      0.922375000000000      3.941759000000000
C       5.340622000000000      0.465418000000000     -1.033193000000000
C       3.859878000000000      3.229784000000000     -3.952558000000000
H       3.473592000000000      3.923399000000000     -4.692118000000000
C      -3.535881000000000      3.988101000000000     -1.346762000000000
C      -0.021766000000000     -0.731188000000000      1.728450000000000
C      -5.115501000000000      3.946275000000000     -3.169094000000000
C       3.578269000000000      1.284311000000000     -2.580743000000000
C      -4.178013000000000      4.632699000000000     -2.399862000000000
H       8.044890000000001     -1.478166000000000     -0.311141000000000
C      -3.840656000000000      2.659624000000000     -1.076193000000000
H       6.508631000000000     -2.269794000000000      1.478179000000000
C       5.140729000000000      3.401929000000000     -3.430939000000000
H       2.072239000000000      1.993863000000000     -3.917975000000000
H       1.942901000000000     -1.354800000000000      2.248904000000000
C      -6.651379000000000     -1.279469000000000     -1.183002000000000
Rh      0.160141000000000      1.491321000000000     -0.658937000000000
H      -3.946622000000000      5.670298000000000     -2.616974000000000
C       0.615033000000000     -3.181519000000000     -1.170299000000000
C       5.631740000000000      2.516081000000000     -2.476499000000000
C      -4.295659000000000     -1.691122000000000     -0.888255000000000
C      -1.079597000000000      0.937499000000000      3.184137000000000
C       3.070179000000000      2.165154000000000     -3.526840000000000
C      -0.445599000000000     -4.046270000000000     -0.904729000000000
H       4.224982000000000     -1.279139000000000      1.667086000000000
C      -5.405235000000000      2.614211000000000     -2.890850000000000
C      -1.243171000000000     -2.693398000000000      0.884332000000000
H      -2.813042000000000      4.497068000000000     -0.716823000000000
O      -2.161789000000000      0.192325000000000      1.152092000000000
H      -5.615406000000000      4.446186000000000     -3.992014000000000
O       3.279460000000000      0.644776000000000      0.205921000000000
H       0.140489000000000      1.543140000000000      4.825067000000000
C       4.508099000000000      0.031148000000000      0.007277000000000
C       0.735011000000000     -2.053208000000000     -0.332176000000000
H      -5.812910000000000     -3.186335000000000     -0.617824000000000
C      -6.377669000000000      0.046420000000000     -1.499067000000000
C       1.221447000000000      0.158393000000000      3.622513000000000
C      -4.768649000000000      1.943593000000000     -1.842836000000000
H      -6.119504000000000      2.070500000000000     -3.502502000000000
O      -2.712077000000000      0.018038000000000     -1.323809000000000
O      -3.266907000000000      2.043985000000000      0.018663000000000
H      -3.447247000000000     -2.331099000000000     -0.670586000000000
P      -1.992394000000000      1.018063000000000     -0.255355000000000
O       2.830934000000000      0.183236000000000     -2.203017000000000
H      -0.542025000000000     -4.941882000000000     -1.505112000000000
O       1.865836000000000     -1.265837000000000     -0.481162000000000
H       6.621723000000000      2.659774000000000     -2.052989000000000
H      -7.189594000000000      0.734238000000000     -1.717560000000000
C       4.914608000000000     -0.956298000000000      0.895339000000000
C       6.621104000000000     -0.088319000000000     -1.120835000000000
C      -1.383912000000000     -3.838983000000000      0.113313000000000
C       4.854592000000000      1.445491000000000     -2.027380000000000
P       2.003573000000000      0.326905000000000     -0.780844000000000
H      -7.677906000000000     -1.630195000000000     -1.169226000000000
H      -1.936988000000000     -2.475694000000000      1.689694000000000
C      -0.178041000000000     -1.799758000000000      0.696872000000000
H       7.270934000000000      0.230807000000000     -1.930708000000000
C      -4.037769000000000     -0.366587000000000     -1.210303000000000
C      -5.065547000000000      0.532970000000000     -1.515638000000000
C       1.127891000000000     -0.687812000000000      2.513781000000000
C      -5.607780000000000     -2.150207000000000     -0.871942000000000
C       7.049575000000000     -1.056538000000000     -0.219092000000000
H      -0.111013000000000      0.449432000000000     -1.840701000000000
C       0.631227000000000      2.768269000000000      0.770911000000000
O       0.971861000000000      3.487780000000000      1.586687000000000
C      -2.447778000000000     -4.907179000000000      0.390745000000000
C       1.575247000000000     -3.454080000000000     -2.340771000000000
C      -2.258453000000000      1.824151000000000      3.628260000000000
C       2.512240000000000      0.248018000000000      4.441896000000000
C      -3.220751000000000     -5.259236000000000     -0.892009000000000
H      -3.972846000000000     -6.025470000000000     -0.672660000000000
H      -3.734161000000000     -4.387172000000000     -1.309023000000000
H      -2.561389000000000     -5.658354000000000     -1.668435000000000
C      -1.735138000000000     -6.173254000000000      0.900095000000000
H      -1.031547000000000     -6.559980000000000      0.155901000000000
H      -1.174575000000000     -5.958754000000000      1.815699000000000
H      -2.466603000000000     -6.959822000000000      1.118104000000000
C      -3.450641000000000     -4.460816000000000      1.461264000000000
H      -4.204059000000000     -5.242665000000000      1.603565000000000
H      -2.960273000000000     -4.295188000000000      2.426042000000000
H      -3.970754000000000     -3.537987000000000      1.182073000000000
C       1.298756000000000     -2.422035000000000     -3.448090000000000
H       1.982588000000000     -2.586080000000000     -4.289322000000000
H       0.270745000000000     -2.521660000000000     -3.812950000000000
H       1.443115000000000     -1.400083000000000     -3.096455000000000
C       3.057572000000000     -3.398372000000000     -1.914682000000000
H       3.402210000000000     -2.383091000000000     -1.721985000000000
H       3.226457000000000     -3.999138000000000     -1.013942000000000
H       3.674482000000000     -3.815778000000000     -2.718016000000000
C       1.339422000000000     -4.847864000000000     -2.943770000000000
H       2.051014000000000     -5.002770000000000     -3.760244000000000
H       1.495560000000000     -5.642750000000000     -2.205804000000000
H       0.334434000000000     -4.952635000000000     -3.364602000000000
C      -2.169176000000000      3.186525000000000      2.919853000000000
H      -3.005165000000000      3.823409000000000      3.232832000000000
H      -1.233443000000000      3.694021000000000      3.176857000000000
H      -2.223306000000000      3.079659000000000      1.833685000000000
C      -3.626850000000000      1.173752000000000      3.344572000000000
H      -3.650673000000000      0.141063000000000      3.710293000000000
H      -4.402830000000000      1.737073000000000      3.873823000000000
H      -3.877860000000000      1.169408000000000      2.285329000000000
C      -2.199339000000000      2.082141000000000      5.145595000000000
H      -1.348869000000000      2.706242000000000      5.434676000000000
H      -3.104141000000000      2.617372000000000      5.448998000000000
H      -2.151373000000000      1.145009000000000      5.710638000000000
C       2.276995000000000      0.872003000000000      5.824003000000000
H       1.971725000000000      1.920489000000000      5.752483000000000
H       1.512804000000000      0.325665000000000      6.387648000000000
H       3.208660000000000      0.844363000000000      6.398217000000000
C       3.118108000000000     -1.147351000000000      4.659940000000000
H       3.405229000000000     -1.628883000000000      3.721120000000000
H       4.021743000000000     -1.067476000000000      5.273442000000000
H       2.410121000000000     -1.806504000000000      5.173304000000000
C       3.508272000000000      1.131649000000000      3.671640000000000
H       4.460085000000000      1.197026000000000      4.211943000000000
H       3.701017000000000      0.735579000000000      2.671139000000000
H       3.107263000000000      2.143885000000000      3.551670000000000
