72

Br     -1.610152000000000      3.059284000000000      2.712944000000000
C       4.257979000000000      0.331947000000000     -1.681320000000000
C      -3.858769000000000     -3.625283000000000     -0.758375000000000
C       5.884470000000000      0.542459000000000     -3.437478000000000
C      -2.317482000000000     -1.861730000000000      0.800873000000000
C       0.006748000000000      0.777470000000000      3.270458000000000
H       0.588950000000000      1.453862000000000      3.885878000000000
C      -1.370178000000000     -0.919343000000000     -2.509153000000000
C       5.140859000000000     -0.425197000000000     -0.899208000000000
C      -3.293332000000000      0.363900000000000     -1.898291000000000
C      -0.344100000000000     -1.395944000000000      2.286686000000000
C      -2.746938000000000     -0.751595000000000     -2.524359000000000
Br     -6.354091000000000     -2.648396000000000      0.199569000000000
C      -0.552615000000000      0.012312000000000     -1.879227000000000
H      -4.462652000000000     -4.306071000000000     -1.347330000000000
C      -1.123037000000000      1.235321000000000      2.599133000000000
H       1.264505000000000     -0.943265000000000      3.620045000000000
H       7.106207000000000     -1.267619000000000     -0.839472000000000
C       0.195338000000000      4.604775000000000     -0.370033000000000
Rh      2.614688000000000     -2.123459000000000      0.221276000000000
H      -3.391025000000000     -1.495765000000000     -2.977872000000000
C       4.258008000000000     -0.603960000000000      2.846537000000000
C      -1.885040000000000      0.383798000000000      1.812387000000000
C       1.630265000000000      2.974135000000000      0.649573000000000
C       4.617690000000000      0.814691000000000     -2.933769000000000
C       0.386181000000000     -0.550014000000000      3.117441000000000
C       4.175974000000000     -1.947388000000000      3.011799000000000
H      -1.961695000000000     -4.323477000000000     -1.523522000000000
C      -2.478436000000000      1.329963000000000     -1.328642000000000
C       4.890284000000000     -2.336114000000000      0.709944000000000
H      -0.906649000000000     -1.794512000000000     -2.951300000000000
O       2.983068000000000      0.658866000000000     -1.251980000000000
Br     -5.170119000000000      0.538557000000000     -1.779953000000000
O      -0.362359000000000     -2.653765000000000     -0.336389000000000
H       6.168241000000000      0.924907000000000     -4.412182000000000
C      -1.713215000000000     -2.755196000000000     -0.094590000000000
C       4.427802000000000     -0.007605000000000      1.516995000000000
H       1.892609000000000      5.101787000000000      0.855564000000000
C      -0.573477000000000      3.607018000000000     -0.952053000000000
C       6.779282000000000     -0.219114000000000     -2.690075000000000
C      -1.084878000000000      1.182069000000000     -1.317220000000000
H      -2.920343000000000      2.198776000000000     -0.850772000000000
O       1.119261000000000      0.663373000000000      0.407154000000000
O       0.810854000000000     -0.229368000000000     -1.934548000000000
H       2.492298000000000      2.677432000000000      1.241414000000000
P       1.824701000000000     -0.296794000000000     -0.661883000000000
O       0.061804000000000     -2.702810000000000      2.164480000000000
H       3.965233000000000     -2.367474000000000      3.991973000000000
O       4.320620000000000      1.201258000000000      1.309305000000000
H      -2.769032000000000      0.757597000000000      1.306598000000000
H      -1.410843000000000      3.869047000000000     -1.589554000000000
C      -2.470880000000000     -3.645922000000000     -0.845650000000000
C      -3.712972000000000     -1.839918000000000      0.871645000000000
C       4.386189000000000     -2.863593000000000      1.909044000000000
C      -1.500114000000000     -0.948047000000000      1.631503000000000
P       0.736959000000000     -3.313385000000000      0.763189000000000
Br     -0.263546000000000      6.414874000000000     -0.672225000000000
H       5.301266000000000     -2.998431000000000     -0.049342000000000
C       4.738833000000000     -0.965840000000000      0.419293000000000
H      -4.208920000000000     -1.153842000000000      1.550328000000000
C       0.839107000000000      1.986529000000000      0.082557000000000
C      -0.257382000000000      2.261453000000000     -0.731548000000000
C       6.404573000000000     -0.693036000000000     -1.437868000000000
C       1.299104000000000      4.304361000000000      0.424478000000000
C      -4.467803000000000     -2.705581000000000      0.089453000000000
H       2.178988000000000     -1.370414000000000      1.476283000000000
C       2.905077000000000     -3.214373000000000     -1.555525000000000
O       2.920527000000000     -3.781988000000000     -2.535255000000000
H       4.455969000000000     -3.927632000000000      2.104161000000000
H       4.124636000000000      0.088285000000000      3.671631000000000
H       3.893739000000000      1.398985000000000     -3.490972000000000
H       7.770524000000000     -0.434020000000000     -3.074906000000000
