80

C      -6.081537000000000      4.620659000000000      0.627636000000000
C       1.118565000000000     -1.167578000000000      2.387474000000000
C      -5.948967000000000     -2.222173000000000     -2.527171000000000
C       0.061656000000000     -0.302167000000000      4.361075000000000
C      -5.259882000000000     -0.024660000000000     -0.913706000000000
C      -4.274106000000000      3.286554000000000      1.632601000000000
H      -4.039849000000000      4.120215000000000      2.285235000000000
C       3.408262000000000      3.238243000000000      0.001767000000000
C       0.044472000000000     -2.031832000000000      2.144767000000000
C       5.204867000000000      3.678022000000000     -1.555447000000000
C      -3.855420000000000      1.053053000000000      0.857798000000000
C       4.106874000000000      4.124036000000000     -0.807252000000000
C      -8.332990000000001     -1.838916000000000     -2.046604000000000
C       3.804698000000000      1.907018000000000      0.063761000000000
H      -6.223073000000000     -3.067459000000000     -3.148626000000000
C      -5.324479000000000      3.405205000000000      0.711885000000000
H      -2.739729000000000      1.981010000000000      2.424137000000000
H      -1.886675000000000     -2.638040000000000      2.847378000000000
C       7.045266000000000     -1.679941000000000     -0.360565000000000
Rh     -0.033540000000000      0.469517000000000     -0.215292000000000
H       3.810046000000000      5.165325000000000     -0.865617000000000
C      -1.003121000000000     -3.777813000000000     -1.062205000000000
C      -5.630807000000000      2.326672000000000     -0.125831000000000
C       4.730704000000000     -2.358075000000000     -0.510152000000000
C       1.141556000000000     -0.313741000000000      3.482346000000000
C      -3.542882000000000      2.109261000000000      1.706023000000000
C       0.060825000000000     -4.650160000000000     -1.262918000000000
H      -3.823790000000000     -2.411526000000000     -2.869376000000000
C       5.586118000000000      2.333073000000000     -1.483517000000000
C       1.112060000000000     -3.814108000000000      0.738129000000000
H       2.565942000000000      3.563120000000000      0.603779000000000
O       2.176610000000000     -1.120198000000000      1.486557000000000
C       5.930312000000000      4.588715000000000     -2.393289000000000
O      -2.953141000000000     -0.403517000000000     -1.514351000000000
H       0.072397000000000      0.363703000000000      5.217913000000000
C      -4.279814000000000     -0.784955000000000     -1.565836000000000
C      -1.001156000000000     -2.932109000000000      0.040112000000000
H       6.377901000000000     -3.725971000000000     -0.305882000000000
C       6.649945000000000     -0.341514000000000     -0.455674000000000
C      -1.029504000000000     -1.136971000000000      4.131285000000000
C       4.893178000000000      1.428824000000000     -0.679916000000000
H       6.425436000000000      1.985740000000000     -2.078005000000000
O       3.027487000000000     -0.735888000000000     -0.844377000000000
O       3.156345000000000      1.047965000000000      0.926072000000000
H       3.952717000000000     -3.113291000000000     -0.546772000000000
P       2.076353000000000     -0.026067000000000      0.269866000000000
O      -3.166165000000000     -0.133028000000000      0.985856000000000
H       0.060834000000000     -5.311164000000000     -2.123278000000000
O      -2.083487000000000     -2.087561000000000      0.209034000000000
H      -6.439298000000000      2.424321000000000     -0.843627000000000
H       7.402842000000000      0.439387000000000     -0.413179000000000
C      -4.617217000000000     -1.870927000000000     -2.365273000000000
C      -6.594815000000000     -0.391597000000000     -1.088843000000000
C       1.123049000000000     -4.665414000000000     -0.361790000000000
C      -4.904479000000000      1.137333000000000     -0.067606000000000
P      -2.035936000000000     -0.492015000000000     -0.156302000000000
C       8.434113999999999     -2.014231000000000     -0.230260000000000
H       1.938513000000000     -3.818481000000000      1.442636000000000
C       0.046956000000000     -2.936749000000000      0.967385000000000
H      -7.371246000000000      0.170224000000000     -0.579004000000000
C       4.360525000000000     -1.022833000000000     -0.610321000000000
C       5.305360000000000      0.010324000000000     -0.579180000000000
C      -1.033311000000000     -1.993803000000000      3.034494000000000
C       6.071731000000000     -2.688679000000000     -0.384827000000000
C      -6.952904000000000     -1.481701000000000     -1.888349000000000
H       0.195652000000000     -0.815375000000000     -1.144587000000000
C      -0.242986000000000      2.083513000000000      0.870591000000000
O      -0.294320000000000      3.041337000000000      1.490345000000000
H       1.956503000000000     -5.344231000000000     -0.511689000000000
H      -1.842678000000000     -3.734171000000000     -1.747681000000000
H       1.999020000000000      0.338284000000000      3.616606000000000
H      -1.878338000000000     -1.125291000000000      4.806821000000000
C      -9.493088999999999     -2.139671000000000     -2.181397000000000
H     -10.519628000000001     -2.405170000000000     -2.299248000000000
C      -6.718203000000000      5.642555000000000      0.558886000000000
H      -7.280700000000000      6.546883000000000      0.495729000000000
C       9.601512000000000     -2.296847000000000     -0.121597000000000
H      10.634442000000000     -2.545587000000000     -0.025035000000000
C       6.540635000000000      5.355278000000000     -3.096342000000000
H       7.079750000000000      6.032573000000000     -3.719893000000000
