84

C      -7.954289000000000      3.036688000000000      1.076963000000000
C       1.043474000000000     -2.162253000000000      2.186046000000000
C      -4.660136000000000     -3.202170000000000     -1.572696000000000
C      -0.331250000000000     -4.099929000000000      2.544136000000000
C      -4.955683000000000     -0.556929000000000     -0.663183000000000
C      -5.481474000000000      3.408404000000000      0.895153000000000
H      -5.625638000000000      4.411376000000000      1.281339000000000
C       5.217909000000000     -2.662757000000000     -0.079031000000000
C       0.106036000000000     -1.335091000000000      2.821700000000000
C       7.335137000000000     -1.532656000000000      0.020718000000000
C      -4.042251000000000      1.663894000000000      0.083405000000000
C       6.590616000000000     -2.706134000000000      0.119274000000000
C      -6.560466000000000     -2.897722000000000     -3.174076000000000
C       4.602276000000000     -1.450850000000000     -0.371109000000000
H      -4.561367000000000     -4.223780000000000     -1.922874000000000
C      -6.578336000000000      2.574907000000000      0.691847000000000
H      -3.333520000000000      3.578140000000000      0.704240000000000
H      -1.816482000000000     -1.300330000000000      3.764668000000000
C       4.626432000000000      3.191770000000000     -1.853448000000000
Rh     -0.008018000000000     -0.546545000000000     -0.471197000000000
H       7.084971000000000     -3.646111000000000      0.339345000000000
C      -0.352109000000000      2.436194000000000      2.647150000000000
C      -6.406687000000000      1.290906000000000      0.188520000000000
C       2.869877000000000      2.617764000000000     -0.314907000000000
C       0.840121000000000     -3.528781000000000      2.053508000000000
C      -4.208447000000000      2.948953000000000      0.586320000000000
C       0.830302000000000      2.883170000000000      3.229782000000000
H      -3.019684000000000     -3.317165000000000     -0.162812000000000
C       6.713866000000000     -0.323661000000000     -0.265331000000000
C       1.528102000000000      0.599701000000000      3.544241000000000
H       4.607426000000000     -3.557364000000000     -0.031067000000000
O       2.199753000000000     -1.622692000000000      1.635598000000000
C       8.811472999999999     -1.566975000000000      0.292479000000000
O      -3.127837000000000     -0.930217000000000      0.838446000000000
H      -0.494036000000000     -5.167581000000000      2.438872000000000
C      -3.944535000000000     -1.392089000000000     -0.168079000000000
C      -0.585143000000000      1.072700000000000      2.522463000000000
H       2.984114000000000      4.492310000000000     -1.366981000000000
C       5.239734000000000      1.962063000000000     -1.637627000000000
C      -1.290152000000000     -3.296787000000000      3.155780000000000
C       5.332901000000000     -0.257979000000000     -0.465096000000000
H       7.303582000000000      0.586061000000000     -0.323223000000000
O       2.954444000000000      0.519866000000000      0.815533000000000
O       3.255794000000000     -1.468881000000000     -0.676387000000000
H       1.962682000000000      2.841706000000000      0.236589000000000
P       2.094758000000000     -0.758657000000000      0.244899000000000
O      -2.777633000000000      1.282597000000000     -0.314157000000000
H       1.011559000000000      3.948389000000000      3.331073000000000
O      -1.786228000000000      0.675726000000000      1.959812000000000
H      -7.269618000000000      0.647396000000000      0.045477000000000
H       6.159902000000000      1.717455000000000     -2.159958000000000
C      -3.796352000000000     -2.703376000000000     -0.606065000000000
C      -5.816565000000000     -1.077577000000000     -1.630705000000000
C       1.773425000000000      1.961824000000000      3.676965000000000
C      -5.134066000000000      0.809290000000000     -0.124104000000000
P      -1.908717000000000      0.104184000000000      0.431792000000000
C       5.224200000000000      4.139966000000000     -2.853183000000000
H       2.268630000000000     -0.121620000000000      3.875336000000000
C       0.345573000000000      0.124805000000000      2.968009000000000
H      -6.605686000000000     -0.452435000000000     -2.037410000000000
C       3.485525000000000      1.388662000000000     -0.111364000000000
C       4.675655000000000      1.034115000000000     -0.761541000000000
C      -1.067880000000000     -1.929605000000000      3.293739000000000
C       3.444812000000000      3.525811000000000     -1.195822000000000
C      -5.665290000000000     -2.383702000000000     -2.082936000000000
H       0.262420000000000      0.996031000000000     -0.150176000000000
C      -0.351546000000000     -2.422387000000000     -0.961003000000000
O      -0.523543000000000     -3.504542000000000     -1.275937000000000
H       2.700484000000000      2.301065000000000      4.126280000000000
H      -1.107823000000000      3.126474000000000      2.287291000000000
H       1.596394000000000     -4.122343000000000      1.549888000000000
H      -2.209850000000000     -3.732351000000000      3.531649000000000
F      -7.765175000000000     -2.310954000000000     -3.142445000000000
F      -6.747209000000000     -4.221271000000000     -3.074763000000000
F      -6.041249000000000     -2.664302000000000     -4.388039000000000
F      -8.064842000000001      4.370479000000000      1.007583000000000
F      -8.260709000000000      2.681159000000000      2.333393000000000
F      -8.893133000000001      2.505846000000000      0.280812000000000
F       6.563680000000000      4.075746000000000     -2.852257000000000
F       4.875928000000000      5.409358000000000     -2.601781000000000
F       4.821109000000000      3.859521000000000     -4.100828000000000
F       9.075653000000001     -1.444610000000000      1.601929000000000
F       9.454409000000000     -0.571181000000000     -0.332862000000000
F       9.357653000000001     -2.723306000000000     -0.109482000000000
