80

C       3.588094000000000      3.541403000000000      3.443642000000000
C      -0.039603000000000      0.024577000000000     -2.664822000000000
C       4.458101000000000     -3.415924000000000      0.944901000000000
C       1.192572000000000     -1.075122000000000     -4.403907000000000
C       4.126595000000000     -0.615622000000000      0.930309000000000
C       3.933578000000000      3.733471000000000      1.060402000000000
H       3.871942000000000      4.814954000000000      1.128178000000000
C      -4.364674000000000     -2.955838000000000     -0.137658000000000
C       1.013180000000000      0.913069000000000     -2.421337000000000
C      -6.180445000000000     -2.254925000000000      1.278067000000000
C       4.222424000000000      1.650905000000000     -0.236494000000000
C      -5.433193000000000     -3.276223000000000      0.684298000000000
C       6.454108000000000     -3.213480000000000     -0.528949000000000
C      -4.049753000000000     -1.616926000000000     -0.358934000000000
H       4.602891000000000     -4.493496000000000      0.960821000000000
C       3.785184000000000      2.938156000000000      2.263848000000000
H       4.235387000000000      3.672667000000000     -1.039923000000000
H       2.995300000000000      1.452279000000000     -3.023942000000000
C      -5.060620000000000      3.124065000000000     -0.546676000000000
Rh     -0.104639000000000     -2.225765000000000      0.401421000000000
H      -5.708010000000000     -4.307348000000000      0.881188000000000
C       0.785934000000000      2.578213000000000      0.986955000000000
C       3.832085000000000      1.491608000000000      2.189143000000000
C      -2.726299000000000      2.586069000000000     -0.261314000000000
C       0.033295000000000     -0.960039000000000     -3.641403000000000
C       4.129242000000000      3.113023000000000     -0.116719000000000
C       0.607181000000000      3.911789000000000      0.627287000000000
H       2.696312000000000     -3.441339000000000      2.202101000000000
C      -5.850898000000000     -0.921275000000000      1.051617000000000
C       0.744712000000000      3.306910000000000     -1.699692000000000
H      -3.768019000000000     -3.718753000000000     -0.626524000000000
O      -1.224559000000000      0.174401000000000     -1.955734000000000
C      -7.324294000000000     -2.593534000000000      2.159218000000000
O       2.150450000000000     -0.935702000000000      2.288403000000000
H       1.262020000000000     -1.845720000000000     -5.164648000000000
C       3.222571000000000     -1.460680000000000      1.601839000000000
C       0.950041000000000      1.613841000000000     -0.005303000000000
H      -3.456618000000000      4.549137000000000     -0.744076000000000
C      -5.408134000000000      1.795438000000000     -0.298364000000000
C       2.250732000000000     -0.197517000000000     -4.189996000000000
C      -4.775589000000000     -0.573032000000000      0.232134000000000
H      -6.427865000000000     -0.132720000000000      1.530699000000000
O      -2.108326000000000      0.373662000000000      0.368062000000000
O      -3.036145000000000     -1.318440000000000     -1.249688000000000
H      -1.675109000000000      2.851676000000000     -0.237833000000000
P      -1.594717000000000     -0.765069000000000     -0.683674000000000
O       4.443178000000000      1.119344000000000     -1.318594000000000
H       0.481683000000000      4.660774000000000      1.403900000000000
O       1.221292000000000      0.304293000000000      0.275312000000000
H       3.699907000000000      0.916511000000000      3.100449000000000
H      -6.457243000000000      1.515585000000000     -0.341486000000000
C       3.402599000000000     -2.843071000000000      1.638672000000000
C       5.168196000000000     -1.219095000000000      0.223013000000000
C       0.602071000000000      4.283673000000000     -0.714492000000000
C       4.038111000000000      0.861460000000000      1.008801000000000
P       0.662671000000000     -0.538722000000000      1.641288000000000
C      -6.123205000000000      4.116046000000000     -0.835602000000000
H       0.718268000000000      3.579687000000000     -2.750622000000000
C       0.901847000000000      1.961102000000000     -1.366642000000000
H       5.871882000000000     -0.613158000000000     -0.336307000000000
C      -3.094317000000000      1.273745000000000      0.001058000000000
C      -4.429577000000000      0.842503000000000     -0.028126000000000
C       2.156603000000000      0.792111000000000     -3.213348000000000
C      -3.721341000000000      3.515434000000000     -0.535734000000000
C       5.331833000000000     -2.604167000000000      0.221459000000000
H      -1.185435000000000     -2.360612000000000      1.526961000000000
C       1.505842000000000     -2.289382000000000     -0.906102000000000
O       2.423182000000000     -2.369351000000000     -1.565387000000000
H       0.476040000000000      5.323940000000000     -0.995873000000000
H       0.818505000000000      2.281463000000000      2.030523000000000
H      -0.825021000000000     -1.605696000000000     -3.802688000000000
H       3.158603000000000     -0.283134000000000     -4.777142000000000
O       7.277708000000000     -2.588427000000000     -1.153741000000000
H       6.498618000000000     -4.322444000000000     -0.479580000000000
O       3.419246000000000      4.066740000000000      4.456984000000000
H       0.592915000000000     -3.181694000000000      1.420928000000000
O      -7.303066000000000      3.857138000000000     -0.855651000000000
H      -5.761072000000000      5.145690000000000     -1.037480000000000
O      -7.675340000000000     -3.723173000000000      2.402408000000000
H      -7.856140000000000     -1.722410000000000      2.594966000000000
