72

Cl      5.588688000000000      5.344847000000000     -1.418325000000000
C      -1.219617000000000     -2.489641000000000      1.444711000000000
C       6.446017000000000     -1.871871000000000      1.335819000000000
C      -0.464060000000000     -2.891990000000000      3.687816000000000
C       5.333088000000000      0.331453000000000     -0.013919000000000
C       3.589079000000000      3.648675000000000     -2.106728000000000
H       3.154759000000000      4.493147000000000     -2.629368000000000
C      -3.413215000000000      2.443499000000000      1.976106000000000
C      -0.076519000000000     -3.092441000000000      0.909776000000000
C      -5.157932000000000      3.727943000000000      0.947811000000000
C       3.538308000000000      1.343655000000000     -1.429272000000000
C      -4.091574000000000      3.649624000000000      1.838151000000000
Cl      8.947217000000000     -1.356418000000000      0.423894000000000
C      -3.806878000000000      1.340776000000000      1.227530000000000
H       6.887935000000000     -2.719239000000000      1.847210000000000
C       4.793385000000000      3.795699000000000     -1.424749000000000
H       2.023174000000000      2.248749000000000     -2.631910000000000
H       1.773793000000000     -4.046518000000000      1.406244000000000
C      -7.011100000000000     -1.245922000000000     -1.292818000000000
Rh      0.030706000000000      0.374462000000000      0.217480000000000
H      -3.800217000000000      4.520073000000000      2.414592000000000
C       1.453120000000000     -2.748574000000000     -2.549740000000000
C       5.370006000000000      2.734101000000000     -0.738008000000000
C      -4.715576000000000     -1.744396000000000     -1.768564000000000
C      -1.423937000000000     -2.388179000000000      2.815677000000000
C       2.958369000000000      2.409396000000000     -2.105681000000000
C       0.507686000000000     -3.400135000000000     -3.334952000000000
H       4.432028000000000     -2.226513000000000      2.041307000000000
C      -5.551806000000000      2.628948000000000      0.194106000000000
C      -0.818165000000000     -3.840317000000000     -1.369686000000000
H      -2.588684000000000      2.339046000000000      2.673666000000000
O      -2.172860000000000     -1.947045000000000      0.588050000000000
Cl     -6.013774000000000      5.233766000000000      0.767340000000000
O       3.209803000000000     -0.213021000000000      0.992528000000000
H      -0.617217000000000     -2.815209000000000      4.759214000000000
C       4.543182000000000     -0.513626000000000      0.776181000000000
C       1.251161000000000     -2.654573000000000     -1.178505000000000
H      -6.373668000000000     -2.950344000000000     -2.438317000000000
C      -6.637549000000000     -0.116988000000000     -0.575982000000000
C       0.690041000000000     -3.486345000000000      3.182042000000000
C      -4.874309000000000      1.414528000000000      0.321947000000000
H      -6.373957000000000      2.719943000000000     -0.508252000000000
O      -3.002890000000000     -0.256953000000000     -1.058814000000000
O      -3.180601000000000      0.127508000000000      1.421910000000000
H      -3.940732000000000     -2.349576000000000     -2.226663000000000
P      -2.074845000000000     -0.343492000000000      0.276459000000000
O       2.949670000000000      0.096602000000000     -1.492143000000000
H       0.659242000000000     -3.476896000000000     -4.406560000000000
O       2.198994000000000     -1.985386000000000     -0.415701000000000
H       6.296716000000000      2.880262000000000     -0.192593000000000
H      -7.394287000000000      0.495021000000000     -0.096192000000000
C       5.086494000000000     -1.605491000000000      1.439607000000000
C       6.699958000000000      0.056160000000000     -0.108828000000000
C      -0.631351000000000     -3.943156000000000     -2.744270000000000
C       4.741769000000000      1.486765000000000     -0.726142000000000
P       2.073860000000000     -0.373597000000000     -0.171404000000000
Cl     -8.700680000000000     -1.644594000000000     -1.433863000000000
H      -1.705131000000000     -4.258713000000000     -0.903262000000000
C       0.122947000000000     -3.199794000000000     -0.557828000000000
H       7.334821000000000      0.682582000000000     -0.727091000000000
C      -4.340656000000000     -0.610796000000000     -1.059871000000000
C      -5.286937000000000      0.218124000000000     -0.445669000000000
C       0.876581000000000     -3.584403000000000      1.807014000000000
C      -6.060800000000000     -2.069901000000000     -1.888875000000000
C       7.241913000000000     -1.031525000000000      0.563046000000000
H      -0.128128000000000     -0.251540000000000     -1.253718000000000
C       0.227009000000000      1.143121000000000      2.008030000000000
O       0.324699000000000      1.588448000000000      3.053179000000000
H      -1.372102000000000     -4.451003000000000     -3.353326000000000
H       2.342626000000000     -2.297389000000000     -2.976727000000000
H      -2.328418000000000     -1.906625000000000      3.173532000000000
H       1.442463000000000     -3.878577000000000      3.858257000000000
