84

C      -2.585353000000000      4.473800000000000      1.160439000000000
C       1.683885000000000     -2.466043000000000     -1.463066000000000
C      -6.508531000000000     -1.520802000000000     -1.135246000000000
C       0.634307000000000     -3.107340000000000     -3.523971000000000
C      -4.558915000000000     -0.048898000000000      0.294549000000000
C      -1.896987000000000      2.520120000000000      2.505921000000000
H      -1.231689000000000      3.184628000000000      3.046589000000000
C       1.992378000000000      1.473516000000000     -3.030824000000000
C       0.841438000000000     -3.311987000000000     -0.721795000000000
C       1.392661000000000      2.773972000000000     -1.037699000000000
C      -2.747016000000000      0.330216000000000      2.025550000000000
C       1.174443000000000      2.350115000000000     -2.411197000000000
C      -8.175725999999999      0.285202000000000     -0.863976000000000
C       3.150648000000000      0.884674000000000     -2.341929000000000
H      -7.267910000000000     -2.069515000000000     -1.681694000000000
C      -2.715711000000000      3.036535000000000      1.498128000000000
H      -1.252829000000000      0.709737000000000      3.503066000000000
H      -0.793334000000000     -4.686645000000000     -0.876444000000000
C       6.824991000000000      0.911447000000000      0.349729000000000
Rh     -0.172764000000000     -0.275878000000000      0.085645000000000
H       0.325699000000000      2.787197000000000     -2.929760000000000
C       0.049057000000000     -3.519442000000000      3.008371000000000
C      -3.580443000000000      2.202544000000000      0.791630000000000
C       5.351507000000000     -0.274248000000000      1.866049000000000
C       1.598920000000000     -2.367058000000000     -2.844937000000000
C      -1.912603000000000      1.159186000000000      2.769424000000000
C       1.309734000000000     -3.781249000000000      3.534960000000000
H      -4.976690000000000     -3.031065000000000     -1.294793000000000
C       2.424536000000000      2.267684000000000     -0.328394000000000
C       2.236699000000000     -3.713735000000000      1.312425000000000
H       1.865346000000000      1.210306000000000     -4.076167000000000
O       2.616258000000000     -1.655817000000000     -0.818720000000000
C       0.375626000000000      3.672536000000000     -0.421730000000000
O      -3.084937000000000     -1.996872000000000     -0.123783000000000
H       0.559556000000000     -3.031431000000000     -4.603700000000000
C      -4.281417000000000     -1.334576000000000     -0.213859000000000
C      -0.105399000000000     -3.362596000000000      1.637947000000000
H       7.482260000000000     -0.064370000000000      2.134034000000000
C       5.752790000000000      1.239876000000000     -0.486155000000000
C      -0.234607000000000     -3.931276000000000     -2.813717000000000
C       3.187602000000000      1.103852000000000     -0.845507000000000
H       2.599906000000000      2.584979000000000      0.696618000000000
O       3.011979000000000     -0.346680000000000      1.272811000000000
O       3.981449000000000      0.199315000000000     -2.909615000000000
H       5.167830000000000     -0.867610000000000      2.754127000000000
P       2.049323000000000     -0.301710000000000     -0.076488000000000
O      -2.608566000000000     -1.041480000000000      2.149364000000000
H       1.431336000000000     -3.905122000000000      4.605933000000000
O      -1.395705000000000     -3.090106000000000      1.180227000000000
H      -4.192127000000000      2.619600000000000     -0.001283000000000
H       5.918337000000000      1.806029000000000     -1.395895000000000
C      -5.252288000000000     -2.051460000000000     -0.921339000000000
C      -5.847798000000000      0.456478000000000      0.069964000000000
C       2.406478000000000     -3.873370000000000      2.683142000000000
C      -3.615395000000000      0.826822000000000      1.043087000000000
P      -1.797272000000000     -1.566561000000000      0.793380000000000
C       8.214593000000001      1.331805000000000      0.037951000000000
H       3.092159000000000     -3.780154000000000      0.647484000000000
C       0.978707000000000     -3.459259000000000      0.752752000000000
H      -6.103397000000000      1.429089000000000      0.476696000000000
C       4.304002000000000      0.056199000000000      1.019937000000000
C       4.480098000000000      0.817848000000000     -0.137140000000000
C      -0.123640000000000     -4.035434000000000     -1.429727000000000
C       6.621533000000000      0.168016000000000      1.516010000000000
C      -6.812497000000000     -0.253851000000000     -0.632351000000000
H       0.240879000000000     -0.558295000000000      1.609069000000000
C      -0.804282000000000      0.012812000000000     -1.756954000000000
O      -1.239088000000000      0.140929000000000     -2.802515000000000
H       3.395219000000000     -4.073297000000000      3.082601000000000
H      -0.827794000000000     -3.424096000000000      3.640256000000000
H       2.289973000000000     -1.704067000000000     -3.358225000000000
H      -0.993641000000000     -4.503828000000000     -3.336232000000000
O      -9.048719000000000     -0.294282000000000     -1.464047000000000
O      -8.355699000000000      1.510975000000000     -0.332853000000000
H      -9.271855000000000      1.763830000000000     -0.540845000000000
O      -1.712969000000000      5.204082000000000      1.597608000000000
O      -3.522843000000000      4.917123000000000      0.324329000000000
H      -3.290127000000000      5.836459000000000      0.103578000000000
O       9.180766999999999      1.071656000000000      0.714862000000000
O       8.302963000000000      2.052187000000000     -1.097111000000000
H       9.245162000000001      2.267235000000000     -1.208334000000000
O      -0.670002000000000      3.948014000000000     -0.973253000000000
O       0.703949000000000      4.090701000000000      0.800177000000000
H      -0.057512000000000      4.605243000000000      1.157406000000000
