72

F      -5.761149000000000      4.531858000000000     -2.420934000000000
C       1.109443000000000     -2.862824000000000     -0.172299000000000
C      -6.256134000000000     -2.256611000000000      0.627529000000000
C      -0.089040000000000     -4.548483000000000     -1.398884000000000
C      -5.299839000000000      0.286647000000000     -0.113618000000000
C      -3.781616000000000      4.150381000000000     -1.213901000000000
H      -3.419460000000000      5.127759000000000     -1.510568000000000
C       5.285548000000000     -1.412131000000000     -1.935874000000000
C       0.109215000000000     -2.814632000000000      0.808487000000000
C       7.338795000000000     -0.651528000000000     -0.990145000000000
C      -3.536829000000000      2.058575000000000     -0.053236000000000
C       6.660787000000000     -1.553138000000000     -1.797218000000000
F      -8.350602000000000     -1.278509000000000      1.053057000000000
C       4.619243000000000     -0.388278000000000     -1.273074000000000
H      -6.652506000000000     -3.221264000000000      0.922101000000000
C      -5.029071000000000      3.721539000000000     -1.644193000000000
H      -2.052373000000000      3.593274000000000     -0.035677000000000
H      -1.786020000000000     -3.616722000000000      1.391988000000000
C       4.456074000000000      3.841943000000000      1.112218000000000
Rh     -0.019917000000000      0.203611000000000     -0.825773000000000
H       7.208621000000000     -2.340788000000000     -2.301098000000000
C      -0.727378000000000     -0.132947000000000      3.367738000000000
C      -5.542228000000000      2.479601000000000     -1.307038000000000
C       2.730500000000000      2.293700000000000      1.686553000000000
C       1.020920000000000     -3.721115000000000     -1.261198000000000
C      -3.029201000000000      3.302888000000000     -0.407843000000000
C       0.404241000000000     -0.163115000000000      4.178167000000000
H      -4.256661000000000     -2.940897000000000      0.159013000000000
C       6.688128000000000      0.369138000000000     -0.318725000000000
C       1.339214000000000     -1.906326000000000      2.801292000000000
H       4.712415000000000     -2.079790000000000     -2.569375000000000
O       2.222389000000000     -2.039513000000000     -0.088361000000000
F       8.665454000000000     -0.777376000000000     -0.845539000000000
O      -3.188473000000000     -0.745717000000000     -0.662500000000000
H      -0.161541000000000     -5.214784000000000     -2.252020000000000
C      -4.472479000000000     -0.843586000000000     -0.152213000000000
C      -0.813797000000000     -0.996009000000000      2.283452000000000
H       2.781196000000000      4.358645000000000      2.342752000000000
C       5.127796000000000      2.880796000000000      0.374823000000000
C      -1.104120000000000     -4.508952000000000     -0.446166000000000
C       5.303909000000000      0.515890000000000     -0.449161000000000
H       7.257661000000000      1.031588000000000      0.324364000000000
O       2.895901000000000      0.034790000000000      0.927397000000000
O       3.270800000000000     -0.215474000000000     -1.536051000000000
H       1.812944000000000      2.019947000000000      2.197078000000000
P       2.087368000000000     -0.436963000000000     -0.420930000000000
O      -2.822034000000000      1.255731000000000      0.815418000000000
H       0.475393000000000      0.507966000000000      5.028217000000000
O      -1.948970000000000     -0.933898000000000      1.489567000000000
H      -6.511685000000000      2.179824000000000     -1.690659000000000
H       6.049354000000000      3.144640000000000     -0.133066000000000
C      -4.938190000000000     -2.099278000000000      0.216262000000000
C      -6.625370000000000      0.118997000000000      0.296396000000000
C       1.440209000000000     -1.048325000000000      3.891246000000000
C      -4.789390000000000      1.619672000000000     -0.504216000000000
P      -1.980365000000000      0.002813000000000      0.146134000000000
F       4.976642000000000      5.074793000000000      1.188960000000000
H       2.153076000000000     -2.584131000000000      2.563641000000000
C       0.209659000000000     -1.901953000000000      1.977102000000000
H      -7.299063000000000      0.966974000000000      0.359195000000000
C       3.392615000000000      1.322426000000000      0.943929000000000
C       4.595419000000000      1.592491000000000      0.278502000000000
C      -0.999556000000000     -3.651235000000000      0.644030000000000
C       3.265985000000000      3.573645000000000      1.774117000000000
C      -7.077987000000000     -1.139047000000000      0.655964000000000
H       0.199244000000000      1.037011000000000      0.524179000000000
C      -0.368875000000000     -0.771755000000000     -2.500678000000000
O      -0.594762000000000     -1.322860000000000     -3.471450000000000
H       2.329236000000000     -1.070212000000000      4.512430000000000
H      -1.548216000000000      0.552954000000000      3.550427000000000
H       1.821659000000000     -3.715802000000000     -1.993643000000000
H      -1.973568000000000     -5.150142000000000     -0.548379000000000
