80

N      -6.417277000000000     -2.631532000000000     -0.851616000000000
C       3.098370000000000      0.607896000000000      1.808343000000000
C      -0.970008000000000      1.918093000000000     -3.121350000000000
C       4.000208000000000     -0.466039000000000      3.764120000000000
C      -2.221105000000000     -0.255460000000000     -1.863768000000000
C      -4.295414000000000     -3.582652000000000     -0.126546000000000
H      -4.820606000000000     -4.429344000000000      0.308290000000000
C      -0.250518000000000      3.760206000000000     -0.034159000000000
C       4.161075000000000      0.157873000000000      1.008349000000000
C      -2.134449000000000      4.759066000000000      1.107856000000000
C      -2.241984000000000     -2.380478000000000     -0.519493000000000
C      -0.963386000000000      4.888193000000000      0.347408000000000
N      -2.756152000000000      3.388079000000000     -2.340901000000000
C      -0.695928000000000      2.499775000000000      0.337841000000000
H      -0.478766000000000      2.758668000000000     -3.603972000000000
C      -5.012224000000000     -2.594534000000000     -0.810891000000000
H      -2.352333000000000     -4.208273000000000      0.574184000000000
H       5.946368000000000     -1.012802000000000      1.033618000000000
C      -4.185944000000000     -0.537533000000000      1.955626000000000
Rh      1.919636000000000     -1.203800000000000     -0.356043000000000
H      -0.614611000000000      5.875678000000000      0.058435000000000
C       4.650019000000000     -0.135574000000000     -2.761295000000000
C      -4.313076000000000     -1.530237000000000     -1.383281000000000
C      -1.918951000000000     -1.198853000000000      2.482214000000000
C       3.016361000000000      0.313476000000000      3.167339000000000
C      -2.918051000000000     -3.472016000000000      0.011901000000000
C       5.019675000000000      1.163020000000000     -3.067963000000000
H       0.548261000000000      0.490607000000000     -3.685251000000000
C      -2.558198000000000      3.477744000000000      1.477082000000000
C       4.704160000000000      1.807754000000000     -0.777408000000000
H       0.648999000000000      3.833997000000000     -0.636879000000000
O       2.020957000000000      1.312328000000000      1.248757000000000
N      -2.891489000000000      5.882302000000000      1.445695000000000
O      -0.380933000000000     -1.652106000000000     -2.597222000000000
H       3.936286000000000     -0.699496000000000      4.821892000000000
C      -0.994162000000000     -0.413454000000000     -2.519315000000000
C       4.269963000000000     -0.505690000000000     -1.451892000000000
H      -3.643702000000000     -2.418915000000000      2.855674000000000
C      -3.694037000000000      0.693214000000000      1.515544000000000
C       5.053386000000000     -0.955055000000000      2.992453000000000
C      -1.850203000000000      2.329887000000000      1.105819000000000
H      -3.443952000000000      3.366083000000000      2.097323000000000
O      -0.074070000000000      0.251008000000000      2.038844000000000
O      -0.038472000000000      1.401137000000000     -0.202883000000000
H      -1.202518000000000     -1.926248000000000      2.849551000000000
P       0.814445000000000      0.368291000000000      0.673722000000000
O      -0.914186000000000     -2.200282000000000     -0.187909000000000
H       5.293058000000000      1.413611000000000     -4.089466000000000
O       3.801741000000000     -1.721558000000000     -1.210382000000000
H      -4.853636000000000     -0.780324000000000     -1.956264000000000
H      -4.388371000000000      1.434366000000000      1.125935000000000
C      -0.390064000000000      0.658473000000000     -3.165958000000000
C      -2.793083000000000      1.018280000000000     -1.838312000000000
C       5.031915000000000      2.154446000000000     -2.081642000000000
C      -2.927458000000000     -1.404213000000000     -1.252365000000000
P       0.314623000000000     -2.412614000000000     -1.310706000000000
N      -5.552974000000000     -0.822719000000000      1.925660000000000
H       4.742198000000000      2.555169000000000      0.011726000000000
C       4.350089000000000      0.497772000000000     -0.437905000000000
H      -3.728862000000000      1.162134000000000     -1.304149000000000
C      -1.444744000000000      0.006810000000000      1.981461000000000
C      -2.326709000000000      0.991186000000000      1.524969000000000
C       5.127468000000000     -0.639317000000000      1.640878000000000
C      -3.277308000000000     -1.467148000000000      2.482801000000000
C      -2.169324000000000      2.120090000000000     -2.426796000000000
H       1.682956000000000     -0.253558000000000     -1.544952000000000
C       2.330214000000000     -2.562469000000000      1.274413000000000
O       2.562510000000000     -3.280292000000000      2.115202000000000
H       5.314206000000000      3.173540000000000     -2.323808000000000
H       4.604339000000000     -0.906549000000000     -3.524281000000000
H       2.164003000000000      0.686888000000000      3.725450000000000
H       5.819506000000000     -1.576504000000000      3.444501000000000
H      -2.085785000000000      4.139931000000000     -2.452370000000000
H      -3.266520000000000      3.525834000000000     -1.474118000000000
H      -6.806171000000000     -2.128756000000000     -1.641366000000000
H      -6.793312000000000     -3.572681000000000     -0.826971000000000
H      -5.747485000000000     -1.808383000000000      1.784154000000000
H      -6.054939000000000     -0.293788000000000      1.221559000000000
H      -3.472440000000000      5.762738000000000      2.265836000000000
H      -2.360413000000000      6.742242000000000      1.498817000000000
