76

O       4.565382000000000      4.928525000000000     -2.733426000000000
C      -1.500425000000000     -2.894210000000000      0.218500000000000
C       6.637448000000000     -0.494998000000000      1.927261000000000
C      -2.081649000000000     -2.054886000000000      2.554473000000000
C       5.187181000000000      0.982421000000000      0.033661000000000
C       2.940328000000000      3.146240000000000     -2.904311000000000
H       2.365275000000000      3.693119000000000     -3.647090000000000
C      -3.483874000000000      2.717431000000000      1.775755000000000
C      -0.118047000000000     -3.115371000000000      0.718694000000000
C      -5.074953000000000      3.984939000000000      0.484037000000000
C       3.261351000000000      1.197642000000000     -1.540373000000000
C      -4.079720000000000      3.934423000000000      1.459555000000000
O       8.654964000000000      0.142530000000000      0.754801000000000
C      -3.884370000000000      1.563353000000000      1.118710000000000
H       7.198896000000000     -1.071953000000000      2.657653000000000
C       4.100644000000000      3.703410000000000     -2.366359000000000
H       1.626198000000000      1.423970000000000     -2.893158000000000
H       1.137855000000000     -3.095033000000000      2.407339000000000
C      -7.054773000000000     -1.105541000000000     -1.374069000000000
Rh     -0.040088000000000      0.362370000000000      0.430371000000000
H      -3.769493000000000      4.840980000000000      1.972683000000000
C       3.117500000000000     -3.151299000000000     -1.264277000000000
C       4.834600000000000      3.006984000000000     -1.406566000000000
C      -4.749201000000000     -1.768937000000000     -1.612185000000000
C      -2.399022000000000     -2.051776000000000      1.099313000000000
C       2.519692000000000      1.887173000000000     -2.487474000000000
C       2.891414000000000     -4.202383000000000     -2.144435000000000
H       4.710658000000000     -0.919938000000000      2.810865000000000
C      -5.469261000000000      2.821322000000000     -0.175809000000000
C       0.718431000000000     -4.554682000000000     -1.161031000000000
H      -2.718161000000000      2.650734000000000      2.541579000000000
O      -1.890602000000000     -3.278497000000000     -0.869363000000000
O      -5.697171000000000      5.141069000000000      0.127693000000000
O       3.167757000000000      0.467231000000000      1.264985000000000
H      -2.834152000000000     -1.672599000000000      3.236358000000000
C       4.537047000000000      0.316585000000000      1.083400000000000
C       2.142731000000000     -2.814789000000000     -0.331447000000000
H      -6.414550000000000     -2.958467000000000     -2.273473000000000
C      -6.653217000000000      0.073526000000000     -0.748687000000000
C      -0.872647000000000     -2.452892000000000      2.979519000000000
C      -4.876196000000000      1.597402000000000      0.127229000000000
H      -6.231264000000000      2.888387000000000     -0.945481000000000
O      -3.003039000000000     -0.294840000000000     -0.938573000000000
O      -3.343587000000000      0.341704000000000      1.490615000000000
H      -3.979276000000000     -2.468356000000000     -1.921558000000000
P      -2.185590000000000     -0.284914000000000      0.478688000000000
O       2.889663000000000     -0.088538000000000     -1.178207000000000
H       3.652038000000000     -4.468341000000000     -2.871275000000000
O       2.436158000000000     -1.791430000000000      0.561365000000000
H       5.719930000000000      3.471376000000000     -0.984533000000000
H      -7.412535000000000      0.764470000000000     -0.397144000000000
C       5.251589000000000     -0.420290000000000      2.014923000000000
C       6.577296000000000      0.903491000000000     -0.040512000000000
C       1.689892000000000     -4.904908000000000     -2.090736000000000
C       4.419758000000000      1.748467000000000     -0.975585000000000
P       2.088983000000000     -0.221721000000000      0.250147000000000
O      -8.392628999999999     -1.302854000000000     -1.527725000000000
H      -0.222832000000000     -5.089518000000000     -1.129114000000000
C       0.925160000000000     -3.508184000000000     -0.252270000000000
H       7.111530000000000      1.392263000000000     -0.848747000000000
C      -4.358372000000000     -0.584102000000000     -1.003622000000000
C      -5.300962000000000      0.349253000000000     -0.548698000000000
C       0.133919000000000     -2.912252000000000      2.033900000000000
C      -6.102161000000000     -2.032037000000000     -1.798087000000000
C       7.302013000000000      0.173739000000000      0.899827000000000
H      -0.080542000000000     -0.647718000000000     -0.841510000000000
C       0.038285000000000      1.601136000000000      1.914750000000000
O       0.085575000000000      2.337707000000000      2.787284000000000
H       1.505598000000000     -5.724832000000000     -2.776995000000000
H       4.034959000000000     -2.573250000000000     -1.280835000000000
H      -3.447910000000000     -2.290089000000000      0.887799000000000
H      -0.616951000000000     -2.424867000000000      4.033508000000000
H       9.038857999999999     -0.400302000000000      1.457597000000000
H       3.962550000000000      5.317133000000000     -3.382782000000000
H      -8.540756999999999     -2.151735000000000     -1.967656000000000
H      -5.327196000000000      5.874175000000000      0.639330000000000
