120

C       0.358932000000000      3.552274000000000     -1.723895000000000
C       0.131027000000000     -2.596946000000000      1.776516000000000
C       6.411404000000000     -1.066929000000000     -0.845591000000000
C       0.905746000000000     -2.285732000000000      4.037331000000000
C       4.387845000000000      0.818151000000000     -0.320188000000000
C       1.154901000000000      3.424859000000000      0.702524000000000
H       0.302048000000000      4.035084000000000      0.998135000000000
C      -2.430929000000000      1.959100000000000      1.739930000000000
C       1.319883000000000     -3.240527000000000      1.404012000000000
C      -4.248774000000000      3.119381000000000      0.616487000000000
C       3.413819000000000      2.536633000000000      1.256571000000000
C      -3.127534000000000      3.130810000000000      1.451079000000000
C       8.223993999999999      0.707502000000000     -0.397859000000000
C      -2.868780000000000      0.761736000000000      1.199385000000000
H       7.169746000000000     -1.810960000000000     -1.062324000000000
C       1.152979000000000      2.836940000000000     -0.613235000000000
H       2.182682000000000      3.771610000000000      2.545303000000000
H       3.265979000000000     -3.776112000000000      2.116353000000000
C      -6.299727000000000     -2.176090000000000     -0.572387000000000
Rh      0.310390000000000      0.622883000000000     -0.119864000000000
H      -2.769350000000000      4.060521000000000      1.878446000000000
C       1.619366000000000     -4.052363000000000     -2.331097000000000
C       2.317962000000000      2.073688000000000     -0.916768000000000
C      -4.018415000000000     -2.781648000000000     -1.151598000000000
C      -0.089013000000000     -2.149163000000000      3.077783000000000
C       2.207926000000000      3.302945000000000      1.565156000000000
C       2.191581000000000     -5.317168000000000     -2.271728000000000
H       4.784623000000000     -2.477362000000000     -1.083915000000000
C      -4.661564000000000      1.887306000000000      0.093685000000000
C       2.129752000000000     -5.207078000000000      0.131697000000000
H      -1.556166000000000      1.964113000000000      2.384817000000000
O      -0.899701000000000     -2.431399000000000      0.853659000000000
C      -5.024587000000000      4.387419000000000      0.252680000000000
O       2.787728000000000     -1.036271000000000     -0.474341000000000
H       0.735238000000000     -1.928452000000000      5.047302000000000
C       4.079924000000000     -0.524362000000000     -0.599395000000000
C       1.309052000000000     -3.370851000000000     -1.157540000000000
H      -5.702642000000000     -4.053857000000000     -1.455078000000000
C      -5.809174000000000     -0.949959000000000     -0.110141000000000
C       2.123748000000000     -2.858560000000000      3.682933000000000
C      -3.990296000000000      0.695013000000000      0.366447000000000
H      -5.523625000000000      1.841642000000000     -0.567118000000000
O      -2.231692000000000     -1.234066000000000     -0.893245000000000
O      -2.196239000000000     -0.419354000000000      1.499801000000000
H      -3.297445000000000     -3.478146000000000     -1.565644000000000
P      -1.197263000000000     -0.932640000000000      0.304487000000000
O       4.368508000000000      2.456163000000000      2.041228000000000
H       2.431744000000000     -5.845838000000000     -3.188291000000000
O       0.704954000000000     -2.141442000000000     -1.263904000000000
H       2.434876000000000      1.701571000000000     -1.933235000000000
H      -6.492076000000000     -0.225494000000000      0.326743000000000
C       5.075124000000000     -1.451590000000000     -0.875716000000000
C       5.743565000000000      1.154320000000000     -0.261561000000000
C       2.442899000000000     -5.898873000000000     -1.032182000000000
C       3.352785000000000      1.825765000000000     -0.019407000000000
P       1.524272000000000     -0.701687000000000     -1.475938000000000
C      -7.799357000000000     -2.468770000000000     -0.481069000000000
H       2.309760000000000     -5.671062000000000      1.096639000000000
C       1.564330000000000     -3.923598000000000      0.104078000000000
H       5.975636000000000      2.176806000000000      0.017520000000000
C      -3.571574000000000     -1.555608000000000     -0.692740000000000
C      -4.456634000000000     -0.610960000000000     -0.156000000000000
C       2.314745000000000     -3.330783000000000      2.390592000000000
C      -5.375879000000000     -3.087444000000000     -1.089272000000000
C       6.770745000000000      0.243766000000000     -0.517117000000000
H      -0.558157000000000      0.817598000000000     -1.369737000000000
C       1.499773000000000      0.351838000000000      1.714671000000000
O       2.156932000000000      0.171801000000000      2.614708000000000
H       2.875230000000000     -6.891784000000000     -0.969081000000000
H       1.397597000000000     -3.571925000000000     -3.278595000000000
H      -1.048586000000000     -1.701060000000000      3.313815000000000
H       2.925248000000000     -2.939133000000000      4.409135000000000
C       9.215541999999999     -0.406620000000000     -0.746823000000000
H       9.111795000000001     -1.263451000000000     -0.072596000000000
H       9.081822000000001     -0.757763000000000     -1.776024000000000
H      10.239196000000000     -0.029912000000000     -0.651372000000000
C       8.470294000000001      1.888344000000000     -1.351464000000000
H       8.279303000000001      1.595712000000000     -2.389378000000000
H       7.823628000000000      2.738138000000000     -1.114757000000000
H       9.510268999999999      2.225352000000000     -1.274057000000000
C       8.481980999999999      1.156121000000000      1.050980000000000
H       8.345653000000000      0.317987000000000      1.742134000000000
H       9.508010000000001      1.527711000000000      1.155760000000000
H       7.793837000000000      1.950309000000000      1.355468000000000
C       0.479595000000000      2.857812000000000     -3.086923000000000
H       1.506773000000000      2.883406000000000     -3.464453000000000
H       0.150968000000000      1.814227000000000     -3.051524000000000
H      -0.146890000000000      3.382038000000000     -3.816518000000000
C      -1.129618000000000      3.696578000000000     -1.375065000000000
H      -1.633457000000000      4.280200000000000     -2.154946000000000
H      -1.628353000000000      2.723303000000000     -1.297199000000000
H      -1.277671000000000      4.222355000000000     -0.425881000000000
C       0.957516000000000      4.966438000000000     -1.873677000000000
H       0.468748000000000      5.508001000000000     -2.692099000000000
H       0.831170000000000      5.548147000000000     -0.954918000000000
H       2.029644000000000      4.908738000000000     -2.090051000000000
C      -8.574871000000000     -1.406803000000000     -1.278733000000000
H      -8.277283000000001     -1.417732000000000     -2.332235000000000
H      -9.650931999999999     -1.604483000000000     -1.222462000000000
H      -8.399092000000000     -0.399646000000000     -0.887911000000000
C      -8.150181999999999     -3.848464000000000     -1.046862000000000
H      -9.229547999999999     -4.011872000000000     -0.967910000000000
H      -7.875806000000000     -3.932721000000000     -2.103771000000000
H      -7.650420000000000     -4.650330000000000     -0.493257000000000
C      -8.238130000000000     -2.423246000000000      0.992400000000000
H      -8.055305000000001     -1.440817000000000      1.438516000000000
H      -9.310121000000001     -2.634592000000000      1.072942000000000
H      -7.694673000000000     -3.168291000000000      1.582273000000000
C      -6.469988000000000      4.260834000000000      0.762611000000000
H      -6.489715000000000      4.138963000000000      1.850481000000000
H      -7.040654000000000      5.160098000000000      0.506224000000000
H      -6.980011000000000      3.401186000000000      0.316184000000000
C      -4.397188000000000      5.640522000000000      0.871194000000000
H      -3.368277000000000      5.786789000000000      0.524135000000000
H      -4.976299000000000      6.521543000000000      0.577637000000000
H      -4.392789000000000      5.594652000000000      1.965337000000000
C      -5.032652000000000      4.558195000000000     -1.275748000000000
H      -5.576616000000000      5.469088000000000     -1.548705000000000
H      -4.010849000000000      4.637301000000000     -1.660714000000000
H      -5.518200000000000      3.715422000000000     -1.776898000000000
