96

C       5.820091000000000      4.831954000000000     -1.906410000000000
C      -1.297833000000000     -2.137751000000000      1.683766000000000
C       6.492372000000000     -1.896199000000000      1.487602000000000
C      -0.828397000000000     -2.258901000000000      4.036983000000000
C       5.415056000000000      0.230522000000000      0.018798000000000
C       3.774831000000000      3.442681000000000     -2.289540000000000
H       3.356229000000000      4.257349000000000     -2.869403000000000
C      -4.279168000000000      2.440294000000000      1.944682000000000
C      -0.149726000000000     -2.875597000000000      1.381467000000000
C      -6.455065000000000      2.847405000000000      1.029554000000000
C       3.598183000000000      1.215035000000000     -1.387692000000000
C      -5.405788000000000      3.243147000000000      1.851997000000000
C       8.720647000000000     -1.576572000000000      0.379266000000000
C      -4.199168000000000      1.243060000000000      1.226671000000000
H       6.910639000000000     -2.717415000000000      2.058572000000000
C       5.021763000000000      3.576497000000000     -1.691015000000000
C       1.669916000000000      2.175047000000000     -2.731830000000000
H       1.562851000000000     -3.840220000000000      2.221508000000000
C      -6.240872000000000     -2.290800000000000     -1.480419000000000
Rh      0.148968000000000      0.601928000000000      0.385116000000000
H      -5.463239000000000      4.166575000000000      2.416502000000000
C       1.694424000000000     -3.094098000000000     -1.938614000000000
C       5.553238000000000      2.543429000000000     -0.929339000000000
C      -3.960336000000000     -1.780924000000000     -2.030230000000000
C      -1.649456000000000     -1.836829000000000      2.995468000000000
C       3.055341000000000      2.262092000000000     -2.138091000000000
C       0.885782000000000     -3.983384000000000     -2.638642000000000
C       4.325480000000000     -2.421476000000000      2.570221000000000
C      -6.367832000000000      1.672746000000000      0.293944000000000
C      -0.590528000000000     -4.130496000000000     -0.740949000000000
C      -3.101102000000000      2.852846000000000      2.784698000000000
O      -2.093114000000000     -1.648482000000000      0.641364000000000
C      -7.661634000000000      3.728511000000000      0.869697000000000
O       3.342328000000000     -0.048991000000000      1.176891000000000
H      -1.095483000000000     -2.017238000000000      5.060470000000000
C       4.621977000000000     -0.482992000000000      0.933485000000000
C       1.354702000000000     -2.745128000000000     -0.637608000000000
H      -5.060835000000000     -3.406878000000000     -2.896874000000000
C      -6.290918000000000     -1.199533000000000     -0.622799000000000
C       0.332597000000000     -2.974585000000000      3.760789000000000
C      -5.242255000000000      0.849508000000000      0.375399000000000
H      -7.183709000000000      1.393221000000000     -0.366149000000000
O      -2.883868000000000      0.072875000000000     -1.002295000000000
O      -3.129154000000000      0.439944000000000      1.468974000000000
C      -2.745435000000000     -1.981856000000000     -2.902506000000000
P      -1.969773000000000     -0.041490000000000      0.357472000000000
O       2.953054000000000      0.011725000000000     -1.294451000000000
H       1.149681000000000     -4.264620000000000     -3.652669000000000
O       2.233412000000000     -1.926885000000000      0.067660000000000
H       6.513719000000000      2.671332000000000     -0.439343000000000
H      -7.207685000000000     -0.979247000000000     -0.084244000000000
C       5.153713000000000     -1.551607000000000      1.656141000000000
C       6.751960000000000     -0.131032000000000     -0.131268000000000
C      -0.253199000000000     -4.509992000000000     -2.035442000000000
C       4.848426000000000      1.351655000000000     -0.764568000000000
P       2.113529000000000     -0.310208000000000      0.113233000000000
C      -7.438139000000000     -3.191885000000000     -1.600115000000000
H      -1.486540000000000     -4.523822000000000     -0.269293000000000
C       0.204333000000000     -3.238616000000000     -0.015747000000000
H       7.376476000000000      0.408764000000000     -0.837175000000000
C      -4.004788000000000     -0.710027000000000     -1.138489000000000
C      -5.171662000000000     -0.383933000000000     -0.440564000000000
C       0.658926000000000     -3.284574000000000      2.444532000000000
C      -5.085064000000000     -2.575840000000000     -2.201378000000000
C       7.287628000000000     -1.182556000000000      0.602955000000000
H       0.019877000000000     -0.198976000000000     -1.000054000000000
C       0.347823000000000      1.461969000000000      2.152285000000000
O       0.490434000000000      1.884958000000000      3.198125000000000
H      -0.888151000000000     -5.201940000000000     -2.578220000000000
H       2.592954000000000     -2.670613000000000     -2.374714000000000
H      -2.547422000000000     -1.258363000000000      3.183825000000000
H       0.986454000000000     -3.292098000000000      4.566129000000000
F       8.852690000000001     -2.340496000000000     -0.713395000000000
F       9.209842999999999     -2.269479000000000      1.414007000000000
F       9.496382000000001     -0.498604000000000      0.199345000000000
F       3.289716000000000     -1.794903000000000      3.124490000000000
F       5.083506000000000     -2.905178000000000      3.567151000000000
F       3.850601000000000     -3.483893000000000      1.899585000000000
F       6.592945000000000      4.735711000000000     -2.997109000000000
F       6.629917000000000      5.081137000000000     -0.869288000000000
F       5.025932000000000      5.895731000000000     -2.076352000000000
F       1.393709000000000      0.978406000000000     -3.244931000000000
F       1.513881000000000      3.081983000000000     -3.705388000000000
F       0.735354000000000      2.444286000000000     -1.799092000000000
F      -2.767715000000000     -3.196831000000000     -3.472895000000000
F      -1.597640000000000     -1.869822000000000     -2.233553000000000
F      -2.722823000000000     -1.076630000000000     -3.888169000000000
F      -7.479486000000000     -3.798354000000000     -2.792895000000000
F      -8.580507000000001     -2.509233000000000     -1.444424000000000
F      -7.422412000000000     -4.152303000000000     -0.666297000000000
F      -8.773413000000000      3.002691000000000      0.686964000000000
F      -7.542301000000000      4.537436000000000     -0.191498000000000
F      -7.847940000000000      4.505435000000000      1.943733000000000
F      -3.325199000000000      4.021113000000000      3.396403000000000
F      -2.007661000000000      3.005798000000000      2.015039000000000
F      -2.799101000000000      1.954273000000000      3.726048000000000
