104

C       8.367832999999999      2.338363000000000     -0.317384000000000
C      -1.263137000000000     -1.766413000000000     -2.096605000000000
C       4.330261000000000     -3.598347000000000      1.712913000000000
C      -0.262225000000000     -3.904441000000000     -2.544788000000000
C       4.888540000000000     -0.970451000000000      0.954380000000000
C       5.929623000000000      2.978234000000000     -0.333246000000000
H       6.193198000000000      3.988666000000000     -0.629482000000000
C      -5.281247000000000     -2.103352000000000      0.213327000000000
C      -0.180272000000000     -1.095759000000000     -2.684031000000000
C      -7.381907000000000     -0.864782000000000      0.185782000000000
C       4.257603000000000      1.366017000000000      0.259672000000000
C      -6.663624000000000     -2.055053000000000      0.039023000000000
C       6.101666000000000     -3.569722000000000      3.440793000000000
C      -4.619650000000000     -0.916937000000000      0.556621000000000
H       4.108261000000000     -4.615401000000000      2.024499000000000
C       6.937848000000000      2.032236000000000     -0.131463000000000
C       3.509337000000000      3.662398000000000     -0.327437000000000
H       1.736724000000000     -1.369715000000000     -3.600926000000000
C      -4.463752000000000      3.642654000000000      2.291051000000000
Rh      0.002609000000000     -0.355360000000000      0.568769000000000
H      -7.186817000000000     -2.973956000000000     -0.206968000000000
C       0.956594000000000      2.540398000000000     -2.703048000000000
C       6.568677000000000      0.746505000000000      0.271586000000000
C      -2.739685000000000      3.109667000000000      0.640289000000000
C      -1.315826000000000     -3.152347000000000     -2.031752000000000
C       4.582847000000000      2.667508000000000     -0.149099000000000
C      -0.109587000000000      3.149537000000000     -3.357731000000000
C       2.510891000000000     -3.745011000000000     -0.033854000000000
C      -6.679438000000000      0.298839000000000      0.508926000000000
C      -1.241869000000000      1.027131000000000     -3.470523000000000
C      -4.512768000000000     -3.354535000000000      0.078169000000000
O      -2.320774000000000     -1.051810000000000     -1.551264000000000
C      -8.844642000000000     -0.792792000000000      0.017293000000000
O       3.142767000000000     -1.104209000000000     -0.675394000000000
H      -0.305187000000000     -4.988387000000000     -2.504014000000000
C       3.844365000000000     -1.690985000000000      0.357188000000000
C       0.918883000000000      1.174604000000000     -2.445521000000000
H      -2.830121000000000      4.929848000000000      1.773174000000000
C      -5.101791000000000      2.429896000000000      2.003796000000000
C       0.842446000000000     -3.263396000000000     -3.100195000000000
C      -5.297359000000000      0.295996000000000      0.706284000000000
H      -7.217223000000000      1.238998000000000      0.604054000000000
O      -2.917971000000000      1.055426000000000     -0.582329000000000
O      -3.266531000000000     -0.985966000000000      0.833014000000000
C      -1.539194000000000      3.446978000000000     -0.144308000000000
P      -2.112399000000000     -0.294293000000000     -0.109279000000000
O       2.934579000000000      1.091560000000000      0.543585000000000
H      -0.078366000000000      4.215676000000000     -3.559579000000000
O       2.019859000000000      0.618676000000000     -1.820778000000000
H       7.337444000000000     -0.007698000000000      0.420698000000000
H      -6.024330000000000      2.166298000000000      2.512685000000000
C       3.562967000000000     -3.018504000000000      0.697714000000000
C       5.634366000000000     -1.594577000000000      1.950507000000000
C      -1.218637000000000      2.393505000000000     -3.729487000000000
C       5.235303000000000      0.392726000000000      0.485277000000000
P       2.007245000000000      0.026765000000000     -0.291492000000000
C      -4.985296000000000      4.587030000000000      3.295635000000000
H      -2.102064000000000      0.432061000000000     -3.760894000000000
C      -0.167362000000000      0.383191000000000     -2.845480000000000
H       6.444304000000000     -1.041095000000000      2.416324000000000
C      -3.396633000000000      1.897343000000000      0.403837000000000
C      -4.583254000000000      1.545609000000000      1.061824000000000
C       0.878230000000000     -1.873079000000000     -3.166996000000000
C      -3.303961000000000      3.969705000000000      1.587146000000000
C       5.354133000000000     -2.904616000000000      2.358265000000000
H      -0.035630000000000      1.169973000000000      0.108012000000000
C      -0.003722000000000     -2.178507000000000      1.321286000000000
O      -0.091821000000000     -3.191452000000000      1.836009000000000
H      -2.063337000000000      2.863010000000000     -4.222146000000000
H       1.829943000000000      3.100850000000000     -2.385756000000000
H      -2.188386000000000     -3.615133000000000     -1.581385000000000
H       1.677748000000000     -3.842526000000000     -3.480098000000000
C       6.907040000000000     -2.977948000000000      4.323259000000000
H       5.948457000000000     -4.645554000000000      3.510641000000000
H       7.077680000000000     -1.905451000000000      4.328813000000000
H       7.416931000000000     -3.554731000000000      5.086857000000000
C       2.330252000000000     -5.066151000000000     -0.028223000000000
H       1.854342000000000     -3.130187000000000     -0.644645000000000
H       2.967661000000000     -5.748082000000000      0.527121000000000
H       1.521491000000000     -5.509699000000000     -0.599588000000000
C       8.906751999999999      3.545159000000000     -0.492728000000000
H       9.026586000000000      1.471562000000000     -0.292874000000000
H       8.313218000000001      4.454431000000000     -0.506415000000000
H       9.976881000000001      3.663266000000000     -0.621345000000000
C       3.608687000000000      4.779557000000000     -1.051042000000000
H       2.573327000000000      3.436353000000000      0.179336000000000
H       4.503525000000000      5.035107000000000     -1.611465000000000
H       2.779911000000000      5.477726000000000     -1.112811000000000
C      -0.664040000000000      4.412859000000000      0.139752000000000
H      -1.379277000000000      2.834898000000000     -1.027770000000000
H      -0.738041000000000      5.039395000000000      1.024074000000000
H       0.180898000000000      4.589619000000000     -0.519367000000000
C      -5.887040000000000      4.314436000000000      4.239087000000000
H      -4.561363000000000      5.588996000000000      3.248884000000000
H      -6.321867000000000      3.326638000000000      4.360326000000000
H      -6.211274000000000      5.077434000000000      4.937994000000000
C      -9.687310000000000     -1.824294000000000     -0.041545000000000
H      -9.248476000000000      0.216443000000000     -0.047815000000000
H      -9.355268000000001     -2.854772000000000      0.043471000000000
H     -10.752644999999999     -1.666690000000000     -0.167801000000000
C      -4.868656000000000     -4.386441000000000     -0.688744000000000
H      -3.591879000000000     -3.406888000000000      0.654947000000000
H      -5.755314000000000     -4.361810000000000     -1.316093000000000
H      -4.270153000000000     -5.290986000000000     -0.721191000000000
