96

C      -5.356793000000000      4.735208000000000     -2.341514000000000
C       1.447452000000000     -2.793344000000000      0.699663000000000
C      -6.672774000000000     -2.363699000000000      0.061140000000000
C       0.888152000000000     -4.940382000000000     -0.226952000000000
C      -5.410054000000000      0.114485000000000     -0.349807000000000
C      -3.601454000000000      3.979448000000000     -0.780869000000000
H      -3.143669000000000      4.956967000000000     -0.891810000000000
C       4.746144000000000     -2.087942000000000     -1.611988000000000
C       0.287351000000000     -2.791313000000000      1.484164000000000
C       6.920817000000000     -1.890633000000000     -0.577522000000000
C      -3.602330000000000      1.766480000000000      0.157394000000000
C       6.020194000000000     -2.599762000000000     -1.364595000000000
C      -8.893620000000000     -1.185494000000000      0.233424000000000
C       4.386386000000000     -0.861594000000000     -1.038198000000000
H      -7.160743000000000     -3.316879000000000      0.222073000000000
C      -4.769171000000000      3.677199000000000     -1.475117000000000
C      -1.742616000000000      3.405254000000000      0.749216000000000
H      -1.521114000000000     -3.857843000000000      1.898384000000000
C       5.572696000000000      3.612610000000000      0.210019000000000
Rh     -0.139226000000000     -0.057199000000000     -0.577718000000000
H       6.287736000000000     -3.556903000000000     -1.797957000000000
C      -1.508159000000000     -0.115459000000000      3.496936000000000
C      -5.352823000000000      2.415140000000000     -1.356456000000000
C       3.346711000000000      2.948475000000000      0.864009000000000
C       1.769421000000000     -3.868938000000000     -0.117061000000000
C      -3.012143000000000      3.032858000000000      0.053627000000000
C      -0.528477000000000      0.232291000000000      4.422294000000000
C      -4.498551000000000     -3.585816000000000     -0.089415000000000
C       6.563455000000000     -0.650873000000000     -0.048829000000000
C       0.983034000000000     -1.354830000000000      3.418329000000000
C       3.862652000000000     -2.916637000000000     -2.490461000000000
O       2.333472000000000     -1.717283000000000      0.742445000000000
C       8.286291000000000     -2.400925000000000     -0.280430000000000
O      -3.338560000000000     -1.048662000000000     -0.663836000000000
H       1.142149000000000     -5.777587000000000     -0.868896000000000
C      -4.667269000000000     -1.081716000000000     -0.338351000000000
C      -1.225996000000000     -1.084000000000000      2.543744000000000
H       4.025103000000000      4.989499000000000      0.757574000000000
C       5.891863000000000      2.282704000000000     -0.053805000000000
C      -0.311373000000000     -4.922200000000000      0.477143000000000
C       5.298447000000000     -0.115144000000000     -0.273725000000000
H       7.292381000000000     -0.110483000000000      0.548240000000000
O       2.821738000000000      0.618826000000000      1.020184000000000
O       3.140103000000000     -0.344842000000000     -1.261579000000000
C       1.951097000000000      3.343332000000000      1.221940000000000
P       2.007764000000000     -0.326714000000000     -0.055930000000000
O      -3.078352000000000      0.809484000000000      0.974212000000000
H      -0.738584000000000      0.994360000000000      5.165554000000000
O      -2.191174000000000     -1.364280000000000      1.570765000000000
H      -6.256735000000000      2.187379000000000     -1.912451000000000
H       6.871025000000000      2.037286000000000     -0.452196000000000
C      -5.289891000000000     -2.320086000000000     -0.123660000000000
C      -6.787000000000000      0.034538000000000     -0.159342000000000
C       0.719992000000000     -0.381596000000000      4.376392000000000
C      -4.773537000000000      1.441062000000000     -0.545385000000000
P      -2.164634000000000     -0.384624000000000      0.269437000000000
C       6.549032000000000      4.715317000000000      0.003743000000000
H       1.956461000000000     -1.833517000000000      3.378494000000000
C       0.012719000000000     -1.729616000000000      2.483493000000000
H      -7.390657000000000      0.937440000000000     -0.147475000000000
C       3.695871000000000      1.605062000000000      0.663116000000000
C       4.958046000000000      1.266061000000000      0.144953000000000
C      -0.594809000000000     -3.865811000000000      1.334664000000000
C       4.288524000000000      3.945584000000000      0.626078000000000
C      -7.418966000000000     -1.190857000000000      0.038938000000000
H      -0.064708000000000      0.781912000000000      0.771532000000000
C      -0.209258000000000     -1.145584000000000     -2.226529000000000
O      -0.229549000000000     -1.812290000000000     -3.150451000000000
H       1.492151000000000     -0.102417000000000      5.085227000000000
H      -2.474252000000000      0.376097000000000      3.475031000000000
H       2.719393000000000     -3.875504000000000     -0.635963000000000
H      -1.025036000000000     -5.731819000000000      0.371558000000000
O      -9.579390000000000     -0.192508000000000      0.216437000000000
O      -9.398408999999999     -2.416280000000000      0.432135000000000
H     -10.358359000000000     -2.304588000000000      0.546367000000000
O      -3.297372000000000     -3.684690000000000     -0.089353000000000
O      -5.302932000000000     -4.668913000000000     -0.045116000000000
H      -4.711085000000000     -5.440167000000000     -0.012266000000000
O      -4.900873000000000      5.844054000000000     -2.470510000000000
O      -6.470514000000000      4.326018000000000     -2.977909000000000
H      -6.775175000000000      5.081129000000000     -3.510783000000000
O      -1.048165000000000      4.318591000000000      0.326897000000000
O      -1.460526000000000      2.700312000000000      1.822320000000000
H      -0.501195000000000      2.829446000000000      2.052090000000000
O       1.222076000000000      2.707599000000000      1.963647000000000
O       1.598950000000000      4.462735000000000      0.615454000000000
H       0.616327000000000      4.581254000000000      0.697586000000000
O       6.315410000000000      5.881408000000000      0.205373000000000
O       7.743798000000000      4.276960000000000     -0.435620000000000
H       8.304435000000000      5.065690000000000     -0.537961000000000
O       9.102645000000001     -1.813288000000000      0.386963000000000
O       8.527550000000000     -3.600142000000000     -0.838091000000000
H       9.435755000000000     -3.843169000000000     -0.587070000000000
O       4.161564000000000     -4.033104000000000     -2.845429000000000
O       2.710022000000000     -2.335927000000000     -2.848342000000000
H       2.228821000000000     -2.986938000000000     -3.391393000000000
