72

F      -5.570554000000000      5.120792000000000      1.087427000000000
C       1.065510000000000     -2.190114000000000     -1.584512000000000
C      -6.309743000000000     -2.004683000000000     -1.048858000000000
C      -0.012619000000000     -2.411301000000000     -3.717375000000000
C      -5.330896000000000      0.369324000000000      0.104579000000000
C      -3.701169000000000      3.936535000000000      1.854457000000000
H      -3.276363000000000      4.835754000000000      2.282844000000000
C       3.359880000000000      2.820009000000000     -1.572213000000000
C      -0.019844000000000     -2.781523000000000     -0.928185000000000
C       5.142180000000000      3.942175000000000     -0.486787000000000
C      -3.581314000000000      1.557739000000000      1.403506000000000
C       4.025517000000000      4.004376000000000     -1.309946000000000
F      -8.438354000000000     -1.451456000000000     -0.241722000000000
C       3.791920000000000      1.604493000000000     -1.047475000000000
H      -6.685766000000000     -2.920383000000000     -1.487504000000000
C      -4.919680000000000      3.956636000000000      1.188773000000000
F      -1.865661000000000      2.649484000000000      2.566538000000000
H      -1.976391000000000     -3.604015000000000     -1.218475000000000
C       7.055158000000000     -1.310461000000000      0.914716000000000
Rh     -0.017755000000000      0.576750000000000     -0.116814000000000
H       3.682473000000000      4.942754000000000     -1.727453000000000
C      -1.105526000000000     -2.597111000000000      2.706831000000000
C      -5.476433000000000      2.825889000000000      0.614559000000000
C       4.793684000000000     -1.847128000000000      1.377921000000000
C       1.084305000000000     -2.008261000000000     -2.960786000000000
C      -3.042169000000000      2.722589000000000      1.944109000000000
C      -0.051358000000000     -3.244609000000000      3.343950000000000
F      -4.137717000000000     -2.458913000000000     -1.819043000000000
C       5.592584000000000      2.757931000000000      0.072286000000000
C       1.023305000000000     -3.582719000000000      1.212648000000000
F       2.279436000000000      2.826490000000000     -2.356945000000000
O       2.145773000000000     -1.714308000000000     -0.842941000000000
F       5.797657000000000      5.076029000000000     -0.216375000000000
O      -3.162656000000000     -0.148014000000000     -0.843794000000000
H      -0.008164000000000     -2.263774000000000     -4.792320000000000
C      -4.473780000000000     -0.485269000000000     -0.598393000000000
C      -1.081722000000000     -2.455189000000000      1.326731000000000
H       6.430021000000000     -3.175886000000000      1.808083000000000
C       6.689250000000000     -0.081881000000000      0.393506000000000
C      -1.115160000000000     -2.984129000000000     -3.088332000000000
C       4.905760000000000      1.572038000000000     -0.201034000000000
H       6.450501000000000      2.769280000000000      0.734996000000000
O       3.058253000000000     -0.266853000000000      0.991109000000000
O       3.160138000000000      0.441471000000000     -1.410041000000000
F       3.869130000000000     -2.680777000000000      1.854284000000000
P       2.068428000000000     -0.171778000000000     -0.309932000000000
O      -2.943649000000000      0.358494000000000      1.601778000000000
H      -0.060961000000000     -3.354197000000000      4.423368000000000
O      -2.138161000000000     -1.781917000000000      0.724774000000000
H      -6.412560000000000      2.904089000000000      0.073364000000000
H       7.448769000000000      0.576574000000000     -0.012446000000000
C      -4.973966000000000     -1.660038000000000     -1.153618000000000
C      -6.684334000000000      0.036564000000000      0.216091000000000
C       1.017351000000000     -3.730382000000000      2.595713000000000
C      -4.795895000000000      1.608958000000000      0.710809000000000
P      -2.022785000000000     -0.201535000000000      0.340589000000000
F       8.349176999999999     -1.648713000000000      0.931977000000000
H       1.863253000000000     -3.946716000000000      0.630198000000000
C      -0.030422000000000     -2.950415000000000      0.546856000000000
H      -7.370245000000000      0.667508000000000      0.769927000000000
C       4.385293000000000     -0.614633000000000      0.874253000000000
C       5.337564000000000      0.274868000000000      0.364082000000000
C      -1.111825000000000     -3.170779000000000     -1.709726000000000
C       6.126982000000000     -2.215280000000000      1.410947000000000
C      -7.143989000000000     -1.135016000000000     -0.359769000000000
H       0.192876000000000      0.024549000000000      1.370720000000000
C      -0.322950000000000      1.241106000000000     -1.951130000000000
O      -0.526938000000000      1.596855000000000     -3.012669000000000
H       1.854092000000000     -4.216160000000000      3.086084000000000
H      -1.942635000000000     -2.181420000000000      3.257884000000000
H       1.950123000000000     -1.534021000000000     -3.412317000000000
H      -1.983465000000000     -3.282127000000000     -3.666316000000000
