168

C      -6.717585000000000     -1.351855000000000      4.322675000000000
C       1.759534000000000      0.850603000000000     -2.012848000000000
C      -6.214699000000000      2.066166000000000     -2.201834000000000
C       1.822002000000000      3.085644000000000     -2.903646000000000
C      -5.422311000000000      0.306692000000000     -0.217820000000000
C      -4.609387000000000     -2.195287000000000      3.119926000000000
H      -4.427987000000000     -2.844685000000000      3.964662000000000
C       4.452389000000000      2.721469000000000      1.803686000000000
C       0.674337000000000      0.521410000000000     -2.833246000000000
C       6.826709000000000      2.117881000000000      1.739464000000000
C      -3.951481000000000     -1.354779000000000      0.994688000000000
C       5.793271000000000      2.991188000000000      2.080370000000000
C      -8.552614000000000      1.098432000000000     -2.323876000000000
C       4.156128000000000      1.521843000000000      1.125016000000000
H      -6.544001000000000      2.766239000000000     -2.959999000000000
C      -5.737490000000000     -1.377990000000000      3.147219000000000
C      -2.488485000000000     -3.188121000000000      2.133284000000000
H      -0.665502000000000      1.265448000000000     -4.324865000000000
C       5.992215000000000     -2.246545000000000     -1.592538000000000
Rh     -0.266410000000000      0.184176000000000      0.769008000000000
H       6.038203000000000      3.909809000000000      2.594171000000000
C      -1.709495000000000     -2.440557000000000     -2.612045000000000
C      -5.968820000000000     -0.562090000000000      2.039559000000000
C       3.978672000000000     -2.873328000000000     -0.335224000000000
C       2.340391000000000      2.115662000000000     -2.052125000000000
C      -3.693143000000000     -2.231353000000000      2.056632000000000
C      -0.920171000000000     -3.455170000000000     -3.144035000000000
C      -3.981931000000000      3.308069000000000     -2.175636000000000
C       6.477881000000000      0.946567000000000      1.080464000000000
C       0.893077000000000     -1.894617000000000     -3.419448000000000
C       3.341591000000000      3.687504000000000      2.255061000000000
O       2.288986000000000     -0.104739000000000     -1.158919000000000
C       8.296078000000000      2.390099000000000      2.072650000000000
O      -3.216515000000000      1.241371000000000     -0.275790000000000
H       2.274351000000000      4.071860000000000     -2.930186000000000
C      -4.512432000000000      1.202786000000000     -0.782982000000000
C      -1.189083000000000     -1.155253000000000     -2.489846000000000
H       5.034860000000000     -4.154369000000000     -1.679880000000000
C       5.972261000000000     -1.004583000000000     -0.962930000000000
C       0.732395000000000      2.786213000000000     -3.716360000000000
C       5.159774000000000      0.622181000000000      0.727122000000000
H       7.250370000000000      0.224696000000000      0.834948000000000
O       2.886699000000000     -1.193511000000000      0.987905000000000
O       2.814289000000000      1.331374000000000      0.874086000000000
C       2.953504000000000     -3.933858000000000      0.093921000000000
P       1.939259000000000      0.027588000000000      0.449152000000000
O      -3.140125000000000     -1.305450000000000     -0.130426000000000
H      -1.326764000000000     -4.456973000000000     -3.238074000000000
O      -1.998775000000000     -0.155002000000000     -1.969405000000000
H      -6.837256000000000      0.090285000000000      2.006092000000000
H       6.728846000000000     -0.264727000000000     -1.206759000000000
C      -4.901571000000000      2.156804000000000     -1.740573000000000
C      -6.730283000000000      0.273724000000000     -0.717752000000000
C       0.384052000000000     -3.182905000000000     -3.548803000000000
C      -5.093022000000000     -0.541183000000000      0.958052000000000
P      -2.163003000000000      0.000608000000000     -0.342415000000000
C       7.078753000000000     -2.547075000000000     -2.628521000000000
H       1.912733000000000     -1.674447000000000     -3.722845000000000
C       0.118318000000000     -0.856967000000000     -2.891029000000000
H      -7.412033000000000     -0.451560000000000     -0.287136000000000
C       3.971366000000000     -1.582652000000000      0.204376000000000
C       4.992495000000000     -0.655350000000000     -0.029589000000000
C       0.174411000000000      1.512210000000000     -3.682160000000000
C       5.011251000000000     -3.171047000000000     -1.231645000000000
C      -7.141573000000000      1.127007000000000     -1.732147000000000
H      -0.127073000000000     -1.195111000000000     -0.033576000000000
C      -0.497711000000000      1.936555000000000      1.600086000000000
O      -0.673785000000000      2.985716000000000      2.012968000000000
H       1.006127000000000     -3.971363000000000     -3.960258000000000
H      -2.724793000000000     -2.622631000000000     -2.277089000000000
H       3.196396000000000      2.322467000000000     -1.418010000000000
H       0.322746000000000      3.537070000000000     -4.384259000000000
C      -9.231339999999999      2.460286000000000     -2.099502000000000
H     -10.244857000000000      2.450592000000000     -2.516005000000000
H      -9.300183000000001      2.687204000000000     -1.030603000000000
H      -8.678744000000000      3.272526000000000     -2.581694000000000
C      -8.464112000000000      0.813632000000000     -3.832574000000000
H      -9.467243000000000      0.791401000000000     -4.273162000000000
H      -7.884408000000000      1.581571000000000     -4.354013000000000
H      -7.984864000000000     -0.153363000000000     -4.016401000000000
C      -9.423420999999999      0.015326000000000     -1.679131000000000
H      -8.996487000000000     -0.982737000000000     -1.823374000000000
H      -9.548544000000000      0.185569000000000     -0.604324000000000
H     -10.418084000000000      0.024121000000000     -2.136314000000000
C      -2.686342000000000      2.796582000000000     -2.821681000000000
H      -2.903055000000000      2.078668000000000     -3.620353000000000
H      -2.138243000000000      3.641636000000000     -3.254593000000000
H      -2.026273000000000      2.312099000000000     -2.102760000000000
C      -4.673348000000000      4.222715000000000     -3.196455000000000
H      -3.992058000000000      5.038180000000000     -3.457696000000000
H      -4.923088000000000      3.688106000000000     -4.119593000000000
H      -5.587321000000000      4.671372000000000     -2.793553000000000
C      -3.638145000000000      4.165515000000000     -0.942707000000000
H      -2.997608000000000      5.002086000000000     -1.244524000000000
H      -4.548174000000000      4.576697000000000     -0.492889000000000
H      -3.106514000000000      3.586059000000000     -0.184910000000000
C      -8.116954000000000     -1.753249000000000      3.825964000000000
H      -8.482370000000000     -1.069090000000000      3.053700000000000
H      -8.103376000000001     -2.763352000000000      3.403625000000000
H      -8.832522000000001     -1.735904000000000      4.655620000000000
C      -6.309554000000000     -2.315665000000000      5.441404000000000
H      -7.038974000000000     -2.259520000000000      6.255763000000000
H      -6.279637000000000     -3.352746000000000      5.090397000000000
H      -5.327661000000000     -2.061215000000000      5.854432000000000
C      -6.771181000000000      0.070529000000000      4.905071000000000
H      -5.783769000000000      0.379807000000000      5.262873000000000
H      -7.102068000000000      0.799102000000000      4.158743000000000
H      -7.471311000000000      0.108515000000000      5.747220000000000
C      -1.308997000000000     -2.459788000000000      2.801055000000000
H      -1.574178000000000     -2.135118000000000      3.813196000000000
H      -0.439772000000000     -3.126144000000000      2.863978000000000
H      -1.009179000000000     -1.572085000000000      2.226438000000000
C      -2.829541000000000     -4.420296000000000      2.994109000000000
H      -3.730137000000000     -4.925564000000000      2.628923000000000
H      -1.996689000000000     -5.128244000000000      2.945776000000000
H      -2.973837000000000     -4.173543000000000      4.049521000000000
C      -2.052062000000000     -3.722214000000000      0.755957000000000
H      -1.521425000000000     -2.976179000000000      0.164472000000000
H      -1.374024000000000     -4.569480000000000      0.904906000000000
H      -2.912843000000000     -4.072441000000000      0.174929000000000
C       1.499118000000000     -3.458385000000000     -0.100779000000000
H       1.385415000000000     -2.850265000000000     -1.003864000000000
H       0.835435000000000     -4.325130000000000     -0.197713000000000
H       1.151494000000000     -2.869435000000000      0.749834000000000
C       3.129969000000000     -5.232722000000000     -0.704646000000000
H       4.123882000000000     -5.671320000000000     -0.569776000000000
H       2.396709000000000     -5.965764000000000     -0.355189000000000
H       2.959315000000000     -5.071638000000000     -1.775324000000000
C       3.180685000000000     -4.254133000000000      1.582655000000000
H       2.449351000000000     -4.999625000000000      1.917142000000000
H       4.184906000000000     -4.658750000000000      1.748238000000000
H       3.059846000000000     -3.357664000000000      2.197282000000000
C       6.954739000000000     -1.548052000000000     -3.791320000000000
H       7.073920000000000     -0.515562000000000     -3.448935000000000
H       7.725383000000000     -1.745251000000000     -4.545094000000000
H       5.973626000000000     -1.632062000000000     -4.270108000000000
C       8.464608999999999     -2.402834000000000     -1.976927000000000
H       8.573525000000000     -3.100098000000000     -1.139800000000000
H       9.251834000000001     -2.616549000000000     -2.708587000000000
H       8.628603000000000     -1.389568000000000     -1.596202000000000
C       6.961005000000000     -3.964874000000000     -3.196892000000000
H       5.999716000000000     -4.118905000000000     -3.698521000000000
H       7.753186000000000     -4.130584000000000     -3.934093000000000
H       7.068353000000000     -4.723770000000000     -2.414483000000000
C       8.818647000000000      1.286730000000000      3.007831000000000
H       8.746724000000000      0.298348000000000      2.543620000000000
H       9.870746000000000      1.467146000000000      3.255852000000000
H       8.243478000000000      1.264244000000000      3.939050000000000
C       9.121924000000000      2.391640000000000      0.774948000000000
H       9.060466999999999      1.429222000000000      0.256603000000000
H       8.765796000000000      3.167699000000000      0.089577000000000
H      10.177258000000000      2.585463000000000      0.997225000000000
C       8.489622000000001      3.742424000000000      2.766238000000000
H       9.553232000000000      3.898609000000000      2.973118000000000
H       8.145414000000001      4.570814000000000      2.137748000000000
H       7.954278000000000      3.786905000000000      3.720613000000000
C       3.924897000000000      4.934437000000000      2.936720000000000
H       4.571847000000000      5.504631000000000      2.261244000000000
H       3.101317000000000      5.588012000000000      3.240019000000000
H       4.494956000000000      4.682213000000000      3.836876000000000
C       2.506705000000000      4.188733000000000      1.060028000000000
H       1.777051000000000      4.926998000000000      1.411446000000000
H       3.154110000000000      4.678308000000000      0.322659000000000
H       1.960143000000000      3.388099000000000      0.560817000000000
C       2.440538000000000      2.991069000000000      3.292646000000000
H       1.646679000000000      3.675333000000000      3.612577000000000
H       1.971466000000000      2.090981000000000      2.891968000000000
H       3.027098000000000      2.710070000000000      4.174104000000000
