65

P       2.211711000000000      0.003595000000000      0.322834000000000
P      -2.211732000000000      0.003690000000000      0.322827000000000
C       3.030665000000000     -1.561889000000000     -0.176630000000000
C       3.441171000000000      1.300826000000000     -0.122719000000000
C      -1.304926000000000     -0.828344000000000      2.897060000000000
C      -2.406396000000000     -0.029289000000000      2.183352000000000
C      -3.030868000000000     -1.561747000000000     -0.176482000000000
C      -3.441080000000000      1.301002000000000     -0.122830000000000
H      -1.665999000000000     -1.118626000000000      3.890269000000000
H      -1.122386000000000     -1.759633000000000      2.348210000000000
H      -2.392422000000000      1.013200000000000      2.523364000000000
H      -3.401962000000000     -0.424033000000000      2.411192000000000
C       4.298644000000000     -1.924278000000000      0.295616000000000
C       4.883251000000000     -3.123710000000000     -0.096707000000000
C       4.207363000000000     -3.975850000000000     -0.969443000000000
C       2.950158000000000     -3.622665000000000     -1.449203000000000
C       2.364276000000000     -2.421345000000000     -1.053375000000000
H       4.842705000000000     -1.257421000000000      0.960325000000000
H       5.866038000000000     -3.393884000000000      0.276933000000000
H       4.663301000000000     -4.912809000000000     -1.274173000000000
H       2.421302000000000     -4.282486000000000     -2.129871000000000
H       1.377643000000000     -2.140444000000000     -1.412608000000000
C       3.187459000000000      2.602478000000000      0.330218000000000
C       4.039529000000000      3.649710000000000      0.000828000000000
C       5.152981000000000      3.415172000000000     -0.804761000000000
C       5.401234000000000      2.131455000000000     -1.278529000000000
C       4.551741000000000      1.078457000000000     -0.940483000000000
H       2.302889000000000      2.800464000000000      0.933399000000000
H       3.828606000000000      4.651120000000000      0.362899000000000
H       5.816531000000000      4.232583000000000     -1.068748000000000
H       6.258939000000000      1.943162000000000     -1.917029000000000
H       4.756512000000000      0.083497000000000     -1.323012000000000
C      -2.364464000000000     -2.421608000000000     -1.052812000000000
C      -2.950521000000000     -3.622921000000000     -1.448415000000000
C      -4.207919000000000     -3.975679000000000     -0.968855000000000
C      -4.883828000000000     -3.123124000000000     -0.096537000000000
C      -4.299044000000000     -1.923711000000000      0.295571000000000
H      -1.377687000000000     -2.141036000000000     -1.411904000000000
H      -2.421647000000000     -4.283064000000000     -2.128757000000000
H      -4.663995000000000     -4.912626000000000     -1.273415000000000
H      -5.866768000000000     -3.392963000000000      0.276944000000000
H      -4.843104000000000     -1.256531000000000      0.959956000000000
C      -3.187472000000000      2.602607000000000      0.330301000000000
C      -4.039402000000000      3.649894000000000      0.000729000000000
C      -5.152604000000000      3.415468000000000     -0.805241000000000
C      -5.400743000000000      2.131803000000000     -1.279205000000000
C      -4.551391000000000      1.078748000000000     -0.940978000000000
H      -2.303088000000000      2.800521000000000      0.933776000000000
H      -3.828568000000000      4.651265000000000      0.362963000000000
H      -5.816042000000000      4.232926000000000     -1.069365000000000
H      -6.258246000000000      1.943592000000000     -1.918001000000000
H      -4.756076000000000      0.083828000000000     -1.323658000000000
C       0.000316000000000      1.994061000000000     -1.069919000000000
O       0.000658000000000      3.007117000000000     -1.608116000000000
Rh      0.000011000000000      0.283905000000000     -0.222830000000000
H      -0.000130000000000     -1.225783000000000      0.393982000000000
C      -0.000014000000000     -0.021039000000000      3.016712000000000
H       0.000006000000000      0.737056000000000      2.222585000000000
H       0.000031000000000      0.536598000000000      3.962476000000000
C       1.304820000000000     -0.828462000000000      2.897012000000000
H       1.122186000000000     -1.759691000000000      2.348093000000000
H       1.665857000000000     -1.118852000000000      3.890203000000000
C       2.406362000000000     -0.029460000000000      2.183353000000000
H       2.392436000000000      1.013031000000000      2.523367000000000
H       3.401904000000000     -0.424244000000000      2.411224000000000
