98

C       2.316745000000000      1.972075000000000      0.442488000000000
C       1.542870000000000      0.813288000000000      0.435912000000000
C       0.455650000000000      0.678493000000000      1.326235000000000
C       0.252493000000000      1.701590000000000      2.270791000000000
C       0.999178000000000      2.880436000000000      2.258872000000000
C       2.021391000000000      3.014890000000000      1.321283000000000
H       3.156446000000000      2.107606000000000     -0.228732000000000
H       0.774375000000000      3.677216000000000      2.953678000000000
O       2.790876000000000      4.124567000000000      1.205139000000000
C      -0.468227000000000     -0.496594000000000      1.392869000000000
C      -0.307777000000000     -1.387951000000000      2.482391000000000
C      -1.517743000000000     -0.741700000000000      0.498925000000000
C      -1.087814000000000     -2.527090000000000      2.610660000000000
C      -2.325525000000000     -1.880670000000000      0.632462000000000
C      -2.089412000000000     -2.777630000000000      1.668229000000000
H      -0.941037000000000     -3.249900000000000      3.403250000000000
H      -3.124216000000000     -2.060361000000000     -0.074089000000000
O      -2.795288000000000     -3.919350000000000      1.859976000000000
P       1.849261000000000     -0.468684000000000     -0.882120000000000
P      -1.783005000000000      0.360010000000000     -0.974672000000000
C      -3.467049000000000     -0.130794000000000     -1.548807000000000
C      -4.660427000000000      0.397628000000000     -1.049118000000000
C      -3.523965000000000     -1.109273000000000     -2.550659000000000
C      -5.887917000000000     -0.060015000000000     -1.520582000000000
H      -4.643165000000000      1.177394000000000     -0.295577000000000
C      -4.746617000000000     -1.579724000000000     -3.013590000000000
H      -2.595920000000000     -1.495724000000000     -2.964719000000000
C      -5.926944000000000     -1.053877000000000     -2.492634000000000
H      -6.812575000000000      0.357449000000000     -1.136760000000000
H      -4.787299000000000     -2.337203000000000     -3.789810000000000
C      -7.243275000000000     -1.605028000000000     -2.961252000000000
C      -2.055648000000000      1.981116000000000     -0.135572000000000
C      -1.506825000000000      3.145937000000000     -0.677450000000000
C      -2.726507000000000      2.052776000000000      1.091073000000000
C      -1.576018000000000      4.351563000000000      0.011760000000000
H      -0.994893000000000      3.108990000000000     -1.631552000000000
C      -2.823017000000000      3.259713000000000      1.772985000000000
H      -3.129977000000000      1.150880000000000      1.543139000000000
C      -2.219467000000000      4.398011000000000      1.244651000000000
H      -1.121468000000000      5.246585000000000     -0.399950000000000
H      -3.336650000000000      3.310280000000000      2.727994000000000
C      -2.173964000000000      5.655116000000000      2.059701000000000
C       1.902155000000000     -2.006755000000000      0.127916000000000
C       2.610788000000000     -2.033725000000000      1.336357000000000
C       1.200641000000000     -3.142044000000000     -0.279802000000000
C       2.613382000000000     -3.177203000000000      2.122639000000000
H       3.140037000000000     -1.146535000000000      1.674431000000000
C       1.177098000000000     -4.282440000000000      0.519205000000000
H       0.644411000000000     -3.118473000000000     -1.211384000000000
C       1.877436000000000     -4.290952000000000      1.719810000000000
H       3.166474000000000     -3.201249000000000      3.056940000000000
H       0.609185000000000     -5.155373000000000      0.216373000000000
C       1.795437000000000     -5.470423000000000      2.642851000000000
C       3.625682000000000     -0.231572000000000     -1.348407000000000
C       4.660814000000000     -1.079962000000000     -0.943832000000000
C       3.927188000000000      0.814508000000000     -2.233331000000000
C       5.964968000000000     -0.872923000000000     -1.387248000000000
H       4.461237000000000     -1.918045000000000     -0.286672000000000
C       5.228267000000000      1.038747000000000     -2.660862000000000
H       3.134315000000000      1.462262000000000     -2.594652000000000
C       6.248043000000000      0.190254000000000     -2.235166000000000
H       6.761219000000000     -1.535784000000000     -1.065773000000000
H       5.451544000000000      1.864285000000000     -3.328862000000000
C       7.641206000000000      0.397132000000000     -2.755731000000000
H      -0.395792000000000     -1.445538000000000     -1.899225000000000
O      -0.730481000000000      1.478667000000000      3.180089000000000
O       0.663948000000000     -1.058854000000000      3.368211000000000
Rh      0.074547000000000      0.039413000000000     -2.216674000000000
C       0.602886000000000      1.781480000000000     -2.905174000000000
O       0.911507000000000      2.751122000000000     -3.435073000000000
C      -0.837262000000000      2.369969000000000      4.267495000000000
H      -1.121807000000000      3.376970000000000      3.940682000000000
H      -1.618209000000000      1.964899000000000      4.911953000000000
H       0.106387000000000      2.424946000000000      4.823336000000000
C       0.752101000000000     -1.823884000000000      4.550736000000000
H       1.005481000000000     -2.868230000000000      4.337644000000000
H       1.545777000000000     -1.369227000000000      5.144331000000000
H      -0.191671000000000     -1.790382000000000      5.108145000000000
F       7.799575000000000     -0.152135000000000     -3.969412000000000
F       8.561712999999999     -0.151629000000000     -1.951028000000000
F       7.931281000000000      1.700620000000000     -2.877998000000000
F       0.941338000000000     -5.232203000000000      3.660813000000000
F       2.981767000000000     -5.747541000000000      3.202252000000000
F       1.365761000000000     -6.574668000000000      2.023756000000000
F      -7.547787000000000     -2.746319000000000     -2.322267000000000
F      -7.221700000000000     -1.887623000000000     -4.271027000000000
F      -8.251265000000000     -0.750235000000000     -2.743606000000000
F      -2.082529000000000      6.752136000000000      1.300978000000000
F      -1.092712000000000      5.660050000000000      2.875831000000000
F      -3.245376000000000      5.786208000000000      2.850885000000000
C      -3.809079000000000     -4.223069000000000      0.925838000000000
H      -4.235209000000000     -5.174858000000000      1.241443000000000
H      -4.592135000000000     -3.455355000000000      0.921926000000000
H      -3.399765000000000     -4.321873000000000     -0.086984000000000
C       2.481633000000000      5.223502000000000      2.035364000000000
H       1.444337000000000      5.550159000000000      1.894819000000000
H       2.640792000000000      4.980357000000000      3.093051000000000
H       3.160811000000000      6.023629000000000      1.742822000000000
