102

C      -2.621769000000000     -1.653849000000000      0.673246000000000
C      -1.683929000000000     -0.621235000000000      0.539265000000000
C      -0.554050000000000     -0.562194000000000      1.370908000000000
C      -0.429237000000000     -1.548467000000000      2.377192000000000
C      -1.335430000000000     -2.593791000000000      2.492412000000000
C      -2.433190000000000     -2.643110000000000      1.630979000000000
H      -3.488653000000000     -1.678066000000000      0.027993000000000
H      -1.235816000000000     -3.374689000000000      3.234761000000000
O      -3.275571000000000     -3.691554000000000      1.814794000000000
C       0.463811000000000      0.539008000000000      1.359877000000000
C       0.353861000000000      1.504250000000000      2.392088000000000
C       1.521073000000000      0.678598000000000      0.451612000000000
C       1.199100000000000      2.601579000000000      2.460133000000000
C       2.382066000000000      1.784992000000000      0.516553000000000
C       2.203388000000000      2.747974000000000      1.500944000000000
H       1.099485000000000      3.370252000000000      3.216033000000000
H       3.177947000000000      1.886457000000000     -0.207917000000000
O       2.968725000000000      3.863922000000000      1.621366000000000
P      -1.858250000000000      0.541383000000000     -0.906274000000000
P       1.765247000000000     -0.527882000000000     -0.939097000000000
C       3.410194000000000     -0.045218000000000     -1.613452000000000
C       4.624414000000000     -0.361007000000000     -0.996410000000000
C       3.434966000000000      0.717299000000000     -2.788082000000000
C       5.824595000000000      0.088935000000000     -1.534518000000000
H       4.637775000000000     -0.959766000000000     -0.090755000000000
C       4.635301000000000      1.171398000000000     -3.318562000000000
H       2.494272000000000      0.957943000000000     -3.276975000000000
C       5.854495000000000      0.860699000000000     -2.702726000000000
H       6.760957000000000     -0.165890000000000     -1.044309000000000
H       4.621031000000000      1.776576000000000     -4.219882000000000
C       7.155214000000000      1.306186000000000     -3.232549000000000
C       2.152720000000000     -2.072725000000000     -0.023093000000000
C       2.726909000000000     -2.047298000000000      1.255047000000000
C       1.896960000000000     -3.310272000000000     -0.617041000000000
C       3.027725000000000     -3.228220000000000      1.918512000000000
H       2.923306000000000     -1.095778000000000      1.740898000000000
C       2.185758000000000     -4.491875000000000      0.056911000000000
H       1.460531000000000     -3.350703000000000     -1.610670000000000
C       2.738235000000000     -4.471946000000000      1.342046000000000
H       3.494863000000000     -3.182219000000000      2.898282000000000
H       1.963978000000000     -5.446739000000000     -0.412384000000000
C       2.980752000000000     -5.743963000000000      2.044593000000000
C      -1.756128000000000      2.163874000000000     -0.053987000000000
C      -2.478388000000000      2.380206000000000      1.129021000000000
C      -0.916346000000000      3.172912000000000     -0.523261000000000
C      -2.361642000000000      3.574807000000000      1.820862000000000
H      -3.117827000000000      1.592993000000000      1.521390000000000
C      -0.780812000000000      4.360892000000000      0.189869000000000
H      -0.338310000000000      3.007632000000000     -1.427440000000000
C      -1.485433000000000      4.576592000000000      1.377968000000000
H      -2.941412000000000      3.719926000000000      2.727894000000000
H      -0.093620000000000      5.124845000000000     -0.165179000000000
C      -1.252297000000000      5.818605000000000      2.134571000000000
C      -3.643381000000000      0.422217000000000     -1.371039000000000
C      -4.610894000000000      1.379636000000000     -1.056591000000000
C      -4.034636000000000     -0.671130000000000     -2.161949000000000
C      -5.926838000000000      1.224536000000000     -1.484713000000000
H      -4.345366000000000      2.261534000000000     -0.484639000000000
C      -5.349821000000000     -0.835024000000000     -2.566938000000000
H      -3.290952000000000     -1.402071000000000     -2.468989000000000
C      -6.327937000000000      0.110706000000000     -2.226671000000000
H      -6.661916000000000      1.984028000000000     -1.230230000000000
H      -5.611685000000000     -1.691264000000000     -3.181045000000000
C      -7.738353000000000     -0.016988000000000     -2.630905000000000
H       0.439945000000000      1.175533000000000     -2.125879000000000
O       0.627309000000000     -1.398885000000000      3.215785000000000
O      -0.640264000000000      1.289205000000000      3.290035000000000
Rh     -0.130601000000000     -0.317951000000000     -2.127433000000000
C      -0.772389000000000     -2.139865000000000     -2.309976000000000
O      -1.155698000000000     -3.207915000000000     -2.484084000000000
C       0.811476000000000     -2.374870000000000      4.214290000000000
H       1.708326000000000     -2.080010000000000      4.761259000000000
H      -0.041810000000000     -2.403647000000000      4.902688000000000
H       0.961790000000000     -3.370199000000000      3.776686000000000
C      -0.728679000000000      2.171497000000000      4.384375000000000
H       0.191695000000000      2.152340000000000      4.980744000000000
H      -0.922188000000000      3.200883000000000      4.056594000000000
H      -1.564346000000000      1.817923000000000      4.989306000000000
C      -8.312991999999999     -1.091610000000000     -3.173095000000000
H      -8.350484000000000      0.864199000000000     -2.444234000000000
H      -7.766846000000000     -2.009790000000000     -3.367684000000000
H      -9.364779000000000     -1.087988000000000     -3.436882000000000
C      -1.723909000000000      6.111593000000000      3.348442000000000
H      -0.608259000000000      6.542844000000000      1.638068000000000
H      -2.363184000000000      5.434003000000000      3.907401000000000
H      -1.483574000000000      7.054463000000000      3.827027000000000
C       7.375619000000000      1.883211000000000     -4.414621000000000
H       8.004510000000000      1.121815000000000     -2.576059000000000
H       6.579960000000000      2.076147000000000     -5.127838000000000
H       8.376128000000000      2.175611000000000     -4.713680000000000
C       3.226122000000000     -5.888278000000000      3.348008000000000
H       2.925217000000000     -6.634827000000000      1.420764000000000
H       3.266534000000000     -5.042690000000000      4.029080000000000
H       3.388680000000000     -6.868843000000000      3.781517000000000
C       3.984120000000000      4.056112000000000      0.660565000000000
H       3.566855000000000      4.123299000000000     -0.351654000000000
H       4.470563000000000      4.996790000000000      0.918365000000000
H       4.720549000000000      3.243759000000000      0.687614000000000
C      -4.352998000000000     -3.819467000000000      0.912315000000000
H      -4.872416000000000     -4.736551000000000      1.189826000000000
H      -5.043867000000000     -2.971258000000000      0.989573000000000
H      -3.995893000000000     -3.897164000000000     -0.122154000000000
