98

C      -2.656422000000000     -1.593570000000000      0.734127000000000
C      -1.704993000000000     -0.578295000000000      0.565679000000000
C      -0.573560000000000     -0.508549000000000      1.393956000000000
C      -0.461125000000000     -1.461620000000000      2.432044000000000
C      -1.382278000000000     -2.489029000000000      2.584165000000000
C      -2.481036000000000     -2.552151000000000      1.724757000000000
H      -3.520709000000000     -1.629421000000000      0.085357000000000
H      -1.293896000000000     -3.244357000000000      3.353938000000000
O      -3.337452000000000     -3.583094000000000      1.944120000000000
C       0.450716000000000      0.585735000000000      1.353191000000000
C       0.331683000000000      1.581437000000000      2.354294000000000
C       1.513324000000000      0.698834000000000      0.447445000000000
C       1.171850000000000      2.683461000000000      2.393786000000000
C       2.366631000000000      1.813357000000000      0.481717000000000
C       2.177490000000000      2.806521000000000      1.432993000000000
H       1.071162000000000      3.468891000000000      3.131879000000000
H       3.162848000000000      1.897978000000000     -0.244392000000000
O       2.933850000000000      3.932538000000000      1.520573000000000
P      -1.861885000000000      0.529264000000000     -0.923285000000000
P       1.770273000000000     -0.543574000000000     -0.909503000000000
C       3.409642000000000     -0.065254000000000     -1.597670000000000
C       4.618967000000000     -0.294877000000000     -0.930597000000000
C       3.439905000000000      0.592451000000000     -2.829668000000000
C       5.820229000000000      0.137176000000000     -1.479637000000000
H       4.622135000000000     -0.810160000000000      0.025836000000000
C       4.647066000000000      1.026119000000000     -3.373054000000000
H       2.504518000000000      0.766528000000000     -3.355813000000000
C       5.853838000000000      0.804601000000000     -2.708849000000000
H       6.750765000000000     -0.046785000000000     -0.947809000000000
H       4.650900000000000      1.539412000000000     -4.331432000000000
C       7.164642000000000      1.240128000000000     -3.311530000000000
C       2.185325000000000     -2.070017000000000      0.023771000000000
C       2.031540000000000     -3.308881000000000     -0.605669000000000
C       2.701204000000000     -2.038512000000000      1.323065000000000
C       2.377928000000000     -4.485835000000000      0.048363000000000
H       1.637933000000000     -3.350816000000000     -1.617769000000000
C       3.050539000000000     -3.220708000000000      1.970130000000000
H       2.816015000000000     -1.089433000000000      1.838679000000000
C       2.886479000000000     -4.460674000000000      1.349399000000000
H       2.247478000000000     -5.439519000000000     -0.456784000000000
H       3.457562000000000     -3.178985000000000      2.978236000000000
C       3.219189000000000     -5.739699000000000      2.073723000000000
C      -1.742411000000000      2.190174000000000     -0.151845000000000
C      -2.430564000000000      2.477441000000000      1.032107000000000
C      -0.918292000000000      3.173228000000000     -0.704877000000000
C      -2.302249000000000      3.723010000000000      1.637927000000000
H      -3.048397000000000      1.713335000000000      1.498089000000000
C      -0.776134000000000      4.407873000000000     -0.080700000000000
H      -0.363639000000000      2.951431000000000     -1.611618000000000
C      -1.458211000000000      4.698955000000000      1.102850000000000
H      -2.851242000000000      3.933484000000000      2.553036000000000
H      -0.109390000000000      5.152581000000000     -0.509092000000000
C      -1.244405000000000      6.014741000000000      1.804975000000000
C      -3.645874000000000      0.395075000000000     -1.388249000000000
C      -4.637570000000000      1.310735000000000     -1.026634000000000
C      -4.016473000000000     -0.689753000000000     -2.196154000000000
C      -5.956859000000000      1.128560000000000     -1.436306000000000
H      -4.388134000000000      2.181132000000000     -0.430067000000000
C      -5.337221000000000     -0.878671000000000     -2.582604000000000
H      -3.257160000000000     -1.395969000000000     -2.523287000000000
C      -6.331534000000000      0.031214000000000     -2.210718000000000
H      -6.709825000000000      1.856553000000000     -1.144310000000000
H      -5.598589000000000     -1.736239000000000     -3.198007000000000
C      -7.754833000000000     -0.151929000000000     -2.670249000000000
H       0.445082000000000      1.096983000000000     -2.177938000000000
O       0.598202000000000     -1.296684000000000      3.265219000000000
O      -0.668233000000000      1.390092000000000      3.251965000000000
Rh     -0.127488000000000     -0.394315000000000     -2.095670000000000
C      -0.753364000000000     -2.229372000000000     -2.155824000000000
O      -1.118685000000000     -3.313753000000000     -2.247602000000000
C       0.782802000000000     -2.250095000000000      4.284117000000000
H       0.923005000000000     -3.255056000000000      3.866627000000000
H       1.686260000000000     -1.950530000000000      4.817123000000000
H      -0.065048000000000     -2.258077000000000      4.979903000000000
C      -0.759304000000000      2.293573000000000      4.327134000000000
H      -0.965860000000000      3.312587000000000      3.976611000000000
H      -1.589330000000000      1.946690000000000      4.943382000000000
H       0.163691000000000      2.296587000000000      4.919832000000000
H      -8.044660000000000     -1.206565000000000     -2.651715000000000
H      -7.881297000000000      0.204226000000000     -3.698698000000000
H      -8.450958999999999      0.405874000000000     -2.038426000000000
H      -1.295173000000000      6.853781000000000      1.104572000000000
H      -0.253347000000000      6.040998000000000      2.273180000000000
H      -1.991123000000000      6.176521000000000      2.587121000000000
H       7.022960000000000      2.061222000000000     -4.019223000000000
H       7.637037000000000      0.413491000000000     -3.853897000000000
H       7.866786000000000      1.568792000000000     -2.539936000000000
H       2.330583000000000     -6.150247000000000      2.566925000000000
H       3.978161000000000     -5.574673000000000      2.843423000000000
H       3.591187000000000     -6.501939000000000      1.383483000000000
C       3.943284000000000      4.106007000000000      0.550178000000000
H       3.520380000000000      4.139033000000000     -0.461362000000000
H       4.421697000000000      5.058617000000000      0.777841000000000
H       4.687532000000000      3.301679000000000      0.597584000000000
C      -4.414625000000000     -3.728083000000000      1.044181000000000
H      -4.946151000000000     -4.628711000000000      1.351443000000000
H      -5.094754000000000     -2.868964000000000      1.091097000000000
H      -4.056921000000000     -3.844910000000000      0.013707000000000
