118

C      -2.362037000000000     -2.141262000000000      0.500903000000000
C      -1.614796000000000     -0.952472000000000      0.535025000000000
C      -0.513621000000000     -0.830042000000000      1.391902000000000
C      -0.248629000000000     -1.890905000000000      2.287945000000000
C      -0.982633000000000     -3.067747000000000      2.258573000000000
C      -2.032643000000000     -3.193144000000000      1.344583000000000
H      -3.177104000000000     -2.235208000000000     -0.204657000000000
H      -0.775280000000000     -3.903790000000000      2.913528000000000
O      -2.688503000000000     -4.383836000000000      1.367999000000000
C       0.353779000000000      0.385881000000000      1.474057000000000
C       0.123304000000000      1.248237000000000      2.571021000000000
C       1.361638000000000      0.728898000000000      0.564889000000000
C       0.803917000000000      2.447622000000000      2.711011000000000
C       2.052806000000000      1.944132000000000      0.699808000000000
C       1.750825000000000      2.802464000000000      1.748048000000000
H       0.606988000000000      3.141559000000000      3.519123000000000
H       2.806304000000000      2.209908000000000     -0.029232000000000
O       2.332542000000000      4.022560000000000      1.926668000000000
P      -1.966006000000000      0.315978000000000     -0.777678000000000
P       1.740937000000000     -0.336350000000000     -0.916711000000000
C       3.298734000000000      0.397484000000000     -1.549353000000000
C       4.542961000000000      0.253099000000000     -0.925946000000000
C       3.244647000000000      1.181282000000000     -2.705445000000000
C       5.679051000000000      0.878746000000000     -1.417232000000000
H       4.635350000000000     -0.367199000000000     -0.038961000000000
C       4.370733000000000      1.818257000000000     -3.209907000000000
H       2.292300000000000      1.290366000000000     -3.219081000000000
C       5.618207000000000      1.693545000000000     -2.567689000000000
H       6.620103000000000      0.724566000000000     -0.903375000000000
H       4.273850000000000      2.405319000000000     -4.114959000000000
N       6.742727000000000      2.345241000000000     -3.045631000000000
C       2.299982000000000     -1.884264000000000     -0.115475000000000
C       2.132514000000000     -3.107209000000000     -0.769499000000000
C       2.920344000000000     -1.901321000000000      1.138109000000000
C       2.551388000000000     -4.302233000000000     -0.202385000000000
H       1.657509000000000     -3.128522000000000     -1.746464000000000
C       3.360553000000000     -3.084985000000000      1.712926000000000
H       3.046177000000000     -0.974334000000000      1.691590000000000
C       3.161848000000000     -4.321614000000000      1.067062000000000
H       2.390505000000000     -5.222130000000000     -0.750649000000000
H       3.842265000000000     -3.041924000000000      2.682724000000000
N       3.536830000000000     -5.512573000000000      1.669697000000000
C      -1.976960000000000      1.906377000000000      0.140939000000000
C      -2.703720000000000      2.091138000000000      1.321635000000000
C      -1.208076000000000      2.980525000000000     -0.313899000000000
C      -2.657484000000000      3.286726000000000      2.025800000000000
H      -3.285399000000000      1.274574000000000      1.738610000000000
C      -1.139943000000000      4.176608000000000      0.384208000000000
H      -0.624223000000000      2.864197000000000     -1.221328000000000
C      -1.856673000000000      4.358010000000000      1.580696000000000
H      -3.228769000000000      3.369086000000000      2.943158000000000
H      -0.506128000000000      4.966692000000000     -0.000501000000000
N      -1.760060000000000      5.547724000000000      2.291228000000000
C      -3.734468000000000      0.036224000000000     -1.182094000000000
C      -4.756973000000000     -0.167241000000000     -0.245691000000000
C      -4.096925000000000      0.044674000000000     -2.531066000000000
C      -6.075115000000000     -0.346468000000000     -0.633242000000000
H      -4.520983000000000     -0.218009000000000      0.813481000000000
C      -5.413895000000000     -0.122761000000000     -2.940262000000000
H      -3.321547000000000      0.188020000000000     -3.280825000000000
C      -6.438509000000000     -0.329901000000000     -1.997674000000000
H      -6.825890000000000     -0.501517000000000      0.132202000000000
H      -5.637384000000000     -0.097318000000000     -3.999682000000000
N      -7.750040000000000     -0.525917000000000     -2.390245000000000
H       0.253421000000000      1.274035000000000     -2.015724000000000
O       0.764061000000000     -1.675597000000000      3.166969000000000
O      -0.824766000000000      0.828993000000000      3.447904000000000
Rh     -0.184092000000000     -0.257927000000000     -2.097360000000000
C      -0.702504000000000     -2.105909000000000     -2.396826000000000
O      -1.034802000000000     -3.177033000000000     -2.643614000000000
C       1.070034000000000     -2.710577000000000      4.069456000000000
H       0.218694000000000     -2.927835000000000      4.726668000000000
H       1.366280000000000     -3.625686000000000      3.541057000000000
H       1.908480000000000     -2.351013000000000      4.668259000000000
C      -1.008300000000000      1.585009000000000      4.618711000000000
H      -1.381138000000000      2.590450000000000      4.387596000000000
H      -1.751585000000000      1.050401000000000      5.211277000000000
H      -0.074021000000000      1.667884000000000      5.188004000000000
C      -8.793753000000001     -0.486442000000000     -1.388029000000000
H      -9.759947000000000     -0.621130000000000     -1.875649000000000
H      -8.671700000000000     -1.299855000000000     -0.664541000000000
H      -8.811450000000001      0.464095000000000     -0.834479000000000
C      -8.106443000000001     -0.284189000000000     -3.772253000000000
H      -9.174199000000000     -0.465200000000000     -3.901200000000000
H      -7.884748000000000      0.745100000000000     -4.091256000000000
H      -7.570429000000000     -0.969836000000000     -4.437133000000000
C      -0.588148000000000      6.373754000000000      2.053405000000000
H       0.347195000000000      5.799158000000000      2.133679000000000
H      -0.628256000000000      6.831092000000000      1.059330000000000
H      -0.571401000000000      7.182556000000000      2.785651000000000
C      -2.351370000000000      5.610441000000000      3.608866000000000
H      -1.895548000000000      4.904054000000000      4.323096000000000
H      -2.234339000000000      6.621195000000000      4.003271000000000
H      -3.423253000000000      5.398505000000000      3.557464000000000
C       8.038750000000000      1.974090000000000     -2.517521000000000
H       8.808222000000001      2.562476000000000     -3.018969000000000
H       8.099223000000000      2.194300000000000     -1.446556000000000
H       8.265203000000000      0.906897000000000     -2.661002000000000
C       6.687459000000000      2.949369000000000     -4.360442000000000
H       6.445825000000000      2.222878000000000     -5.150701000000000
H       5.936999000000000      3.746118000000000     -4.389267000000000
H       7.655318000000000      3.399056000000000     -4.585757000000000
C       4.396087000000000     -5.459675000000000      2.832872000000000
H       4.617619000000000     -6.477022000000000      3.158038000000000
H       5.346134000000000     -4.939911000000000      2.636531000000000
H       3.895959000000000     -4.948945000000000      3.663402000000000
C       3.535294000000000     -6.722479000000000      0.874327000000000
H       4.197976000000000     -6.655595000000000     -0.001726000000000
H       3.864003000000000     -7.556547000000000      1.495819000000000
H       2.524553000000000     -6.950341000000000      0.521061000000000
C       3.230618000000000      4.455241000000000      0.928125000000000
H       2.740317000000000      4.501121000000000     -0.052140000000000
H       3.555153000000000      5.453240000000000      1.223897000000000
H       4.101955000000000      3.793055000000000      0.857744000000000
C      -3.693325000000000     -4.580095000000000      0.397133000000000
H      -4.069317000000000     -5.591750000000000      0.550857000000000
H      -4.514623000000000     -3.862872000000000      0.519567000000000
H      -3.286668000000000     -4.487605000000000     -0.617197000000000
