94

C      -2.642757000000000     -1.568226000000000      0.752396000000000
C      -1.691951000000000     -0.555322000000000      0.566142000000000
C      -0.558136000000000     -0.473841000000000      1.389940000000000
C      -0.439255000000000     -1.416108000000000      2.437080000000000
C      -1.359878000000000     -2.441432000000000      2.606788000000000
C      -2.463586000000000     -2.513511000000000      1.754709000000000
H      -3.510903000000000     -1.609600000000000      0.108996000000000
H      -1.265518000000000     -3.189363000000000      3.383004000000000
O      -3.321877000000000     -3.540075000000000      1.992982000000000
C       0.473196000000000      0.613540000000000      1.328908000000000
C       0.368338000000000      1.628547000000000      2.312002000000000
C       1.536274000000000      0.696264000000000      0.421194000000000
C       1.224975000000000      2.719149000000000      2.332999000000000
C       2.410545000000000      1.794543000000000      0.440558000000000
C       2.238038000000000      2.805214000000000      1.376026000000000
H       1.127157000000000      3.526969000000000      3.046932000000000
H       3.209991000000000      1.850371000000000     -0.284988000000000
O       3.020018000000000      3.916068000000000      1.448501000000000
P      -1.863076000000000      0.541814000000000     -0.930980000000000
P       1.775165000000000     -0.574025000000000     -0.913950000000000
C       3.408327000000000     -0.127897000000000     -1.622947000000000
C       4.628840000000000     -0.379387000000000     -0.984183000000000
C       3.436449000000000      0.540687000000000     -2.851428000000000
C       5.829822000000000      0.033578000000000     -1.542332000000000
H       4.644370000000000     -0.908388000000000     -0.035459000000000
C       4.633085000000000      0.962043000000000     -3.416691000000000
H       2.496908000000000      0.731570000000000     -3.364511000000000
C       5.849460000000000      0.714526000000000     -2.768590000000000
H       6.767045000000000     -0.169309000000000     -1.029993000000000
H       4.631401000000000      1.482390000000000     -4.371147000000000
N       7.049676000000000      1.178016000000000     -3.302796000000000
C       2.153718000000000     -2.076475000000000      0.063283000000000
C       1.894426000000000     -3.339863000000000     -0.476872000000000
C       2.737331000000000     -2.012323000000000      1.334576000000000
C       2.200101000000000     -4.500263000000000      0.220468000000000
H       1.442065000000000     -3.418308000000000     -1.461333000000000
C       3.058543000000000     -3.167550000000000      2.034043000000000
H       2.925885000000000     -1.046112000000000      1.794638000000000
C       2.785004000000000     -4.429768000000000      1.491088000000000
H       1.974561000000000     -5.471121000000000     -0.212914000000000
H       3.507463000000000     -3.097503000000000      3.022345000000000
N       3.030431000000000     -5.586112000000000      2.231082000000000
C      -1.751992000000000      2.196468000000000     -0.159010000000000
C      -2.470028000000000      2.481425000000000      1.010158000000000
C      -0.891688000000000      3.176024000000000     -0.660122000000000
C      -2.349861000000000      3.708265000000000      1.643870000000000
H      -3.112731000000000      1.720608000000000      1.447227000000000
C      -0.743960000000000      4.397884000000000     -0.015906000000000
H      -0.305459000000000      2.960565000000000     -1.548653000000000
C      -1.464571000000000      4.677129000000000      1.151045000000000
H      -2.912312000000000      3.909321000000000      2.552820000000000
H      -0.041584000000000      5.133550000000000     -0.399834000000000
N      -1.252650000000000      5.858201000000000      1.862897000000000
C      -3.640558000000000      0.392327000000000     -1.397606000000000
C      -4.638940000000000      1.314454000000000     -1.065109000000000
C      -4.016350000000000     -0.707439000000000     -2.182988000000000
C      -5.955367000000000      1.133017000000000     -1.471043000000000
H      -4.391626000000000      2.202661000000000     -0.494183000000000
C      -5.331287000000000     -0.910975000000000     -2.573138000000000
H      -3.259750000000000     -1.422395000000000     -2.496435000000000
C      -6.326233000000000      0.011515000000000     -2.221542000000000
H      -6.709853000000000      1.867836000000000     -1.201270000000000
H      -5.592454000000000     -1.780705000000000     -3.170681000000000
N      -7.656207000000000     -0.206487000000000     -2.574217000000000
H       0.456307000000000      1.091937000000000     -2.171583000000000
O       0.626650000000000     -1.243782000000000      3.260641000000000
O      -0.631547000000000      1.465854000000000      3.216184000000000
Rh     -0.130949000000000     -0.396461000000000     -2.098396000000000
C      -0.778942000000000     -2.214877000000000     -2.203201000000000
O      -1.159720000000000     -3.289966000000000     -2.346568000000000
C       0.811078000000000     -2.182671000000000      4.292992000000000
H       0.946855000000000     -3.194850000000000      3.891948000000000
H       1.716985000000000     -1.877226000000000      4.818896000000000
H      -0.034576000000000     -2.175527000000000      4.991750000000000
C      -0.715156000000000      2.402317000000000      4.263619000000000
H      -0.895259000000000      3.415435000000000      3.882986000000000
H      -1.557716000000000      2.088913000000000      4.881332000000000
H       0.202070000000000      2.402838000000000      4.865651000000000
H      -8.222929000000001      0.630357000000000     -2.620743000000000
H      -7.785679000000000     -0.788524000000000     -3.391646000000000
H      -2.051652000000000      6.177808000000000      2.395520000000000
H      -0.844979000000000      6.608593000000000      1.319989000000000
H       7.037662000000000      1.322474000000000     -4.304121000000000
H       7.869508000000000      0.661816000000000     -3.011267000000000
H       3.777101000000000     -5.501267000000000      2.908721000000000
H       3.127119000000000     -6.427096000000000      1.676751000000000
C       4.044716000000000      4.043153000000000      0.487790000000000
H       3.636401000000000      4.069122000000000     -0.530065000000000
H       4.547517000000000      4.986055000000000      0.703830000000000
H       4.765834000000000      3.219560000000000      0.557426000000000
C      -4.406678000000000     -3.690260000000000      1.103804000000000
H      -4.940447000000000     -4.584492000000000      1.425960000000000
H      -5.082379000000000     -2.827333000000000      1.144885000000000
H      -4.058507000000000     -3.821112000000000      0.071670000000000
