102

C      -2.440124000000000     -1.716952000000000      0.369178000000000
C      -1.568722000000000     -0.618002000000000      0.487504000000000
C      -0.525053000000000     -0.641364000000000      1.418268000000000
C      -0.480943000000000     -1.713953000000000      2.343599000000000
C      -1.348979000000000     -2.789754000000000      2.244344000000000
C      -2.300120000000000     -2.805145000000000      1.219597000000000
H      -3.204036000000000     -1.710319000000000     -0.398476000000000
H      -1.297344000000000     -3.641550000000000      2.912185000000000
O      -3.052777000000000     -3.936590000000000      1.145337000000000
C       0.568351000000000      0.373562000000000      1.489591000000000
C       0.564268000000000      1.272901000000000      2.582036000000000
C       1.619997000000000      0.452783000000000      0.566785000000000
C       1.529717000000000      2.260323000000000      2.709421000000000
C       2.594891000000000      1.455965000000000      0.687299000000000
C       2.528884000000000      2.361422000000000      1.738763000000000
H       1.524058000000000      2.979848000000000      3.519658000000000
H       3.388320000000000      1.521152000000000     -0.045188000000000
O       3.402753000000000      3.392223000000000      1.913036000000000
P      -1.720008000000000      0.735504000000000     -0.780840000000000
P       1.697718000000000     -0.670869000000000     -0.923650000000000
C       3.426696000000000     -0.436950000000000     -1.505369000000000
C       4.552518000000000     -1.039787000000000     -0.928960000000000
C       3.622775000000000      0.432528000000000     -2.580681000000000
C       5.826745000000000     -0.764073000000000     -1.401243000000000
H       4.438753000000000     -1.742348000000000     -0.110093000000000
C       4.900122000000000      0.725672000000000     -3.054292000000000
H       2.755712000000000      0.890835000000000     -3.051279000000000
C       6.016330000000000      0.130078000000000     -2.464500000000000
H       6.687490000000000     -1.246918000000000     -0.946646000000000
H       5.006896000000000      1.410430000000000     -3.887909000000000
S       7.687494000000000      0.417415000000000     -2.968341000000000
C       1.692536000000000     -2.315413000000000     -0.102842000000000
C       0.914563000000000     -3.345201000000000     -0.632438000000000
C       2.348761000000000     -2.539193000000000      1.114692000000000
C       0.739559000000000     -4.543778000000000      0.051330000000000
H       0.407108000000000     -3.200979000000000     -1.579586000000000
C       2.197555000000000     -3.739572000000000      1.793873000000000
H       2.924024000000000     -1.741707000000000      1.578029000000000
C       1.352164000000000     -4.735172000000000      1.290202000000000
H       0.098120000000000     -5.306701000000000     -0.375708000000000
H       2.684938000000000     -3.880722000000000      2.754933000000000
S       1.073365000000000     -6.162935000000000      2.302110000000000
C      -1.477722000000000      2.269737000000000      0.206603000000000
C      -2.210865000000000      2.517621000000000      1.373167000000000
C      -0.496998000000000      3.188969000000000     -0.166212000000000
C      -1.930262000000000      3.617881000000000      2.168780000000000
H      -2.974835000000000      1.820017000000000      1.700545000000000
C      -0.203929000000000      4.292575000000000      0.629165000000000
H       0.073481000000000      3.018100000000000     -1.073195000000000
C      -0.894230000000000      4.494960000000000      1.823990000000000
H      -2.484236000000000      3.773423000000000      3.090971000000000
H       0.589153000000000      4.966226000000000      0.323488000000000
S      -0.505465000000000      5.784496000000000      2.974292000000000
C      -3.525816000000000      0.768040000000000     -1.139155000000000
C      -4.539255000000000      0.565503000000000     -0.188842000000000
C      -3.905508000000000      1.041780000000000     -2.452784000000000
C      -5.875475000000000      0.647697000000000     -0.544069000000000
H      -4.283342000000000      0.307740000000000      0.834846000000000
C      -5.247682000000000      1.135781000000000     -2.819942000000000
H      -3.133562000000000      1.179399000000000     -3.206937000000000
C      -6.245629000000000      0.940554000000000     -1.865795000000000
H      -6.645747000000000      0.483169000000000      0.204528000000000
H      -5.495957000000000      1.351932000000000     -3.852700000000000
S      -7.980720000000000      1.019023000000000     -2.198980000000000
H       0.654399000000000      1.330004000000000     -1.906325000000000
O       0.476382000000000     -1.627042000000000      3.298604000000000
O      -0.449326000000000      1.112362000000000      3.466024000000000
Rh     -0.103079000000000     -0.042256000000000     -2.171248000000000
C      -1.064760000000000     -1.634145000000000     -2.744368000000000
O      -1.680392000000000     -2.507398000000000     -3.164805000000000
C       0.445966000000000     -2.581602000000000      4.336658000000000
H       0.622215000000000     -3.596831000000000      3.960484000000000
H       1.246639000000000     -2.304359000000000      5.023184000000000
H      -0.516144000000000     -2.554440000000000      4.862623000000000
C      -0.436338000000000      1.918473000000000      4.622827000000000
H       0.474537000000000      1.746757000000000      5.209463000000000
H      -0.508919000000000      2.984008000000000      4.372229000000000
H      -1.308116000000000      1.621037000000000      5.206415000000000
C      -8.024354000000001      1.426170000000000     -3.959956000000000
H      -7.564598000000000      0.640052000000000     -4.562793000000000
H      -9.080543000000000      1.501762000000000     -4.223859000000000
H      -7.540682000000000      2.385208000000000     -4.157625000000000
C       1.161301000000000      6.264770000000000      2.448013000000000
H       1.141579000000000      6.822637000000000      1.509601000000000
H       1.549193000000000      6.915883000000000      3.233564000000000
H       1.808170000000000      5.387522000000000      2.353218000000000
C       7.486443000000000      1.524636000000000     -4.383685000000000
H       6.898974000000000      1.053447000000000     -5.174653000000000
H       7.030931000000000      2.472782000000000     -4.089870000000000
H       8.493107000000000      1.717990000000000     -4.758056000000000
C      -0.506769000000000     -6.768994000000000      1.649005000000000
H      -0.871431000000000     -7.502873000000000      2.370005000000000
H      -1.229336000000000     -5.951710000000000      1.566412000000000
H      -0.382408000000000     -7.260623000000000      0.682264000000000
C       4.422614000000000      3.544320000000000      0.948767000000000
H       5.074618000000000      2.663527000000000      0.915393000000000
H       4.002473000000000      3.714883000000000     -0.050088000000000
H       5.002227000000000      4.414813000000000      1.255779000000000
C      -3.987772000000000     -4.017872000000000      0.089640000000000
H      -4.460760000000000     -4.995726000000000      0.178152000000000
H      -4.750836000000000     -3.234607000000000      0.172937000000000
H      -3.491962000000000     -3.933304000000000     -0.885025000000000
