86

C       2.085078000000000      2.324270000000000      0.558604000000000
C       1.450703000000000      1.085058000000000      0.545363000000000
C       0.379152000000000      0.819155000000000      1.425973000000000
C       0.034577000000000      1.819064000000000      2.354165000000000
C       0.650478000000000      3.072592000000000      2.358670000000000
C       1.671777000000000      3.321912000000000      1.443762000000000
H       2.912976000000000      2.556771000000000     -0.100515000000000
H       0.333053000000000      3.835392000000000      3.055648000000000
O       2.336075000000000      4.497471000000000      1.355532000000000
C      -0.371258000000000     -0.473511000000000      1.515090000000000
C      -0.097431000000000     -1.300161000000000      2.633077000000000
C      -1.364488000000000     -0.897377000000000      0.623178000000000
C      -0.723170000000000     -2.526279000000000      2.801443000000000
C      -1.994677000000000     -2.139657000000000      0.780494000000000
C      -1.655424000000000     -2.956953000000000      1.853808000000000
H      -0.504477000000000     -3.183890000000000      3.632936000000000
H      -2.752921000000000     -2.456207000000000      0.078474000000000
O      -2.195250000000000     -4.177231000000000      2.079404000000000
P       1.905929000000000     -0.153945000000000     -0.767604000000000
P      -1.789339000000000      0.149291000000000     -0.851725000000000
C      -3.376287000000000     -0.582799000000000     -1.452877000000000
C      -4.640888000000000     -0.052838000000000     -1.191328000000000
C      -3.260624000000000     -1.722930000000000     -2.259471000000000
C      -5.767462000000000     -0.680896000000000     -1.715865000000000
H      -4.766311000000000      0.842697000000000     -0.595294000000000
C      -4.404353000000000     -2.342215000000000     -2.742629000000000
H      -2.279434000000000     -2.118439000000000     -2.505446000000000
C      -5.673896000000000     -1.833542000000000     -2.484305000000000
Br     -7.475562000000000      0.047588000000000     -1.362893000000000
Br     -4.239211000000000     -3.909193000000000     -3.787041000000000
H      -6.559629000000000     -2.315517000000000     -2.879272000000000
C      -2.324216000000000      1.679674000000000      0.032758000000000
C      -1.807421000000000      2.918324000000000     -0.343480000000000
C      -3.150655000000000      1.584115000000000      1.157537000000000
C      -2.107091000000000      4.043046000000000      0.415454000000000
H      -1.142854000000000      3.005834000000000     -1.193386000000000
C      -3.471771000000000      2.733385000000000      1.866340000000000
H      -3.518036000000000      0.620190000000000      1.496897000000000
C      -2.948976000000000      3.975053000000000      1.518876000000000
Br     -1.311341000000000      5.697112000000000     -0.033697000000000
Br     -4.612978000000000      2.606265000000000      3.369521000000000
H      -3.185739000000000      4.860572000000000      2.096490000000000
C       2.149816000000000     -1.656996000000000      0.272189000000000
C       2.931092000000000     -1.583423000000000      1.430157000000000
C       1.497456000000000     -2.845741000000000     -0.053235000000000
C       3.075394000000000     -2.712600000000000      2.224908000000000
H       3.411263000000000     -0.653334000000000      1.719525000000000
C       1.614051000000000     -3.939572000000000      0.795201000000000
H       0.868587000000000     -2.900082000000000     -0.934668000000000
C       2.410972000000000     -3.899838000000000      1.933774000000000
Br      4.199344000000000     -2.633246000000000      3.745996000000000
Br      0.628769000000000     -5.507282000000000      0.418315000000000
H       2.506750000000000     -4.765198000000000      2.578412000000000
C       3.640006000000000      0.286303000000000     -1.254181000000000
C       4.764152000000000     -0.462187000000000     -0.896944000000000
C       3.796606000000000      1.375130000000000     -2.121624000000000
C       6.016555000000000     -0.096392000000000     -1.381986000000000
H       4.684845000000000     -1.333137000000000     -0.259194000000000
C       5.060723000000000      1.728654000000000     -2.571649000000000
H       2.936399000000000      1.944939000000000     -2.456036000000000
C       6.191120000000000      1.001540000000000     -2.212859000000000
Br      7.525657000000000     -1.126378000000000     -0.895444000000000
Br      5.252126000000000      3.216668000000000     -3.719883000000000
H       7.171980000000000      1.275637000000000     -2.580763000000000
H      -0.176214000000000     -1.418214000000000     -1.810078000000000
O      -0.947310000000000      1.492616000000000      3.231372000000000
O       0.824540000000000     -0.821846000000000      3.503621000000000
Rh      0.084661000000000      0.120203000000000     -2.098745000000000
C       0.365621000000000      1.936882000000000     -2.765004000000000
O       0.532606000000000      2.947114000000000     -3.277776000000000
C      -1.176944000000000      2.356797000000000      4.321982000000000
H      -0.252537000000000      2.529481000000000      4.885996000000000
H      -1.590910000000000      3.318864000000000      3.993339000000000
H      -1.911246000000000      1.856142000000000      4.952404000000000
C       0.973509000000000     -1.504507000000000      4.730128000000000
H       1.351174000000000     -2.522721000000000      4.580267000000000
H       1.706512000000000     -0.937464000000000      5.303560000000000
H       0.019923000000000     -1.544654000000000      5.270181000000000
C      -3.040695000000000     -4.708419000000000      1.080297000000000
H      -2.525590000000000     -4.753412000000000      0.112930000000000
H      -3.295391000000000     -5.716524000000000      1.406168000000000
H      -3.958245000000000     -4.116669000000000      0.976990000000000
C       1.951409000000000      5.538521000000000      2.227351000000000
H       2.107773000000000      5.256215000000000      3.275736000000000
H       2.589647000000000      6.386983000000000      1.982467000000000
H       0.901483000000000      5.813802000000000      2.073037000000000
