110

C      -2.320722000000000     -2.318162000000000      0.518751000000000
C      -1.592072000000000     -1.121920000000000      0.525477000000000
C      -0.479052000000000     -0.957994000000000      1.363847000000000
C      -0.146178000000000     -2.030802000000000      2.225065000000000
C      -0.855586000000000     -3.223521000000000      2.216894000000000
C      -1.939415000000000     -3.368776000000000      1.347702000000000
H      -3.181227000000000     -2.430248000000000     -0.123862000000000
H      -0.588110000000000     -4.067056000000000      2.840057000000000
O      -2.560808000000000     -4.568426000000000      1.376208000000000
C       0.313655000000000      0.305742000000000      1.522973000000000
C       0.022222000000000      1.071740000000000      2.679261000000000
C       1.348247000000000      0.756701000000000      0.692815000000000
C       0.675317000000000      2.265674000000000      2.948336000000000
C       2.027144000000000      1.951441000000000      0.969123000000000
C       1.669329000000000      2.714813000000000      2.075765000000000
H       0.439954000000000      2.878806000000000      3.808934000000000
H       2.833323000000000      2.283480000000000      0.332298000000000
O       2.233409000000000      3.901011000000000      2.394289000000000
P      -1.936107000000000      0.143956000000000     -0.791199000000000
P       1.794005000000000     -0.236055000000000     -0.811039000000000
C       3.287998000000000      0.600215000000000     -1.488997000000000
C       3.137839000000000      1.893691000000000     -2.004680000000000
C       4.526417000000000     -0.029652000000000     -1.626980000000000
C       4.215990000000000      2.557176000000000     -2.575701000000000
H       2.172045000000000      2.391319000000000     -1.952590000000000
C       5.590386000000000      0.633490000000000     -2.235929000000000
H       4.678765000000000     -1.040727000000000     -1.263257000000000
C       5.454101000000000      1.934996000000000     -2.700893000000000
C       4.019356000000000      3.981279000000000     -3.014568000000000
C       6.890004000000000     -0.099782000000000     -2.426354000000000
H       6.290912000000000      2.452060000000000     -3.156297000000000
C       2.489117000000000     -1.694761000000000      0.078906000000000
C       1.863738000000000     -2.932859000000000     -0.027388000000000
C       3.521507000000000     -1.530346000000000      1.009973000000000
C       2.264937000000000     -3.992621000000000      0.782406000000000
H       1.028167000000000     -3.066963000000000     -0.705656000000000
C       3.946157000000000     -2.604930000000000      1.779133000000000
H       3.987923000000000     -0.558056000000000      1.146047000000000
C       3.320477000000000     -3.844417000000000      1.671644000000000
C       1.551256000000000     -5.314537000000000      0.722982000000000
C       5.036751000000000     -2.436990000000000      2.799011000000000
H       3.639912000000000     -4.676632000000000      2.293095000000000
C      -2.087330000000000      1.671583000000000      0.224646000000000
C      -2.892904000000000      1.683207000000000      1.366596000000000
C      -1.316134000000000      2.793883000000000     -0.073475000000000
C      -2.944913000000000      2.816986000000000      2.172141000000000
H      -3.458807000000000      0.798877000000000      1.649846000000000
C      -1.332166000000000      3.898874000000000      0.770323000000000
H      -0.657353000000000      2.778351000000000     -0.935594000000000
C      -2.155131000000000      3.927245000000000      1.890665000000000
C      -3.891107000000000      2.843966000000000      3.339149000000000
C      -0.434487000000000      5.067368000000000      0.471609000000000
H      -2.157901000000000      4.787615000000000      2.551696000000000
C      -3.687472000000000     -0.184062000000000     -1.288252000000000
C      -4.772576000000000      0.641165000000000     -0.986064000000000
C      -3.918397000000000     -1.308765000000000     -2.089056000000000
C      -6.051780000000000      0.319586000000000     -1.437151000000000
H      -4.638689000000000      1.550421000000000     -0.409340000000000
C      -5.203521000000000     -1.643573000000000     -2.495938000000000
H      -3.087519000000000     -1.939279000000000     -2.397083000000000
C      -6.286666000000000     -0.831655000000000     -2.176719000000000
C      -7.190413000000000      1.224381000000000     -1.051682000000000
C      -5.390807000000000     -2.927759000000000     -3.253531000000000
H      -7.286172000000000     -1.081790000000000     -2.512827000000000
H       0.217636000000000      1.262665000000000     -1.888243000000000
O       0.937190000000000     -1.828264000000000      3.012273000000000
O      -0.947498000000000      0.569666000000000      3.481591000000000
Rh     -0.089423000000000     -0.289359000000000     -2.043550000000000
C      -0.451662000000000     -2.164407000000000     -2.468920000000000
O      -0.687656000000000     -3.238827000000000     -2.786649000000000
C       1.197085000000000     -2.775787000000000      4.029709000000000
H       1.398442000000000     -3.767732000000000      3.610392000000000
H       2.085718000000000     -2.419292000000000      4.548627000000000
H       0.351294000000000     -2.839969000000000      4.724135000000000
C      -1.151264000000000      1.197751000000000      4.730447000000000
H      -1.511170000000000      2.225819000000000      4.609204000000000
H      -1.913092000000000      0.611300000000000      5.241943000000000
H      -0.225062000000000      1.205942000000000      5.316305000000000
F      -8.287426999999999      0.981916000000000     -1.778288000000000
F      -6.862706000000000      2.512420000000000     -1.215850000000000
F      -7.517624000000000      1.065053000000000      0.238229000000000
F      -4.513847000000000     -3.037621000000000     -4.258223000000000
F      -6.621236000000000     -3.037611000000000     -3.762925000000000
F      -5.191631000000000     -3.986538000000000     -2.447079000000000
F      -3.466762000000000      3.678597000000000      4.301998000000000
F      -4.031415000000000      1.628746000000000      3.888599000000000
F      -5.111175000000000      3.253065000000000      2.971775000000000
F      -1.040082000000000      5.978762000000000     -0.300125000000000
F       0.673360000000000      4.673780000000000     -0.181637000000000
F      -0.046495000000000      5.686221000000000      1.591845000000000
F       7.921697000000000      0.745344000000000     -2.542642000000000
F       6.864533000000000     -0.854338000000000     -3.532807000000000
F       7.143517000000000     -0.919225000000000     -1.396904000000000
F       2.883315000000000      4.127685000000000     -3.706187000000000
F       5.027998000000000      4.415509000000000     -3.777229000000000
F       3.936867000000000      4.802551000000000     -1.952749000000000
F       1.264646000000000     -5.753646000000000      1.963664000000000
F       2.304078000000000     -6.259371000000000      0.146313000000000
F       0.402950000000000     -5.237118000000000      0.044469000000000
F       4.538060000000000     -2.417678000000000      4.047726000000000
F       5.716812000000000     -1.299662000000000      2.623869000000000
F       5.908089000000000     -3.452733000000000      2.749654000000000
C       3.282020000000000      4.376453000000000      1.571807000000000
H       3.575518000000000      5.338283000000000      1.990709000000000
H       4.138582000000000      3.691954000000000      1.593180000000000
H       2.949638000000000      4.514309000000000      0.538723000000000
C      -3.551858000000000     -4.812605000000000      0.397159000000000
H      -3.859425000000000     -5.848700000000000      0.532724000000000
H      -4.419490000000000     -4.155629000000000      0.530634000000000
H      -3.149643000000000     -4.677106000000000     -0.613889000000000
