118

C      -2.419701000000000     -1.879983000000000      0.645183000000000
C      -1.606583000000000     -0.742561000000000      0.527529000000000
C      -0.518941000000000     -0.550446000000000      1.391460000000000
C      -0.329339000000000     -1.490169000000000      2.434235000000000
C      -1.115076000000000     -2.629089000000000      2.539987000000000
C      -2.153496000000000     -2.827174000000000      1.626579000000000
H      -3.257759000000000     -2.013289000000000     -0.024103000000000
H      -0.947465000000000     -3.386150000000000      3.295164000000000
O      -2.864413000000000     -3.973660000000000      1.782414000000000
C       0.433434000000000      0.603208000000000      1.336319000000000
C       0.299003000000000      1.598008000000000      2.334605000000000
C       1.481569000000000      0.737343000000000      0.417259000000000
C       1.124435000000000      2.712006000000000      2.368120000000000
C       2.322554000000000      1.859868000000000      0.447067000000000
C       2.131012000000000      2.845545000000000      1.408456000000000
H       1.018029000000000      3.495647000000000      3.106986000000000
H       3.128918000000000      1.948154000000000     -0.267286000000000
O       2.893541000000000      3.962894000000000      1.514140000000000
P      -1.876650000000000      0.386999000000000     -0.932775000000000
P       1.742155000000000     -0.548307000000000     -0.905446000000000
C       3.412133000000000     -0.119429000000000     -1.559932000000000
C       4.591698000000000     -0.743713000000000     -1.165459000000000
C       3.473239000000000      0.899774000000000     -2.520466000000000
C       5.831312000000000     -0.336125000000000     -1.681595000000000
H       4.561175000000000     -1.577047000000000     -0.473285000000000
C       4.693858000000000      1.337744000000000     -3.037370000000000
H       2.548273000000000      1.359892000000000     -2.863781000000000
C       5.866360000000000      0.698463000000000     -2.614566000000000
C       7.090802000000000     -0.972682000000000     -1.252228000000000
C       4.702371000000000      2.448701000000000     -4.007089000000000
H       6.823549000000000      0.997638000000000     -3.034230000000000
C       2.045064000000000     -2.002931000000000      0.183033000000000
C       1.372744000000000     -3.202045000000000     -0.031089000000000
C       2.884830000000000     -1.876076000000000      1.293228000000000
C       1.514038000000000     -4.274946000000000      0.857726000000000
H       0.720267000000000     -3.308671000000000     -0.890128000000000
C       3.090643000000000     -2.948367000000000      2.163575000000000
H       3.390735000000000     -0.931640000000000      1.478664000000000
C       2.407188000000000     -4.145340000000000      1.922849000000000
C       0.703903000000000     -5.498590000000000      0.720861000000000
C       3.969941000000000     -2.827193000000000      3.341657000000000
H       2.541649000000000     -4.980495000000000      2.608611000000000
C      -1.837517000000000      2.033388000000000     -0.117718000000000
C      -2.577237000000000      2.264481000000000      1.048080000000000
C      -1.029454000000000      3.044167000000000     -0.623199000000000
C      -2.555649000000000      3.510257000000000      1.677232000000000
H      -3.178644000000000      1.463884000000000      1.475200000000000
C      -0.919866000000000      4.275428000000000      0.038791000000000
H      -0.455655000000000      2.858364000000000     -1.525082000000000
C      -1.704812000000000      4.500848000000000      1.169165000000000
C      -3.410635000000000      3.724201000000000      2.859703000000000
C       0.031042000000000      5.307568000000000     -0.410674000000000
H      -1.621725000000000      5.454078000000000      1.686373000000000
C      -3.669380000000000      0.160875000000000     -1.335929000000000
C      -4.020167000000000     -0.982252000000000     -2.061504000000000
C      -4.665977000000000      1.080483000000000     -1.007758000000000
C      -5.350041000000000     -1.258345000000000     -2.389921000000000
H      -3.240607000000000     -1.664057000000000     -2.387516000000000
C      -6.004850000000000      0.844684000000000     -1.342958000000000
H      -4.406516000000000      2.008124000000000     -0.512411000000000
C      -6.328789000000000     -0.327738000000000     -2.028145000000000
C      -5.744288000000000     -2.486483000000000     -3.104971000000000
C      -7.073750000000000      1.794563000000000     -0.981739000000000
H      -7.367463000000000     -0.521331000000000     -2.288988000000000
H       0.396075000000000      1.107051000000000     -2.124831000000000
O       0.675373000000000     -1.208706000000000      3.301034000000000
O      -0.690532000000000      1.389184000000000      3.239225000000000
Rh     -0.129386000000000     -0.398563000000000     -2.169148000000000
C      -0.760667000000000     -2.205798000000000     -2.459218000000000
O      -1.174900000000000     -3.247985000000000     -2.715761000000000
C       0.784068000000000     -2.014727000000000      4.453019000000000
H      -0.161335000000000     -2.030609000000000      5.008657000000000
H       1.075092000000000     -3.040632000000000      4.195532000000000
H       1.569087000000000     -1.567569000000000      5.062111000000000
C      -0.759746000000000      2.268500000000000      4.338602000000000
H      -0.991236000000000      3.292174000000000      4.020803000000000
H      -1.568575000000000      1.899067000000000      4.970047000000000
H       0.180691000000000      2.264756000000000      4.903204000000000
C      -4.963865000000000     -3.538327000000000     -3.358735000000000
H      -6.782559000000000     -2.513513000000000     -3.432612000000000
H      -3.922018000000000     -3.585988000000000     -3.052975000000000
H      -5.349800000000000     -4.397589000000000     -3.896198000000000
C      -6.976031000000000      2.784453000000000     -0.093257000000000
H      -8.024001999999999      1.636977000000000     -1.489958000000000
H      -6.066679000000000      2.978197000000000      0.469648000000000
H      -7.818501000000000      3.437248000000000      0.107292000000000
C      -3.758422000000000      4.903915000000000      3.376684000000000
H      -3.793268000000000      2.812862000000000      3.318956000000000
H      -3.434132000000000      5.844633000000000      2.941112000000000
H      -4.396959000000000      4.965568000000000      4.251064000000000
C       1.078794000000000      5.093088000000000     -1.208322000000000
H      -0.143281000000000      6.310145000000000     -0.022894000000000
H       1.320050000000000      4.102502000000000     -1.587701000000000
H       1.739229000000000      5.904251000000000     -1.496407000000000
C       5.757437000000000      3.196003000000000     -4.333403000000000
H       3.738919000000000      2.668103000000000     -4.465098000000000
H       6.735774000000000      3.045163000000000     -3.886182000000000
H       5.672124000000000      3.996986000000000     -5.059429000000000
C       7.259521000000000     -1.694297000000000     -0.143404000000000
H       7.945419000000000     -0.801087000000000     -1.905130000000000
H       6.454541000000000     -1.870396000000000      0.565465000000000
H       8.223993000000000     -2.127228000000000      0.098574000000000
C      -0.496373000000000     -5.544748000000000      0.141282000000000
H       1.115668000000000     -6.398658000000000      1.175072000000000
H      -0.959054000000000     -4.656321000000000     -0.282097000000000
H      -1.059586000000000     -6.470061000000000      0.082779000000000
C       4.277082000000000     -1.681564000000000      3.953438000000000
H       4.364430000000000     -3.763497000000000      3.734892000000000
H       3.867016000000000     -0.729767000000000      3.624922000000000
H       4.935650000000000     -1.664095000000000      4.815257000000000
C       3.945323000000000      4.118650000000000      0.587176000000000
H       3.569413000000000      4.153749000000000     -0.442584000000000
H       4.424738000000000      5.066762000000000      0.830783000000000
H       4.676114000000000      3.305033000000000      0.672719000000000
C      -3.868647000000000     -4.245158000000000      0.828770000000000
H      -3.455180000000000     -4.276870000000000     -0.187961000000000
H      -4.275066000000000     -5.222812000000000      1.087382000000000
H      -4.668906000000000     -3.496014000000000      0.862031000000000
