110

C       2.412112000000000      2.241933000000000     -0.185447000000000
C       1.676724000000000      1.101867000000000      0.184873000000000
C       0.625239000000000      1.195498000000000      1.100949000000000
C       0.402503000000000      2.449857000000000      1.725081000000000
C       1.167775000000000      3.563260000000000      1.412547000000000
C       2.148530000000000      3.460753000000000      0.422601000000000
H       3.164151000000000      2.167040000000000     -0.960421000000000
H       1.001960000000000      4.531413000000000      1.869610000000000
O       2.776686000000000      4.624006000000000      0.102294000000000
C      -0.265535000000000      0.074230000000000      1.539105000000000
C      -0.006399000000000     -0.441444000000000      2.833239000000000
C      -1.381244000000000     -0.415875000000000      0.846276000000000
C      -0.811674000000000     -1.410229000000000      3.410542000000000
C      -2.209696000000000     -1.381474000000000      1.438039000000000
C      -1.915783000000000     -1.884866000000000      2.700663000000000
H      -0.613347000000000     -1.834352000000000      4.386403000000000
H      -3.097975000000000     -1.724592000000000      0.931908000000000
O      -2.639356000000000     -2.846122000000000      3.318893000000000
P       1.928747000000000     -0.436039000000000     -0.815275000000000
P      -1.761566000000000      0.201326000000000     -0.874012000000000
C      -3.296108000000000     -0.701621000000000     -1.351491000000000
C      -4.406543000000000     -0.025384000000000     -1.862699000000000
C      -3.315733000000000     -2.103225000000000     -1.337275000000000
C      -5.519977000000000     -0.732026000000000     -2.324365000000000
H      -4.419026000000000      1.058805000000000     -1.910279000000000
C      -4.449314000000000     -2.802420000000000     -1.753329000000000
H      -2.455963000000000     -2.668543000000000     -0.981895000000000
C      -5.554639000000000     -2.120893000000000     -2.262344000000000
C      -6.716078000000000     -0.035660000000000     -2.876601000000000
C      -4.465775000000000     -4.281241000000000     -1.598287000000000
H      -6.438048000000000     -2.649293000000000     -2.603136000000000
C      -2.375334000000000      1.870959000000000     -0.381430000000000
C      -1.561445000000000      2.973427000000000     -0.630053000000000
C      -3.501836000000000      2.033909000000000      0.429027000000000
C      -1.844581000000000      4.211266000000000     -0.049620000000000
H      -0.654659000000000      2.862351000000000     -1.215780000000000
C      -3.816956000000000      3.283201000000000      0.962106000000000
H      -4.142964000000000      1.192212000000000      0.680514000000000
C      -2.976865000000000      4.374785000000000      0.741872000000000
C      -0.855324000000000      5.322794000000000     -0.118639000000000
C      -5.036448000000000      3.384234000000000      1.809271000000000
H      -3.177506000000000      5.337231000000000      1.201065000000000
C       1.876801000000000     -1.783301000000000      0.448279000000000
C       2.720617000000000     -1.818595000000000      1.557186000000000
C       0.879251000000000     -2.749893000000000      0.340067000000000
C       2.539332000000000     -2.789946000000000      2.547538000000000
H       3.512475000000000     -1.088836000000000      1.700503000000000
C       0.666085000000000     -3.687838000000000      1.344890000000000
H       0.219359000000000     -2.740774000000000     -0.516464000000000
C       1.495956000000000     -3.713009000000000      2.462663000000000
C       3.462229000000000     -2.752509000000000      3.712453000000000
C      -0.527862000000000     -4.580372000000000      1.272792000000000
H       1.313729000000000     -4.432496000000000      3.254207000000000
C       3.732045000000000     -0.410208000000000     -1.216868000000000
C       4.719300000000000      0.189261000000000     -0.428437000000000
C       4.118380000000000     -1.056308000000000     -2.392824000000000
C       6.058918000000000      0.146601000000000     -0.815190000000000
H       4.468260000000000      0.723677000000000      0.483734000000000
C       5.463097000000000     -1.126995000000000     -2.761644000000000
H       3.374325000000000     -1.511183000000000     -3.043003000000000
C       6.442606000000000     -0.523911000000000     -1.975998000000000
C       7.041498000000000      0.876377000000000      0.033090000000000
C       5.798113000000000     -1.841655000000000     -4.024991000000000
H       7.484947000000000     -0.561277000000000     -2.270487000000000
H      -0.388095000000000     -1.550077000000000     -1.735587000000000
O      -0.629509000000000      2.492466000000000      2.599244000000000
O       1.094894000000000      0.060824000000000      3.443097000000000
Rh      0.082888000000000     -0.095191000000000     -2.130298000000000
C       0.638894000000000      1.625160000000000     -2.913423000000000
O       0.993639000000000      2.565464000000000     -3.459976000000000
C      -0.823273000000000      3.686952000000000      3.331748000000000
H      -1.694406000000000      3.510120000000000      3.962671000000000
H       0.050475000000000      3.904594000000000      3.957472000000000
H      -1.018385000000000      4.539977000000000      2.671758000000000
C       1.376137000000000     -0.375673000000000      4.754724000000000
H       1.492942000000000     -1.465655000000000      4.797982000000000
H       2.315797000000000      0.099855000000000      5.034621000000000
H       0.579649000000000     -0.076156000000000      5.446469000000000
O       6.742571000000000      1.620435000000000      0.935654000000000
O       8.317197000000000      0.636625000000000     -0.319160000000000
H       8.871650000000001      1.162806000000000      0.283197000000000
O       4.988503000000000     -2.364552000000000     -4.750238000000000
O       7.118816000000000     -1.847944000000000     -4.285838000000000
H       7.229450000000000     -2.334819000000000     -5.121112000000000
O       4.378233000000000     -1.975865000000000      3.842518000000000
O       3.163002000000000     -3.674891000000000      4.649013000000000
H       3.823646000000000     -3.568933000000000      5.355573000000000
O      -0.901716000000000     -5.303125000000000      2.164610000000000
O      -1.163428000000000     -4.455629000000000      0.096357000000000
H      -1.984254000000000     -4.984786000000000      0.079288000000000
O      -3.670162000000000     -4.925197000000000     -0.945986000000000
O      -5.483805000000000     -4.864360000000000     -2.241770000000000
H      -5.422170000000000     -5.819060000000000     -2.061259000000000
O      -7.712304000000000     -0.595694000000000     -3.263197000000000
O      -6.574886000000000      1.301512000000000     -2.903396000000000
H      -7.401246000000000      1.658371000000000     -3.272991000000000
O      -0.850032000000000      6.264894000000000      0.640358000000000
O       0.073804000000000      5.138779000000000     -1.067342000000000
H       0.794907000000000      5.772009000000000     -0.896278000000000
O      -5.803661000000000      2.475945000000000      2.016880000000000
O      -5.205446000000000      4.611374000000000      2.336385000000000
H      -6.021340000000000      4.571413000000000      2.865113000000000
C      -3.670275000000000     -3.466683000000000      2.579260000000000
H      -4.497363000000000     -2.770830000000000      2.390865000000000
H      -3.296513000000000     -3.850793000000000      1.622556000000000
H      -4.020574000000000     -4.297554000000000      3.190135000000000
C       3.878024000000000      4.536185000000000     -0.783256000000000
H       4.632817000000000      3.839168000000000     -0.400072000000000
H       3.557304000000000      4.217295000000000     -1.782371000000000
H       4.301190000000000      5.538872000000000     -0.839006000000000
