86

C      -2.551182000000000     -1.831178000000000      0.781203000000000
C      -1.666802000000000     -0.756465000000000      0.620305000000000
C      -0.547482000000000     -0.609902000000000      1.455612000000000
C      -0.382843000000000     -1.548002000000000      2.501476000000000
C      -1.236500000000000     -2.632666000000000      2.647611000000000
C      -2.321108000000000     -2.772746000000000      1.778843000000000
H      -3.405606000000000     -1.928634000000000      0.126052000000000
H      -1.108273000000000     -3.375553000000000      3.423860000000000
O      -3.106282000000000     -3.855536000000000      1.995773000000000
C       0.378094000000000      0.568285000000000      1.427609000000000
C       0.153710000000000      1.545062000000000      2.431069000000000
C       1.417310000000000      0.800226000000000      0.516536000000000
C       0.859076000000000      2.737433000000000      2.457824000000000
C       2.124318000000000      2.012965000000000      0.529086000000000
C       1.819562000000000      2.985349000000000      1.474396000000000
H       0.665152000000000      3.513136000000000      3.187493000000000
H       2.893621000000000      2.194923000000000     -0.208535000000000
O       2.405970000000000      4.205298000000000      1.530530000000000
P      -1.867344000000000      0.334877000000000     -0.872434000000000
P       1.798179000000000     -0.406443000000000     -0.838511000000000
C       3.408857000000000      0.213312000000000     -1.496968000000000
C       4.606832000000000      0.098283000000000     -0.784289000000000
C       3.393451000000000      0.835342000000000     -2.746321000000000
C       5.764698000000000      0.617814000000000     -1.340477000000000
H       4.656122000000000     -0.382123000000000      0.186955000000000
C       4.580917000000000      1.342995000000000     -3.257034000000000
H       2.473033000000000      0.922012000000000     -3.315362000000000
C       5.784178000000000      1.250013000000000     -2.576607000000000
F       6.913775000000000      0.514042000000000     -0.662436000000000
F       4.568441000000000      1.942732000000000     -4.452520000000000
H       6.702271000000000      1.644498000000000     -2.993932000000000
C       2.357784000000000     -1.898461000000000      0.083843000000000
C       2.376762000000000     -3.118528000000000     -0.597342000000000
C       2.789338000000000     -1.828985000000000      1.410241000000000
C       2.823350000000000     -4.250407000000000      0.066391000000000
H       2.046345000000000     -3.199923000000000     -1.627869000000000
C       3.218364000000000     -2.993565000000000      2.029264000000000
H       2.763047000000000     -0.904893000000000      1.976500000000000
C       3.246568000000000     -4.221242000000000      1.387552000000000
F       2.841855000000000     -5.419736000000000     -0.581947000000000
F       3.618458000000000     -2.933848000000000      3.309267000000000
H       3.582592000000000     -5.117895000000000      1.893175000000000
C      -1.860724000000000      2.011692000000000     -0.106284000000000
C      -2.600954000000000      2.262210000000000      1.056170000000000
C      -1.067333000000000      3.016124000000000     -0.658604000000000
C      -2.539804000000000      3.524198000000000      1.622233000000000
H      -3.184471000000000      1.486864000000000      1.543009000000000
C      -1.019849000000000      4.254170000000000     -0.033310000000000
H      -0.460772000000000      2.832906000000000     -1.538395000000000
C      -1.754220000000000      4.544822000000000      1.104521000000000
F      -3.243399000000000      3.769118000000000      2.739934000000000
F      -0.217842000000000      5.200437000000000     -0.538176000000000
H      -1.702750000000000      5.516632000000000      1.579733000000000
C      -3.641793000000000      0.106849000000000     -1.358262000000000
C      -4.673559000000000      0.988921000000000     -1.030013000000000
C      -3.921857000000000     -1.008628000000000     -2.158784000000000
C      -5.957345000000000      0.724655000000000     -1.489179000000000
H      -4.510708000000000      1.882104000000000     -0.440301000000000
C      -5.223312000000000     -1.238744000000000     -2.573749000000000
H      -3.138942000000000     -1.691826000000000     -2.473131000000000
C      -6.269981000000000     -0.385654000000000     -2.255789000000000
F      -6.938459000000000      1.577853000000000     -1.173878000000000
F      -5.483080000000000     -2.316689000000000     -3.322402000000000
H      -7.278599000000000     -0.569883000000000     -2.603650000000000
H       0.370120000000000      1.075700000000000     -2.172966000000000
O       0.652710000000000     -1.309687000000000      3.342728000000000
O      -0.823300000000000      1.251272000000000      3.322193000000000
Rh     -0.076149000000000     -0.450313000000000     -2.047580000000000
C      -0.543762000000000     -2.346670000000000     -2.043069000000000
O      -0.811725000000000     -3.459328000000000     -2.076948000000000
C       0.871014000000000     -2.223720000000000      4.395990000000000
H       1.749460000000000     -1.863585000000000      4.929572000000000
H       0.008878000000000     -2.255937000000000      5.072213000000000
H       1.072324000000000     -3.230755000000000      4.011644000000000
C      -1.019134000000000      2.139165000000000      4.402182000000000
H      -1.795946000000000      1.689964000000000      5.020582000000000
H      -0.099283000000000      2.252796000000000      4.987500000000000
H      -1.358114000000000      3.121993000000000      4.057788000000000
C       3.233974000000000      4.575872000000000      0.447341000000000
H       2.683377000000000      4.519493000000000     -0.499030000000000
H       3.533901000000000      5.606173000000000      0.636258000000000
H       4.127204000000000      3.942498000000000      0.389561000000000
C      -4.167947000000000     -4.080388000000000      1.092154000000000
H      -3.797959000000000     -4.180320000000000      0.064452000000000
H      -4.637078000000000     -5.013043000000000      1.403875000000000
H      -4.905477000000000     -3.269910000000000      1.133217000000000
