102

C      -2.576183000000000     -1.693185000000000      0.815139000000000
C      -1.663259000000000     -0.649422000000000      0.616285000000000
C      -0.519901000000000     -0.532244000000000      1.425844000000000
C      -0.360556000000000     -1.468734000000000      2.472735000000000
C      -1.237886000000000     -2.531578000000000      2.644015000000000
C      -2.347597000000000     -2.640411000000000      1.804590000000000
H      -3.455727000000000     -1.757840000000000      0.191008000000000
H      -1.107840000000000     -3.280690000000000      3.413735000000000
O      -3.163104000000000     -3.701555000000000      2.039845000000000
C       0.468944000000000      0.593384000000000      1.353952000000000
C       0.352487000000000      1.591575000000000      2.352401000000000
C       1.502239000000000      0.729407000000000      0.416735000000000
C       1.170297000000000      2.712110000000000      2.365996000000000
C       2.324640000000000      1.867544000000000      0.419586000000000
C       2.135176000000000      2.860921000000000      1.369157000000000
H       1.067262000000000      3.500934000000000      3.100023000000000
H       3.101915000000000      1.963493000000000     -0.325747000000000
O       2.854670000000000      4.019265000000000      1.415075000000000
P      -1.894784000000000      0.451484000000000     -0.873907000000000
P       1.772494000000000     -0.526266000000000     -0.932082000000000
C       3.397019000000000      0.000418000000000     -1.630741000000000
C       4.616209000000000     -0.403456000000000     -1.090718000000000
C       3.358226000000000      0.891264000000000     -2.704637000000000
C       5.812714000000000      0.098098000000000     -1.621596000000000
H       4.652429000000000     -1.110092000000000     -0.267562000000000
C       4.549750000000000      1.412459000000000     -3.224124000000000
H       2.400691000000000      1.184022000000000     -3.128023000000000
C       5.771203000000000      1.015234000000000     -2.675095000000000
N       7.038628000000000     -0.352340000000000     -1.132863000000000
N       4.513755000000000      2.365195000000000     -4.246453000000000
H       6.699696000000000      1.408044000000000     -3.084233000000000
C       2.206896000000000     -2.020812000000000      0.045700000000000
C       1.916108000000000     -3.275825000000000     -0.481232000000000
C       2.823977000000000     -1.901767000000000      1.289995000000000
C       2.215848000000000     -4.430506000000000      0.252671000000000
H       1.445719000000000     -3.366739000000000     -1.455047000000000
C       3.151112000000000     -3.051164000000000      2.016778000000000
H       3.028439000000000     -0.922669000000000      1.714360000000000
C       2.832789000000000     -4.309455000000000      1.501078000000000
N       1.942281000000000     -5.689679000000000     -0.283235000000000
N       3.840959000000000     -2.931669000000000      3.229295000000000
H       3.082418000000000     -5.204304000000000      2.067684000000000
C      -1.822343000000000      2.106351000000000     -0.073314000000000
C      -2.602190000000000      2.349148000000000      1.059033000000000
C      -0.913577000000000      3.057731000000000     -0.522355000000000
C      -2.490068000000000      3.568240000000000      1.733090000000000
H      -3.283107000000000      1.587875000000000      1.432731000000000
C      -0.745957000000000      4.251475000000000      0.189872000000000
H      -0.276449000000000      2.838258000000000     -1.373740000000000
C      -1.554341000000000      4.511169000000000      1.299297000000000
N      -3.338284000000000      3.847493000000000      2.813498000000000
N       0.221987000000000      5.180237000000000     -0.209313000000000
H      -1.442372000000000      5.451152000000000      1.836396000000000
C      -3.677300000000000      0.257172000000000     -1.329992000000000
C      -4.629048000000000      1.254151000000000     -1.132376000000000
C      -4.036899000000000     -0.929233000000000     -1.979321000000000
C      -5.952699000000000      1.054991000000000     -1.555456000000000
H      -4.360862000000000      2.196862000000000     -0.668615000000000
C      -5.359759000000000     -1.146533000000000     -2.374496000000000
H      -3.291522000000000     -1.694922000000000     -2.178320000000000
C      -6.315170000000000     -0.149955000000000     -2.157894000000000
N      -6.886834000000000      2.080798000000000     -1.415989000000000
N      -5.733280000000000     -2.372052000000000     -2.935935000000000
H      -7.342725000000000     -0.307500000000000     -2.478342000000000
H       0.362934000000000      1.087410000000000     -2.169097000000000
O       0.694056000000000     -1.254274000000000      3.306707000000000
O      -0.615552000000000      1.384195000000000      3.283871000000000
Rh     -0.159815000000000     -0.420705000000000     -2.082452000000000
C      -0.750581000000000     -2.257726000000000     -2.170794000000000
O      -1.107100000000000     -3.344172000000000     -2.299490000000000
C       0.828655000000000     -2.121437000000000      4.405302000000000
H      -0.074697000000000     -2.120147000000000      5.027403000000000
H       1.043093000000000     -3.147590000000000      4.078752000000000
H       1.667583000000000     -1.743995000000000      4.992356000000000
C      -0.680028000000000      2.286300000000000      4.359833000000000
H      -0.917384000000000      3.301140000000000      4.016714000000000
H      -1.478538000000000      1.926123000000000      5.010431000000000
H       0.264586000000000      2.307902000000000      4.917814000000000
H      -7.848206000000000      1.773648000000000     -1.348249000000000
H      -6.659048000000000      2.758183000000000     -0.699763000000000
H      -4.967040000000000     -2.863465000000000     -3.380194000000000
H      -6.530678000000000     -2.313627000000000     -3.557091000000000
H      -2.986364000000000      4.555808000000000      3.445779000000000
H      -3.629354000000000      3.020309000000000      3.320925000000000
H       0.918759000000000      4.765793000000000     -0.818730000000000
H       0.684831000000000      5.631224000000000      0.572303000000000
H       3.667354000000000      2.331517000000000     -4.801300000000000
H       5.334599000000000      2.367523000000000     -4.838985000000000
H       7.802864000000000      0.303306000000000     -1.228440000000000
H       6.997398000000000     -0.748415000000000     -0.202847000000000
H       1.195422000000000     -5.686898000000000     -0.967180000000000
H       1.801646000000000     -6.415536000000000      0.407674000000000
H       3.699033000000000     -3.703540000000000      3.868980000000000
H       3.688444000000000     -2.042483000000000      3.689672000000000
C       3.863610000000000      4.183696000000000      0.440946000000000
H       4.324105000000000      5.151342000000000      0.640772000000000
H       4.620739000000000      3.393862000000000      0.511373000000000
H       3.448045000000000      4.177425000000000     -0.575049000000000
C      -4.258642000000000     -3.875461000000000      1.165680000000000
H      -3.926392000000000     -3.972880000000000      0.124729000000000
H      -4.753225000000000     -4.794541000000000      1.479927000000000
H      -4.964188000000000     -3.039020000000000      1.234674000000000
