118

C      -2.359184000000000     -2.077745000000000      0.636298000000000
C      -1.561869000000000     -0.924838000000000      0.570212000000000
C      -0.400813000000000     -0.810715000000000      1.348531000000000
C      -0.083405000000000     -1.878378000000000      2.222160000000000
C      -0.858182000000000     -3.028877000000000      2.281456000000000
C      -1.997543000000000     -3.123098000000000      1.478087000000000
H      -3.252633000000000     -2.147899000000000      0.031801000000000
H      -0.609286000000000     -3.870059000000000      2.915743000000000
O      -2.687902000000000     -4.289429000000000      1.576037000000000
C       0.468280000000000      0.407831000000000      1.420711000000000
C       0.316546000000000      1.208286000000000      2.576997000000000
C       1.439694000000000      0.793549000000000      0.487309000000000
C       1.017602000000000      2.393061000000000      2.742858000000000
C       2.161008000000000      1.983722000000000      0.653369000000000
C       1.923422000000000      2.791265000000000      1.759289000000000
H       0.873355000000000      3.032541000000000      3.605287000000000
H       2.907400000000000      2.269277000000000     -0.073339000000000
O       2.546106000000000      3.978878000000000      1.979878000000000
P      -1.936854000000000      0.324283000000000     -0.762121000000000
P       1.771825000000000     -0.277115000000000     -0.998231000000000
C       3.280877000000000      0.481037000000000     -1.736069000000000
C       4.547080000000000     -0.096644000000000     -1.665601000000000
C       3.102364000000000      1.695320000000000     -2.408762000000000
C       5.646448000000000      0.562927000000000     -2.227051000000000
H       4.674749000000000     -1.052908000000000     -1.177257000000000
C       4.200138000000000      2.368679000000000     -2.942586000000000
H       2.102078000000000      2.105526000000000     -2.485820000000000
C       5.473602000000000      1.799234000000000     -2.847877000000000
S       7.294323000000000     -0.086960000000000     -2.176553000000000
S       4.081479000000000      3.949045000000000     -3.734581000000000
H       6.332561000000000      2.323153000000000     -3.259836000000000
C       2.406178000000000     -1.756309000000000     -0.094584000000000
C       1.790268000000000     -2.995756000000000     -0.274150000000000
C       3.403057000000000     -1.603838000000000      0.866825000000000
C       2.167870000000000     -4.079807000000000      0.517945000000000
H       0.991731000000000     -3.087338000000000     -1.000044000000000
C       3.831154000000000     -2.704061000000000      1.616777000000000
H       3.836190000000000     -0.623057000000000      1.053286000000000
C       3.213300000000000     -3.938960000000000      1.439435000000000
S       1.361883000000000     -5.655379000000000      0.484423000000000
S       5.114671000000000     -2.397723000000000      2.801049000000000
H       3.500740000000000     -4.798807000000000      2.036397000000000
C      -1.917702000000000      1.895773000000000      0.193186000000000
C      -2.556480000000000      1.952515000000000      1.439307000000000
C      -1.182686000000000      2.981023000000000     -0.262950000000000
C      -2.468697000000000      3.105536000000000      2.212242000000000
H      -3.078231000000000      1.074521000000000      1.804164000000000
C      -1.067043000000000      4.131913000000000      0.527510000000000
H      -0.646060000000000      2.913851000000000     -1.204438000000000
C      -1.718810000000000      4.197904000000000      1.753889000000000
S      -3.241508000000000      3.281353000000000      3.797781000000000
S      -0.044216000000000      5.430804000000000     -0.112777000000000
H      -1.638487000000000      5.081899000000000      2.379008000000000
C      -3.732156000000000      0.047355000000000     -1.118698000000000
C      -4.762404000000000      0.815627000000000     -0.591972000000000
C      -4.032669000000000     -1.008939000000000     -1.994458000000000
C      -6.098784000000000      0.515487000000000     -0.904403000000000
H      -4.551143000000000      1.661010000000000      0.054203000000000
C      -5.355105000000000     -1.323032000000000     -2.287976000000000
H      -3.217548000000000     -1.575292000000000     -2.431270000000000
C      -6.393472000000000     -0.555801000000000     -1.738424000000000
S      -7.319459000000000      1.565701000000000     -0.167067000000000
S      -5.842038000000000     -2.663659000000000     -3.338746000000000
H      -7.418611000000000     -0.805536000000000     -1.990597000000000
H       0.182489000000000      1.278318000000000     -2.009708000000000
O       1.031399000000000     -1.702747000000000      2.969871000000000
O      -0.567080000000000      0.753861000000000      3.506745000000000
Rh     -0.200523000000000     -0.262702000000000     -2.113836000000000
C      -0.682803000000000     -2.094609000000000     -2.507724000000000
O      -1.003901000000000     -3.144203000000000     -2.853928000000000
C       1.339562000000000     -2.682090000000000      3.936390000000000
H       2.265678000000000     -2.350932000000000      4.409194000000000
H       0.541452000000000     -2.757650000000000      4.685563000000000
H       1.498981000000000     -3.663801000000000      3.474627000000000
C      -0.424018000000000      1.249624000000000      4.823595000000000
H       0.617959000000000      1.169642000000000      5.154504000000000
H      -0.762440000000000      2.288579000000000      4.901880000000000
H      -1.057012000000000      0.621233000000000      5.452665000000000
C      -8.865933000000000      0.880088000000000     -0.804476000000000
H      -8.908697999999999      0.941917000000000     -1.894116000000000
H      -9.010456000000000     -0.152459000000000     -0.478754000000000
H      -9.662151000000000      1.497094000000000     -0.384633000000000
C      -4.253298000000000     -3.277923000000000     -3.947442000000000
H      -3.635365000000000     -3.676517000000000     -3.140219000000000
H      -4.491399000000000     -4.084930000000000     -4.642502000000000
H      -3.706111000000000     -2.498162000000000     -4.482456000000000
C      -3.878106000000000      1.612218000000000      4.089224000000000
H      -3.075422000000000      0.875454000000000      4.001511000000000
H      -4.269277000000000      1.610110000000000      5.108170000000000
H      -4.688822000000000      1.369367000000000      3.398155000000000
C       0.391782000000000      6.352198000000000      1.384282000000000
H       0.815177000000000      5.676498000000000      2.131389000000000
H       1.155724000000000      7.071405000000000      1.080804000000000
H      -0.460928000000000      6.902021000000000      1.787323000000000
C       2.315835000000000      4.321875000000000     -3.590409000000000
H       2.181528000000000      5.305547000000000     -4.043597000000000
H       1.708514000000000      3.595113000000000     -4.134844000000000
H       1.997306000000000      4.368626000000000     -2.545241000000000
C       7.109925000000000     -1.528387000000000     -1.096560000000000
H       8.117388000000000     -1.922931000000000     -0.953654000000000
H       6.698043000000000     -1.248828000000000     -0.123502000000000
H       6.490828000000000     -2.301437000000000     -1.556810000000000
C      -0.043110000000000     -5.348474000000000     -0.612592000000000
H      -0.656840000000000     -6.250328000000000     -0.571771000000000
H      -0.631986000000000     -4.498865000000000     -0.256236000000000
H       0.278874000000000     -5.179158000000000     -1.641759000000000
C       5.355925000000000     -4.026644000000000      3.548023000000000
H       6.154179000000000     -3.905475000000000      4.282181000000000
H       4.453509000000000     -4.368308000000000      4.061285000000000
H       5.666835000000000     -4.764602000000000      2.805332000000000
C       3.436126000000000      4.439827000000000      0.982338000000000
H       4.292351000000000      3.764445000000000      0.870250000000000
H       2.924308000000000      4.543750000000000      0.017820000000000
H       3.786519000000000      5.415683000000000      1.319593000000000
C      -3.793849000000000     -4.459006000000000      0.715463000000000
H      -4.577156000000000     -3.718417000000000      0.915157000000000
H      -3.491955000000000     -4.381368000000000     -0.337617000000000
H      -4.180144000000000     -5.458893000000000      0.911682000000000
