86

C      -2.228411000000000     -1.929737000000000      0.855326000000000
C      -1.474617000000000     -0.747908000000000      0.756876000000000
C      -0.432631000000000     -0.493407000000000      1.650346000000000
C      -0.240363000000000     -1.383319000000000      2.731159000000000
C      -0.998434000000000     -2.536915000000000      2.853404000000000
C      -1.971122000000000     -2.822703000000000      1.888280000000000
H      -3.000182000000000     -2.136431000000000      0.124765000000000
H      -0.846821000000000     -3.255380000000000      3.648499000000000
O      -2.626196000000000     -3.999171000000000      2.056186000000000
C       0.512128000000000      0.642916000000000      1.463727000000000
C       0.426937000000000      1.750108000000000      2.338191000000000
C       1.434417000000000      0.689484000000000      0.414525000000000
C       1.188386000000000      2.888451000000000      2.131478000000000
C       2.186564000000000      1.851867000000000      0.181721000000000
C       2.049202000000000      2.943084000000000      1.029618000000000
H       1.118456000000000      3.763033000000000      2.765249000000000
H       2.860700000000000      1.888779000000000     -0.664002000000000
O       2.717422000000000      4.114921000000000      0.875849000000000
P      -1.718474000000000      0.319904000000000     -0.730034000000000
P       1.557438000000000     -0.681942000000000     -0.826887000000000
C       3.295554000000000     -0.527771000000000     -1.428060000000000
C       4.379044000000000     -0.245176000000000     -0.582593000000000
C       3.543621000000000     -0.756163000000000     -2.781882000000000
C       5.672472000000000     -0.192755000000000     -1.087834000000000
H       4.211351000000000     -0.038874000000000      0.469982000000000
C       4.842081000000000     -0.709477000000000     -3.290856000000000
H       2.721579000000000     -0.965454000000000     -3.454926000000000
C       5.906926000000000     -0.427397000000000     -2.443922000000000
H       6.500524000000000      0.031638000000000     -0.421999000000000
H       4.993506000000000     -0.886560000000000     -4.350283000000000
H       6.919488000000000     -0.384812000000000     -2.833953000000000
C       1.699257000000000     -2.186825000000000      0.237077000000000
C       1.038728000000000     -3.355189000000000     -0.145361000000000
C       2.488813000000000     -2.205700000000000      1.393383000000000
C       1.157740000000000     -4.522170000000000      0.608660000000000
H       0.422000000000000     -3.353743000000000     -1.037773000000000
C       2.621400000000000     -3.372445000000000      2.137284000000000
H       2.973113000000000     -1.297150000000000      1.737318000000000
C       1.952323000000000     -4.533827000000000      1.749497000000000
H       0.627353000000000     -5.418214000000000      0.301471000000000
H       3.246340000000000     -3.374172000000000      3.026015000000000
H       2.052419000000000     -5.442259000000000      2.335860000000000
C      -1.684424000000000      2.041844000000000     -0.075006000000000
C      -2.411894000000000      2.401074000000000      1.066162000000000
C      -0.955621000000000      3.019690000000000     -0.753919000000000
C      -2.413772000000000      3.717554000000000      1.511628000000000
H      -2.957141000000000      1.646746000000000      1.625321000000000
C      -0.948173000000000      4.337855000000000     -0.298272000000000
H      -0.383654000000000      2.738638000000000     -1.633371000000000
C      -1.678202000000000      4.689406000000000      0.831616000000000
H      -2.989250000000000      3.986335000000000      2.393010000000000
H      -0.365762000000000      5.086392000000000     -0.826946000000000
H      -1.676626000000000      5.716355000000000      1.184481000000000
C      -3.517269000000000      0.127755000000000     -1.096037000000000
C      -4.505749000000000      0.000467000000000     -0.110374000000000
C      -3.906263000000000      0.177572000000000     -2.437025000000000
C      -5.848485000000000     -0.078526000000000     -0.463371000000000
H      -4.225096000000000     -0.063758000000000      0.936807000000000
C      -5.253248000000000      0.107888000000000     -2.790292000000000
H      -3.140655000000000      0.271306000000000     -3.201871000000000
C      -6.225589000000000     -0.022483000000000     -1.804848000000000
H      -6.602875000000000     -0.183685000000000      0.310411000000000
H      -5.538098000000000      0.149874000000000     -3.836983000000000
H      -7.274621000000000     -0.083824000000000     -2.077529000000000
H       0.461124000000000      1.017938000000000     -2.408662000000000
O       0.748870000000000     -1.045431000000000      3.593115000000000
O      -0.472503000000000      1.625705000000000      3.344795000000000
Rh     -0.207525000000000     -0.410644000000000     -2.422328000000000
C      -1.130364000000000     -2.132607000000000     -2.518770000000000
O      -1.764965000000000     -3.085534000000000     -2.577004000000000
C       0.934583000000000     -1.868760000000000      4.721171000000000
H       0.027663000000000     -1.904063000000000      5.336881000000000
H       1.212572000000000     -2.887874000000000      4.426930000000000
H       1.747127000000000     -1.419497000000000      5.292729000000000
C      -0.562244000000000      2.685654000000000      4.268185000000000
H      -0.875238000000000      3.614412000000000      3.775959000000000
H      -1.315137000000000      2.387496000000000      4.998290000000000
H       0.396158000000000      2.849789000000000      4.775633000000000
C       3.568818000000000      4.228253000000000     -0.243906000000000
H       4.001557000000000      5.227347000000000     -0.195528000000000
H       4.369980000000000      3.479680000000000     -0.214687000000000
H       3.008824000000000      4.114892000000000     -1.180337000000000
C      -3.563005000000000     -4.361791000000000      1.064392000000000
H      -3.089592000000000     -4.425471000000000      0.077021000000000
H      -3.944664000000000     -5.341147000000000      1.352241000000000
H      -4.392801000000000     -3.645750000000000      1.017795000000000
