78

C      -1.926232000000000     -1.784442000000000      1.453165000000000
C      -1.395010000000000     -0.680577000000000      0.774461000000000
C      -0.296955000000000     -0.003469000000000      1.332968000000000
C       0.221045000000000     -0.395704000000000      2.590320000000000
C      -0.266569000000000     -1.564396000000000      3.188739000000000
C      -1.349148000000000     -2.234315000000000      2.626812000000000
H      -2.770679000000000     -2.326103000000000      1.040684000000000
Cl      0.460216000000000     -2.314340000000000      4.592430000000000
H      -1.721111000000000     -3.126120000000000      3.119355000000000
C       0.364076000000000      1.182932000000000      0.689931000000000
C       0.024286000000000      2.438543000000000      1.220670000000000
C       1.307036000000000      1.104529000000000     -0.354233000000000
C       0.533209000000000      3.602907000000000      0.643841000000000
C       1.833987000000000      2.288705000000000     -0.881582000000000
C       1.437392000000000      3.530770000000000     -0.405876000000000
Cl      0.008255000000000      5.159520000000000      1.220891000000000
H       2.552519000000000      2.247602000000000     -1.692734000000000
H       1.826071000000000      4.444909000000000     -0.841180000000000
P      -1.994978000000000     -0.354147000000000     -0.956775000000000
P       1.771274000000000     -0.520672000000000     -1.133322000000000
C       3.215071000000000     -0.069034000000000     -2.184661000000000
C       4.513752000000000      0.102653000000000     -1.693291000000000
C       2.976737000000000      0.111722000000000     -3.551840000000000
C       5.549212000000000      0.460418000000000     -2.552229000000000
H       4.723102000000000     -0.052113000000000     -0.639542000000000
C       4.011609000000000      0.478917000000000     -4.408315000000000
H       1.970703000000000     -0.040321000000000     -3.935275000000000
C       5.299652000000000      0.653762000000000     -3.909268000000000
H       6.553812000000000      0.586232000000000     -2.160282000000000
H       3.812288000000000      0.617784000000000     -5.466342000000000
H       6.109412000000000      0.931941000000000     -4.576726000000000
C       2.542554000000000     -1.400744000000000      0.286680000000000
C       2.448365000000000     -2.793432000000000      0.360259000000000
C       3.213778000000000     -0.713251000000000      1.304426000000000
C       3.000845000000000     -3.486397000000000      1.433884000000000
H       1.930349000000000     -3.337692000000000     -0.422952000000000
C       3.773258000000000     -1.406588000000000      2.374508000000000
H       3.272636000000000      0.371386000000000      1.277270000000000
C       3.660931000000000     -2.792985000000000      2.445255000000000
H       2.907933000000000     -4.566584000000000      1.483059000000000
H       4.290722000000000     -0.859842000000000      3.157697000000000
H       4.082392000000000     -3.331038000000000      3.288681000000000
C      -2.351589000000000      1.445196000000000     -0.970285000000000
C      -2.830473000000000      2.112981000000000      0.161783000000000
C      -2.118287000000000      2.170305000000000     -2.141457000000000
C      -3.062809000000000      3.483716000000000      0.125347000000000
H      -2.953242000000000      1.577913000000000      1.099109000000000
C      -2.363799000000000      3.540859000000000     -2.181147000000000
H      -1.720525000000000      1.658678000000000     -3.013068000000000
C      -2.832255000000000      4.199342000000000     -1.047508000000000
H      -3.394050000000000      3.995969000000000      1.023220000000000
H      -2.172586000000000      4.095828000000000     -3.094316000000000
H      -2.999429000000000      5.271773000000000     -1.070306000000000
C      -3.677835000000000     -1.110638000000000     -0.953640000000000
C      -4.729097000000000     -0.660218000000000     -0.145065000000000
C      -3.897204000000000     -2.197249000000000     -1.803899000000000
C      -5.967114000000000     -1.291449000000000     -0.183061000000000
H      -4.583247000000000      0.187518000000000      0.516629000000000
C      -5.138638000000000     -2.831045000000000     -1.842822000000000
H      -3.086524000000000     -2.540759000000000     -2.441944000000000
C      -6.173604000000000     -2.379556000000000     -1.031312000000000
H      -6.773916000000000     -0.933453000000000      0.449002000000000
H      -5.293671000000000     -3.673559000000000     -2.509411000000000
H      -7.141854000000000     -2.869719000000000     -1.059597000000000
H      -0.036573000000000      0.228327000000000     -2.634135000000000
O       1.202502000000000      0.413868000000000      3.061701000000000
O      -0.856332000000000      2.481106000000000      2.258600000000000
Rh     -0.188591000000000     -1.232193000000000     -2.012785000000000
C      -0.398313000000000     -3.083822000000000     -1.449683000000000
O      -0.552928000000000     -4.192286000000000     -1.199913000000000
C       1.555780000000000      0.473698000000000      4.432052000000000
H       0.675504000000000      0.410387000000000      5.078315000000000
H       2.260046000000000     -0.317743000000000      4.696398000000000
H       2.034232000000000      1.446639000000000      4.563129000000000
C      -0.379346000000000      3.009749000000000      3.490339000000000
H      -0.858448000000000      3.970371000000000      3.694341000000000
H      -0.639565000000000      2.294740000000000      4.275987000000000
H       0.706118000000000      3.144083000000000      3.466555000000000
