78

C      -2.190061000000000     -0.222470000000000      2.232204000000000
C      -1.520302000000000      0.087983000000000      1.044691000000000
C      -0.434460000000000      0.989914000000000      1.076651000000000
C      -0.086816000000000      1.621019000000000      2.286547000000000
C      -0.783720000000000      1.281975000000000      3.449627000000000
C      -1.815018000000000      0.363996000000000      3.432386000000000
H      -3.012291000000000     -0.929516000000000      2.225636000000000
F      -0.486963000000000      1.875718000000000      4.623749000000000
H      -2.323033000000000      0.140155000000000      4.363993000000000
C       0.292470000000000      1.479463000000000     -0.145757000000000
C      -0.082643000000000      2.764169000000000     -0.569147000000000
C       1.298696000000000      0.791363000000000     -0.858985000000000
C       0.447389000000000      3.289355000000000     -1.744421000000000
C       1.841640000000000      1.376188000000000     -2.008567000000000
C       1.407297000000000      2.613766000000000     -2.469312000000000
F       0.000180000000000      4.481832000000000     -2.171812000000000
H       2.604734000000000      0.851963000000000     -2.572011000000000
H       1.798845000000000      3.057379000000000     -3.377927000000000
P      -1.948584000000000     -0.874641000000000     -0.486944000000000
P       1.834476000000000     -0.921297000000000     -0.389097000000000
C       3.291898000000000     -1.215572000000000     -1.477948000000000
C       4.541248000000000     -0.621707000000000     -1.263796000000000
C       3.125394000000000     -2.075786000000000     -2.567467000000000
C       5.598804000000000     -0.876396000000000     -2.131461000000000
H       4.690347000000000      0.039275000000000     -0.414726000000000
C       4.183736000000000     -2.326408000000000     -3.438539000000000
H       2.157835000000000     -2.546527000000000     -2.722362000000000
C       5.420940000000000     -1.726976000000000     -3.221598000000000
H       6.564354000000000     -0.412436000000000     -1.954884000000000
H       4.041722000000000     -2.996225000000000     -4.280938000000000
H       6.248402000000000     -1.926024000000000     -3.895700000000000
C       2.649971000000000     -0.662457000000000      1.239392000000000
C       2.834244000000000     -1.774638000000000      2.066569000000000
C       3.158036000000000      0.577223000000000      1.643515000000000
C       3.517135000000000     -1.656388000000000      3.273622000000000
H       2.441907000000000     -2.740157000000000      1.758445000000000
C       3.850494000000000      0.691861000000000      2.847672000000000
H       3.009361000000000      1.453398000000000      1.018020000000000
C       4.028192000000000     -0.421650000000000      3.665550000000000
H       3.649554000000000     -2.528297000000000      3.906317000000000
H       4.255022000000000      1.654710000000000      3.146444000000000
H       4.564144000000000     -0.326966000000000      4.604903000000000
C      -2.277023000000000      0.447692000000000     -1.719095000000000
C      -2.829079000000000      1.677689000000000     -1.343992000000000
C      -1.934530000000000      0.235721000000000     -3.056850000000000
C      -3.025808000000000      2.680748000000000     -2.287929000000000
H      -3.044860000000000      1.880467000000000     -0.298384000000000
C      -2.143022000000000      1.235782000000000     -4.003844000000000
H      -1.479561000000000     -0.707040000000000     -3.346285000000000
C      -2.684619000000000      2.460128000000000     -3.620386000000000
H      -3.420856000000000      3.641985000000000     -1.974397000000000
H      -1.866520000000000      1.062336000000000     -5.039211000000000
H      -2.827340000000000      3.246396000000000     -4.355302000000000
C      -3.634783000000000     -1.522396000000000     -0.106297000000000
C      -4.790283000000000     -0.732167000000000     -0.087263000000000
C      -3.743114000000000     -2.883814000000000      0.192716000000000
C      -6.021497000000000     -1.292473000000000      0.237239000000000
H      -4.733538000000000      0.322810000000000     -0.334814000000000
C      -4.975146000000000     -3.444445000000000      0.524198000000000
H      -2.851497000000000     -3.505169000000000      0.157011000000000
C      -6.115850000000000     -2.648389000000000      0.547747000000000
H      -6.910403000000000     -0.669204000000000      0.246017000000000
H      -5.041723000000000     -4.503014000000000      0.755107000000000
H      -7.078389000000000     -3.082572000000000      0.799924000000000
H       0.112216000000000     -1.525939000000000     -2.030107000000000
O       0.883235000000000      2.567182000000000      2.208672000000000
O      -1.016543000000000      3.451366000000000      0.145883000000000
Rh     -0.049817000000000     -2.127979000000000     -0.559852000000000
C      -0.195964000000000     -3.003196000000000      1.172066000000000
O      -0.273955000000000     -3.566172000000000      2.167703000000000
C       1.524914000000000      3.045294000000000      3.381199000000000
H       2.397082000000000      3.595914000000000      3.023201000000000
H       0.872946000000000      3.715611000000000      3.946309000000000
H       1.850341000000000      2.220268000000000      4.019563000000000
C      -0.634059000000000      4.752997000000000      0.576241000000000
H      -0.798173000000000      5.492877000000000     -0.210660000000000
H      -1.262439000000000      4.983168000000000      1.438538000000000
H       0.416168000000000      4.759555000000000      0.883670000000000
