78

C      -2.156716000000000     -2.338994000000000      0.907493000000000
C      -1.531501000000000     -1.099000000000000      0.730994000000000
C      -0.443730000000000     -0.737089000000000      1.551966000000000
C      -0.043122000000000     -1.632938000000000      2.564784000000000
C      -0.648416000000000     -2.880883000000000      2.710673000000000
C      -1.707317000000000     -3.222512000000000      1.878264000000000
H      -2.997068000000000     -2.619779000000000      0.282884000000000
H      -0.315398000000000     -3.575793000000000      3.471236000000000
H      -2.191836000000000     -4.186556000000000      1.997373000000000
C       0.246543000000000      0.599318000000000      1.531777000000000
C      -0.115877000000000      1.489705000000000      2.567791000000000
C       1.240731000000000      1.004058000000000      0.622480000000000
C       0.427757000000000      2.770400000000000      2.647468000000000
C       1.788802000000000      2.291013000000000      0.715134000000000
C       1.372910000000000      3.165479000000000      1.707647000000000
H       0.115702000000000      3.461289000000000      3.421492000000000
H       2.540995000000000      2.613498000000000      0.004443000000000
H       1.795370000000000      4.164111000000000      1.760884000000000
P      -2.014151000000000     -0.035681000000000     -0.718304000000000
P       1.766477000000000     -0.090701000000000     -0.779048000000000
C       3.223187000000000      0.788015000000000     -1.485584000000000
C       3.046576000000000      1.466744000000000     -2.694914000000000
C       4.483196000000000      0.809164000000000     -0.877365000000000
C       4.095349000000000      2.170229000000000     -3.281116000000000
H       2.073937000000000      1.438986000000000     -3.179631000000000
C       5.541355000000000      1.502373000000000     -1.454662000000000
H       4.650065000000000      0.278975000000000      0.055478000000000
C       5.334248000000000      2.181231000000000     -2.651856000000000
H       3.955988000000000      2.696962000000000     -4.218269000000000
H       6.518023000000000      1.517140000000000     -0.984285000000000
Br      6.768962000000000      3.129825000000000     -3.439786000000000
C       2.566021000000000     -1.487044000000000      0.112750000000000
C       2.660263000000000     -2.733471000000000     -0.512274000000000
C       3.110086000000000     -1.330565000000000      1.392055000000000
C       3.268187000000000     -3.811294000000000      0.124049000000000
H       2.248486000000000     -2.870381000000000     -1.507760000000000
C       3.730092000000000     -2.396813000000000      2.036246000000000
H       3.031561000000000     -0.376302000000000      1.904629000000000
C       3.791619000000000     -3.631076000000000      1.399291000000000
H       3.328458000000000     -4.779796000000000     -0.358770000000000
H       4.154330000000000     -2.274898000000000      3.026953000000000
Br      4.591086000000000     -5.094043000000000      2.296278000000000
C      -2.348516000000000      1.556126000000000      0.135876000000000
C      -3.087736000000000      1.567514000000000      1.324799000000000
C      -1.805205000000000      2.751295000000000     -0.337505000000000
C      -3.278306000000000      2.747718000000000      2.032408000000000
H      -3.490369000000000      0.639416000000000      1.723154000000000
C      -1.965035000000000      3.936706000000000      0.375621000000000
H      -1.214837000000000      2.745570000000000     -1.248701000000000
C      -2.688573000000000      3.916303000000000      1.561286000000000
H      -3.848533000000000      2.756997000000000      2.954877000000000
H      -1.511699000000000      4.858304000000000      0.028944000000000
Br     -2.833160000000000      5.497117000000000      2.594987000000000
C      -3.705765000000000     -0.621908000000000     -1.180642000000000
C      -4.891731000000000      0.044311000000000     -0.857276000000000
C      -3.788848000000000     -1.769536000000000     -1.981682000000000
C      -6.125701000000000     -0.434513000000000     -1.292059000000000
H      -4.869621000000000      0.956618000000000     -0.272177000000000
C      -5.013525000000000     -2.271018000000000     -2.404696000000000
H      -2.879666000000000     -2.281627000000000     -2.285369000000000
C      -6.177494000000000     -1.595087000000000     -2.052427000000000
H      -7.039858000000000      0.091408000000000     -1.040869000000000
H      -5.065445000000000     -3.165894000000000     -3.014305000000000
Br     -7.850475000000000     -2.257076000000000     -2.634092000000000
H       0.028733000000000      1.198841000000000     -1.937552000000000
O       0.949885000000000     -1.192406000000000      3.380127000000000
O      -1.028934000000000      1.018713000000000      3.455419000000000
Rh     -0.124701000000000     -0.391099000000000     -1.946846000000000
C      -0.240733000000000     -2.320614000000000     -2.155400000000000
O      -0.301396000000000     -3.448477000000000     -2.353650000000000
C       1.387778000000000     -2.053846000000000      4.406116000000000
H       1.794524000000000     -2.987851000000000      3.998437000000000
H       2.176803000000000     -1.516214000000000      4.933401000000000
H       0.574743000000000     -2.283395000000000      5.105184000000000
C      -1.323427000000000      1.822048000000000      4.575923000000000
H      -2.034139000000000      1.252597000000000      5.175385000000000
H      -0.420524000000000      2.020578000000000      5.165863000000000
H      -1.777497000000000      2.776609000000000      4.281112000000000
