90

C      -2.110366000000000     -2.371054000000000      0.805821000000000
C      -1.489738000000000     -1.122825000000000      0.678066000000000
C      -0.397916000000000     -0.791952000000000      1.506551000000000
C       0.009829000000000     -1.726316000000000      2.481583000000000
C      -0.588303000000000     -2.982971000000000      2.575253000000000
C      -1.650241000000000     -3.293529000000000      1.734675000000000
H      -2.955149000000000     -2.628541000000000      0.177422000000000
H      -0.246587000000000     -3.708760000000000      3.302433000000000
H      -2.129777000000000     -4.264004000000000      1.815021000000000
C       0.287624000000000      0.546279000000000      1.531121000000000
C      -0.071923000000000      1.398573000000000      2.599172000000000
C       1.271310000000000      0.987893000000000      0.627817000000000
C       0.460921000000000      2.681440000000000      2.714292000000000
C       1.813133000000000      2.273651000000000      0.758017000000000
C       1.396435000000000      3.112858000000000      1.780771000000000
H       0.141994000000000      3.347871000000000      3.506137000000000
H       2.559236000000000      2.623783000000000      0.053768000000000
H       1.811768000000000      4.112532000000000      1.862922000000000
P      -1.980652000000000     -0.000402000000000     -0.722137000000000
P       1.787664000000000     -0.062349000000000     -0.809809000000000
C       3.252807000000000      0.831643000000000     -1.487536000000000
C       3.063663000000000      1.573689000000000     -2.657886000000000
C       4.520675000000000      0.804161000000000     -0.895812000000000
C       4.114898000000000      2.291696000000000     -3.219551000000000
H       2.082267000000000      1.582719000000000     -3.124682000000000
C       5.575981000000000      1.513248000000000     -1.457616000000000
H       4.691849000000000      0.226956000000000      0.007034000000000
C       5.367967000000000      2.257997000000000     -2.616164000000000
H       3.963082000000000      2.874259000000000     -4.122084000000000
H       6.557317000000000      1.496033000000000     -0.995050000000000
C       6.522193000000000      2.980256000000000     -3.251506000000000
C       2.568858000000000     -1.490552000000000      0.054043000000000
C       2.579930000000000     -2.744742000000000     -0.559635000000000
C       3.150160000000000     -1.344615000000000      1.320237000000000
C       3.130615000000000     -3.847972000000000      0.087035000000000
H       2.141612000000000     -2.866688000000000     -1.544912000000000
C       3.720821000000000     -2.436565000000000      1.960023000000000
H       3.130412000000000     -0.380817000000000      1.820165000000000
C       3.689722000000000     -3.688759000000000      1.349785000000000
H       3.119284000000000     -4.824742000000000     -0.383734000000000
H       4.176029000000000     -2.323616000000000      2.939692000000000
C       4.208428000000000     -4.867131000000000      2.119524000000000
C      -2.309627000000000      1.560933000000000      0.194799000000000
C      -3.039761000000000      1.525408000000000      1.390997000000000
C      -1.789196000000000      2.773943000000000     -0.255493000000000
C      -3.242139000000000      2.685675000000000      2.123509000000000
H      -3.426160000000000      0.579611000000000      1.762044000000000
C      -1.965962000000000      3.936935000000000      0.491124000000000
H      -1.211144000000000      2.798176000000000     -1.173941000000000
C      -2.683468000000000      3.884296000000000      1.680095000000000
H      -3.813295000000000      2.661647000000000      3.046937000000000
H      -1.537074000000000      4.875167000000000      0.156700000000000
C      -2.808469000000000      5.096004000000000      2.554815000000000
C      -3.681492000000000     -0.559196000000000     -1.194150000000000
C      -4.855561000000000      0.120070000000000     -0.856952000000000
C      -3.776343000000000     -1.689799000000000     -2.020300000000000
C      -6.093935000000000     -0.332471000000000     -1.308180000000000
H      -4.818374000000000      1.015417000000000     -0.247592000000000
C      -5.008385000000000     -2.157939000000000     -2.453519000000000
H      -2.873211000000000     -2.208821000000000     -2.328736000000000
C      -6.169010000000000     -1.474271000000000     -2.094859000000000
H      -6.999684000000000      0.200802000000000     -1.040308000000000
H      -5.071007000000000     -3.045019000000000     -3.075749000000000
C      -7.490591000000000     -1.955284000000000     -2.621359000000000
H       0.048255000000000      1.279805000000000     -1.899702000000000
O       1.001234000000000     -1.315216000000000      3.312140000000000
O      -0.974097000000000      0.891405000000000      3.476622000000000
Rh     -0.109226000000000     -0.305419000000000     -1.986470000000000
C      -0.247606000000000     -2.220726000000000     -2.303638000000000
O      -0.330077000000000     -3.332378000000000     -2.571824000000000
C       1.427641000000000     -2.207770000000000      4.318243000000000
H       2.205052000000000     -1.682306000000000      4.874256000000000
H       0.604045000000000     -2.460365000000000      4.996488000000000
H       1.845583000000000     -3.127303000000000      3.890710000000000
C      -1.250848000000000      1.645790000000000      4.636630000000000
H      -1.951265000000000      1.049712000000000      5.222000000000000
H      -0.337731000000000      1.817847000000000      5.218990000000000
H      -1.706900000000000      2.611418000000000      4.390551000000000
F      -7.676526000000000     -1.584129000000000     -3.896721000000000
F      -8.518746999999999     -1.469793000000000     -1.912647000000000
F      -7.570493000000000     -3.293853000000000     -2.591173000000000
F      -4.045740000000000      5.225256000000000      3.052649000000000
F      -2.504449000000000      6.226969000000000      1.910249000000000
F      -1.978216000000000      5.013056000000000      3.617310000000000
F       7.413672000000000      3.388370000000000     -2.336877000000000
F       6.115775000000000      4.059532000000000     -3.934264000000000
F       7.179426000000000      2.192765000000000     -4.115473000000000
F       3.355799000000000     -5.209713000000000      3.105387000000000
F       5.381810000000000     -4.596121000000000      2.708726000000000
F       4.376210000000000     -5.947243000000000      1.349391000000000
