94

C      -2.075227000000000     -2.288949000000000      0.880793000000000
C      -1.468795000000000     -1.044703000000000      0.670120000000000
C      -0.419370000000000     -0.624383000000000      1.511888000000000
C      -0.036444000000000     -1.465565000000000      2.576438000000000
C      -0.620709000000000     -2.718700000000000      2.757268000000000
C      -1.642922000000000     -3.118873000000000      1.904933000000000
H      -2.886181000000000     -2.614284000000000      0.239101000000000
H      -0.300342000000000     -3.372407000000000      3.558745000000000
H      -2.111940000000000     -4.087172000000000      2.050107000000000
C       0.241518000000000      0.725437000000000      1.457484000000000
C      -0.190439000000000      1.653388000000000      2.431385000000000
C       1.266737000000000      1.111144000000000      0.575684000000000
C       0.316887000000000      2.950082000000000      2.473760000000000
C       1.780944000000000      2.414231000000000      0.633283000000000
C       1.297319000000000      3.323440000000000      1.561286000000000
H      -0.048900000000000      3.668177000000000      3.197660000000000
H       2.559186000000000      2.720681000000000     -0.056259000000000
H       1.694375000000000      4.333731000000000      1.585948000000000
P      -1.916372000000000     -0.056866000000000     -0.843235000000000
P       1.876436000000000     -0.029846000000000     -0.754556000000000
C       3.335248000000000      0.858201000000000     -1.441845000000000
C       4.579041000000000      0.910609000000000     -0.805400000000000
C       3.184290000000000      1.509463000000000     -2.672404000000000
C       5.633170000000000      1.611412000000000     -1.379101000000000
H       4.730730000000000      0.398918000000000      0.140277000000000
C       4.237881000000000      2.214369000000000     -3.239258000000000
H       2.227558000000000      1.447776000000000     -3.184913000000000
C       5.480393000000000      2.285740000000000     -2.596750000000000
H       6.595069000000000      1.642550000000000     -0.873540000000000
H       4.098156000000000      2.693824000000000     -4.203319000000000
C       6.624834000000000      3.028098000000000     -3.153770000000000
C       2.672206000000000     -1.367957000000000      0.222077000000000
C       3.168628000000000     -1.151219000000000      1.511229000000000
C       2.835812000000000     -2.632224000000000     -0.355432000000000
C       3.805142000000000     -2.178231000000000      2.199904000000000
H       3.043957000000000     -0.182219000000000      1.985745000000000
C       3.462190000000000     -3.657975000000000      0.338726000000000
H       2.471909000000000     -2.811853000000000     -1.363002000000000
C       3.944824000000000     -3.452061000000000      1.637833000000000
H       4.191483000000000     -1.994767000000000      3.200155000000000
H       3.589552000000000     -4.624678000000000     -0.138676000000000
C       4.585590000000000     -4.519519000000000      2.425818000000000
C      -2.322315000000000      1.563678000000000     -0.081114000000000
C      -3.119217000000000      1.617424000000000      1.072188000000000
C      -1.803059000000000      2.750770000000000     -0.595656000000000
C      -3.387011000000000      2.827553000000000      1.691583000000000
H      -3.514272000000000      0.697770000000000      1.497217000000000
C      -2.053662000000000      3.961355000000000      0.043805000000000
H      -1.171046000000000      2.718294000000000     -1.477884000000000
C      -2.832256000000000      4.019842000000000      1.203595000000000
H      -4.021178000000000      2.843241000000000      2.573460000000000
H      -1.616685000000000      4.875827000000000     -0.349126000000000
C      -3.012142000000000      5.314401000000000      1.883022000000000
C      -3.570598000000000     -0.706471000000000     -1.347645000000000
C      -4.785520000000000     -0.049185000000000     -1.116825000000000
C      -3.597805000000000     -1.892711000000000     -2.092609000000000
C      -5.983086000000000     -0.578329000000000     -1.582549000000000
H      -4.803508000000000      0.896485000000000     -0.586861000000000
C      -4.797993000000000     -2.430006000000000     -2.538330000000000
H      -2.666539000000000     -2.400117000000000     -2.330467000000000
C      -6.016110000000000     -1.788381000000000     -2.284433000000000
H      -6.903818000000000     -0.029637000000000     -1.408458000000000
H      -4.792605000000000     -3.358351000000000     -3.103715000000000
C      -7.265588000000000     -2.394881000000000     -2.775043000000000
H       0.149598000000000      1.168149000000000     -2.029792000000000
O       0.916990000000000     -0.966330000000000      3.406089000000000
O      -1.130058000000000      1.197865000000000      3.300404000000000
Rh      0.033424000000000     -0.424735000000000     -1.974699000000000
C      -0.029053000000000     -2.360617000000000     -2.102253000000000
O      -0.054669000000000     -3.497388000000000     -2.257395000000000
C       1.352684000000000     -1.781298000000000      4.468323000000000
H       2.118700000000000     -1.208022000000000      4.992353000000000
H       0.531245000000000     -2.006655000000000      5.159480000000000
H       1.788912000000000     -2.718071000000000      4.099712000000000
C      -1.516593000000000      2.054924000000000      4.348456000000000
H      -2.247764000000000      1.499614000000000      4.937012000000000
H      -0.659159000000000      2.317022000000000      4.980633000000000
H      -1.977172000000000      2.975452000000000      3.967569000000000
C      -8.504151000000000     -2.047355000000000     -2.422923000000000
H      -7.132906000000000     -3.214186000000000     -3.480165000000000
H      -8.705349999999999     -1.257344000000000     -1.705490000000000
H      -9.366266000000000     -2.555960000000000     -2.840036000000000
C      -3.556031000000000      5.512077000000000      3.085862000000000
H      -2.634740000000000      6.176352000000000      1.334606000000000
H      -3.942723000000000      4.698509000000000      3.693291000000000
H      -3.635824000000000      6.508936000000000      3.505127000000000
C       6.585078000000000      3.902946000000000     -4.159625000000000
H       7.579515000000000      2.834935000000000     -2.666565000000000
H       5.662653000000000      4.160315000000000     -4.671591000000000
H       7.485303000000000      4.402615000000000     -4.500077000000000
C       4.508680000000000     -5.828733000000000      2.183076000000000
H       5.151305000000000     -4.178793000000000      3.292211000000000
H       3.933699000000000     -6.231405000000000      1.354433000000000
H       5.014880000000000     -6.546253000000000      2.819486000000000
