90

C      -2.138053000000000     -2.256336000000000      0.920848000000000
C      -1.504147000000000     -1.024796000000000      0.717233000000000
C      -0.421672000000000     -0.646734000000000      1.538096000000000
C      -0.038448000000000     -1.515474000000000      2.582336000000000
C      -0.651722000000000     -2.756212000000000      2.754261000000000
C      -1.702645000000000     -3.115501000000000      1.919339000000000
H      -2.975083000000000     -2.549273000000000      0.297664000000000
H      -0.330873000000000     -3.430697000000000      3.538100000000000
H      -2.193758000000000     -4.073412000000000      2.059316000000000
C       0.282033000000000      0.681416000000000      1.481545000000000
C      -0.065048000000000      1.603043000000000      2.496383000000000
C       1.278606000000000      1.049379000000000      0.558869000000000
C       0.500479000000000      2.876204000000000      2.542137000000000
C       1.843933000000000      2.330755000000000      0.615007000000000
C       1.445834000000000      3.234736000000000      1.588272000000000
H       0.207707000000000      3.585475000000000      3.306944000000000
H       2.597884000000000      2.625001000000000     -0.106006000000000
H       1.885151000000000      4.227124000000000      1.616066000000000
P      -1.976169000000000      0.006732000000000     -0.759091000000000
P       1.790086000000000     -0.089978000000000     -0.812440000000000
C       3.275459000000000      0.741786000000000     -1.524079000000000
C       4.528440000000000      0.746042000000000     -0.897822000000000
C       3.121937000000000      1.392750000000000     -2.752386000000000
C       5.602658000000000      1.400024000000000     -1.485589000000000
H       4.667324000000000      0.235927000000000      0.050274000000000
C       4.194802000000000      2.054409000000000     -3.342178000000000
H       2.151807000000000      1.372523000000000     -3.241949000000000
C       5.436092000000000      2.057132000000000     -2.706354000000000
H       6.580202000000000      1.413602000000000     -1.014841000000000
H       4.074713000000000      2.560314000000000     -4.293741000000000
C       6.620259000000000      2.743682000000000     -3.290772000000000
C       2.551282000000000     -1.483651000000000      0.121818000000000
C       2.610507000000000     -2.749708000000000     -0.468893000000000
C       3.073000000000000     -1.303274000000000      1.408590000000000
C       3.151558000000000     -3.829542000000000      0.220076000000000
H       2.217736000000000     -2.894457000000000     -1.470566000000000
C       3.616320000000000     -2.378097000000000      2.099273000000000
H       3.022972000000000     -0.328889000000000      1.884586000000000
C       3.639398000000000     -3.644414000000000      1.514494000000000
H       3.180891000000000     -4.814150000000000     -0.233090000000000
H       4.016427000000000     -2.257615000000000      3.101054000000000
C       4.167293000000000     -4.769633000000000      2.330617000000000
C      -2.296223000000000      1.625437000000000      0.055028000000000
C      -3.021046000000000      1.666482000000000      1.253958000000000
C      -1.763316000000000      2.804612000000000     -0.469018000000000
C      -3.184671000000000      2.865223000000000      1.930109000000000
H      -3.421076000000000      0.748691000000000      1.677131000000000
C      -1.916328000000000      4.008580000000000      0.212318000000000
H      -1.190359000000000      2.766615000000000     -1.390146000000000
C      -2.609044000000000      4.032089000000000      1.422650000000000
H      -3.728111000000000      2.912000000000000      2.868452000000000
H      -1.473915000000000      4.920062000000000     -0.174257000000000
C      -2.704776000000000      5.261112000000000      2.251882000000000
C      -3.678419000000000     -0.570215000000000     -1.202512000000000
C      -4.849898000000000      0.137994000000000     -0.910024000000000
C      -3.777130000000000     -1.747804000000000     -1.959000000000000
C      -6.086087000000000     -0.336105000000000     -1.335660000000000
H      -4.806143000000000      1.069436000000000     -0.357802000000000
C      -5.010647000000000     -2.236034000000000     -2.368186000000000
H      -2.874763000000000     -2.286632000000000     -2.234415000000000
C      -6.171675000000000     -1.526395000000000     -2.054589000000000
H      -6.999114000000000      0.207457000000000     -1.115533000000000
H      -5.076181000000000     -3.153964000000000     -2.941688000000000
C      -7.520288000000000     -1.990515000000000     -2.476325000000000
H       0.075110000000000      1.194766000000000     -2.005190000000000
O       0.945570000000000     -1.058792000000000      3.397655000000000
O      -0.981692000000000      1.170550000000000      3.396802000000000
Rh     -0.096637000000000     -0.391930000000000     -1.986465000000000
C      -0.240094000000000     -2.324539000000000     -2.163729000000000
O      -0.321990000000000     -3.453727000000000     -2.345019000000000
C       1.346906000000000     -1.880226000000000      4.471992000000000
H       0.510634000000000     -2.074645000000000      5.153986000000000
H       1.761807000000000     -2.832452000000000      4.118707000000000
H       2.123568000000000     -1.325547000000000      4.999467000000000
C      -1.269017000000000      2.008843000000000      4.496283000000000
H      -1.716810000000000      2.958768000000000      4.179202000000000
H      -1.984444000000000      1.461025000000000      5.109898000000000
H      -0.363484000000000      2.210779000000000      5.080950000000000
O      -8.552554000000001     -1.411962000000000     -2.236374000000000
O      -7.485269000000000     -3.147046000000000     -3.166816000000000
H      -8.408606000000001     -3.356073000000000     -3.391256000000000
O      -3.093718000000000      5.283994000000000      3.397422000000000
O      -2.289714000000000      6.369202000000000      1.611843000000000
H      -2.377615000000000      7.100342000000000      2.247948000000000
O       7.713900000000000      2.780142000000000     -2.780460000000000
O       6.354381000000000      3.338263000000000     -4.469936000000000
H       7.186837000000000      3.750869000000000     -4.758748000000000
O       4.479969000000000     -4.682793000000000      3.494951000000000
O       4.256453000000000     -5.924059000000000      1.644447000000000
H       4.598384000000000     -6.586768000000000      2.269429000000000
