86

C      -1.881053000000000     -2.278611000000000      0.917987000000000
C      -1.367663000000000     -0.988050000000000      0.720816000000000
C      -0.322083000000000     -0.522677000000000      1.538756000000000
C       0.117729000000000     -1.338361000000000      2.601942000000000
C      -0.392365000000000     -2.622010000000000      2.786331000000000
C      -1.385518000000000     -3.086546000000000      1.929729000000000
H      -2.659837000000000     -2.655797000000000      0.263516000000000
H      -0.024326000000000     -3.259228000000000      3.580733000000000
H      -1.779818000000000     -4.089396000000000      2.062993000000000
C       0.333510000000000      0.820877000000000      1.402953000000000
C      -0.045986000000000      1.802468000000000      2.342057000000000
C       1.319812000000000      1.141027000000000      0.453553000000000
C       0.476267000000000      3.092537000000000      2.291005000000000
C       1.853815000000000      2.436655000000000      0.419872000000000
C       1.421810000000000      3.400421000000000      1.318040000000000
H       0.149111000000000      3.855855000000000      2.986273000000000
H       2.605192000000000      2.692047000000000     -0.319275000000000
H       1.831548000000000      4.405012000000000      1.271589000000000
P      -1.923047000000000     -0.023140000000000     -0.765091000000000
P       1.846512000000000     -0.082622000000000     -0.845419000000000
C       3.321237000000000      0.706660000000000     -1.601546000000000
C       4.603521000000000      0.694159000000000     -1.040406000000000
C       3.148092000000000      1.369769000000000     -2.822613000000000
C       5.667944000000000      1.327435000000000     -1.666071000000000
H       4.783103000000000      0.172040000000000     -0.105742000000000
C       4.204161000000000      2.014699000000000     -3.451214000000000
H       2.162122000000000      1.372631000000000     -3.281625000000000
C       5.483531000000000      2.001767000000000     -2.881056000000000
H       6.656267000000000      1.304435000000000     -1.213668000000000
H       4.044631000000000      2.526695000000000     -4.396777000000000
N       6.538854000000000      2.683348000000000     -3.482500000000000
C       2.552938000000000     -1.411811000000000      0.200886000000000
C       2.427174000000000     -2.751229000000000     -0.176800000000000
C       3.214760000000000     -1.127912000000000      1.402532000000000
C       2.935581000000000     -3.774990000000000      0.611686000000000
H       1.911469000000000     -3.000856000000000     -1.098873000000000
C       3.746011000000000     -2.141962000000000      2.186023000000000
H       3.293145000000000     -0.099514000000000      1.745998000000000
C       3.599332000000000     -3.483486000000000      1.809152000000000
H       2.806767000000000     -4.810546000000000      0.307790000000000
H       4.252119000000000     -1.900663000000000      3.118185000000000
N       4.043114000000000     -4.504663000000000      2.651566000000000
C      -2.298915000000000      1.624746000000000     -0.048820000000000
C      -3.035262000000000      1.761256000000000      1.133926000000000
C      -1.828120000000000      2.786559000000000     -0.665743000000000
C      -3.301496000000000      3.009952000000000      1.674329000000000
H      -3.369132000000000      0.880639000000000      1.673908000000000
C      -2.074291000000000      4.040997000000000     -0.122329000000000
H      -1.239023000000000      2.700263000000000     -1.573786000000000
C      -2.809743000000000      4.169789000000000      1.060571000000000
H      -3.871110000000000      3.093243000000000      2.597321000000000
H      -1.676256000000000      4.929668000000000     -0.605650000000000
N      -2.989945000000000      5.416944000000000      1.664614000000000
C      -3.580554000000000     -0.711817000000000     -1.156498000000000
C      -4.606119000000000     -0.931813000000000     -0.225904000000000
C      -3.845847000000000     -1.012623000000000     -2.495888000000000
C      -5.842594000000000     -1.418922000000000     -0.617663000000000
H      -4.433221000000000     -0.745193000000000      0.829593000000000
C      -5.083974000000000     -1.494320000000000     -2.902822000000000
H      -3.059289000000000     -0.861728000000000     -3.232105000000000
C      -6.103649000000000     -1.701371000000000     -1.967778000000000
H      -6.618522000000000     -1.594440000000000      0.123229000000000
H      -5.262677000000000     -1.722264000000000     -3.950391000000000
N      -7.329210000000000     -2.236500000000000     -2.353005000000000
H       0.104199000000000      1.179362000000000     -2.057700000000000
O       1.060008000000000     -0.789704000000000      3.413075000000000
O      -0.952281000000000      1.402569000000000      3.273550000000000
Rh     -0.067444000000000     -0.407248000000000     -2.022260000000000
C      -0.287944000000000     -2.324564000000000     -2.225763000000000
O      -0.444875000000000     -3.439150000000000     -2.452207000000000
C       1.490639000000000     -1.550324000000000      4.516179000000000
H       1.962333000000000     -2.488778000000000      4.199107000000000
H       2.225653000000000     -0.934824000000000      5.037006000000000
H       0.656054000000000     -1.772400000000000      5.193132000000000
C      -1.287071000000000      2.321133000000000      4.285334000000000
H      -1.755618000000000      3.222340000000000      3.870762000000000
H      -1.997316000000000      1.808489000000000      4.935483000000000
H      -0.401718000000000      2.609577000000000      4.865943000000000
H      -8.102468999999999     -2.016007000000000     -1.739441000000000
H      -7.568303000000000     -2.094024000000000     -3.325454000000000
H      -3.831054000000000      5.489411000000000      2.223386000000000
H      -2.907692000000000      6.200169000000000      1.028532000000000
H       6.438346000000000      2.822189000000000     -4.479558000000000
H       7.458249000000000      2.334162000000000     -3.245492000000000
H       4.201790000000000     -5.389494000000000      2.186374000000000
H       4.830074000000000     -4.251151000000000      3.235460000000000
