110

C      -1.862567000000000     -2.130725000000000      1.171966000000000
C      -1.337565000000000     -0.890687000000000      0.783535000000000
C      -0.319345000000000     -0.293234000000000      1.551888000000000
C       0.085763000000000     -0.927135000000000      2.746086000000000
C      -0.425146000000000     -2.171422000000000      3.111084000000000
C      -1.391915000000000     -2.769636000000000      2.310185000000000
H      -2.645506000000000     -2.598475000000000      0.585065000000000
H      -0.073221000000000     -2.677804000000000      4.001353000000000
H      -1.790866000000000     -3.740038000000000      2.589565000000000
C       0.349117000000000      1.010464000000000      1.226979000000000
C      -0.008906000000000      2.124483000000000      2.015390000000000
C       1.343536000000000      1.173078000000000      0.246211000000000
C       0.540678000000000      3.382478000000000      1.776529000000000
C       1.898338000000000      2.439060000000000      0.018474000000000
C       1.484186000000000      3.531905000000000      0.765574000000000
H       0.233453000000000      4.242852000000000      2.358467000000000
H       2.658181000000000      2.570874000000000     -0.743796000000000
H       1.905013000000000      4.513033000000000      0.568693000000000
P      -1.874110000000000     -0.145305000000000     -0.840496000000000
P       1.858599000000000     -0.260644000000000     -0.820326000000000
C       3.414290000000000      0.334718000000000     -1.612133000000000
C       4.693703000000000      0.088582000000000     -1.114354000000000
C       3.270779000000000      1.041218000000000     -2.810692000000000
C       5.827770000000000      0.571225000000000     -1.778105000000000
H       4.825029000000000     -0.513849000000000     -0.223355000000000
C       4.384874000000000      1.543870000000000     -3.489649000000000
H       2.274008000000000      1.170846000000000     -3.224895000000000
C       5.655087000000000      1.288743000000000     -2.963257000000000
C       7.187975000000000      0.344049000000000     -1.255391000000000
C       4.262851000000000      2.313371000000000     -4.741740000000000
H       6.531473000000000      1.661535000000000     -3.490031000000000
C       2.436848000000000     -1.410883000000000      0.497575000000000
C       2.056054000000000     -2.750115000000000      0.492826000000000
C       3.211980000000000     -0.922154000000000      1.552606000000000
C       2.428800000000000     -3.607422000000000      1.534965000000000
H       1.460805000000000     -3.138273000000000     -0.325707000000000
C       3.645988000000000     -1.766315000000000      2.577339000000000
H       3.490057000000000      0.128608000000000      1.570565000000000
C       3.249956000000000     -3.107460000000000      2.548441000000000
C       1.953842000000000     -5.001196000000000      1.597842000000000
C       4.483704000000000     -1.271146000000000      3.685735000000000
H       3.567166000000000     -3.771570000000000      3.351043000000000
C      -2.231169000000000      1.579293000000000     -0.310894000000000
C      -2.997294000000000      1.806103000000000      0.832008000000000
C      -1.706788000000000      2.666148000000000     -1.010960000000000
C      -3.286806000000000      3.107101000000000      1.258287000000000
H      -3.387607000000000      0.958618000000000      1.389658000000000
C      -1.922245000000000      3.974379000000000     -0.568103000000000
H      -1.085540000000000      2.486703000000000     -1.884578000000000
C      -2.740132000000000      4.178384000000000      0.548555000000000
C      -4.154126000000000      3.368716000000000      2.422620000000000
C      -1.259721000000000      5.087977000000000     -1.269439000000000
H      -2.966044000000000      5.193464000000000      0.867904000000000
C      -3.563909000000000     -0.853391000000000     -1.118654000000000
C      -4.753374000000000     -0.170706000000000     -0.859409000000000
C      -3.631285000000000     -2.128694000000000     -1.688079000000000
C      -5.996178000000000     -0.764138000000000     -1.108919000000000
H      -4.730520000000000      0.848255000000000     -0.493844000000000
C      -4.856839000000000     -2.751219000000000     -1.942923000000000
H      -2.711989000000000     -2.637189000000000     -1.961297000000000
C      -6.030216000000000     -2.049005000000000     -1.653157000000000
C      -7.258663000000000     -0.065161000000000     -0.804065000000000
C      -4.946612000000000     -4.106574000000000     -2.517036000000000
H      -6.992212000000000     -2.515408000000000     -1.856583000000000
H       0.159291000000000      0.856648000000000     -2.217444000000000
O       1.002164000000000     -0.255736000000000      3.491311000000000
O      -0.921436000000000      1.887945000000000      2.994240000000000
Rh     -0.008534000000000     -0.715338000000000     -2.015524000000000
C      -0.187889000000000     -2.643824000000000     -2.044093000000000
O      -0.318194000000000     -3.779024000000000     -2.173775000000000
C       1.274227000000000     -0.752166000000000      4.782457000000000
H       0.349663000000000     -0.858576000000000      5.363055000000000
H       1.793792000000000     -1.717469000000000      4.738153000000000
H       1.930356000000000     -0.022294000000000      5.255930000000000
C      -1.126806000000000      2.911461000000000      3.941309000000000
H      -0.179157000000000      3.203942000000000      4.410389000000000
H      -1.598429000000000      3.790745000000000      3.485767000000000
H      -1.803238000000000      2.500759000000000      4.690881000000000
C      -7.393925000000000      0.970259000000000      0.025807000000000
H      -8.143770999999999     -0.465824000000000     -1.296192000000000
H      -6.555426000000000      1.391064000000000      0.575189000000000
H      -8.363101000000000      1.427568000000000      0.192745000000000
C      -3.942163000000000     -4.972759000000000     -2.656860000000000
H      -5.944438000000000     -4.404453000000000     -2.836011000000000
H      -2.925868000000000     -4.750135000000000     -2.343509000000000
H      -4.110272000000000     -5.949854000000000     -3.096405000000000
C      -4.496364000000000      2.482332000000000      3.360012000000000
H      -4.524909000000000      4.390164000000000      2.502934000000000
H      -4.129012000000000      1.459751000000000      3.351141000000000
H      -5.149004000000000      2.761034000000000      4.180322000000000
C      -0.987827000000000      6.281717000000000     -0.740283000000000
H      -0.944626000000000      4.876323000000000     -2.290015000000000
H      -1.241322000000000      6.526655000000000      0.287650000000000
H      -0.487885000000000      7.051804000000000     -1.317430000000000
C       3.146334000000000      2.864011000000000     -5.219451000000000
H       5.190909000000000      2.440756000000000     -5.297363000000000
H       2.195507000000000      2.795604000000000     -4.698568000000000
H       3.151139000000000      3.412083000000000     -6.155162000000000
C       7.495780000000000     -0.018905000000000     -0.009464000000000
H       7.993800000000000      0.515771000000000     -1.967636000000000
H       6.740635000000000     -0.172936000000000      0.756953000000000
H       8.528048000000000     -0.165269000000000      0.289154000000000
C       0.843433000000000     -5.455947000000000      1.015208000000000
H       2.557129000000000     -5.679920000000000      2.199333000000000
H       0.188043000000000     -4.806507000000000      0.440738000000000
H       0.550629000000000     -6.496700000000000      1.103689000000000
C       4.593449000000000      0.004560000000000      4.062198000000000
H       5.032821000000000     -2.035178000000000      4.235101000000000
H       4.033385000000000      0.798091000000000      3.574168000000000
H       5.238623000000000      0.292148000000000      4.885428000000000
