94

C       2.057960000000000      2.279854000000000      1.306156000000000
C       1.510058000000000      1.055160000000000      0.907384000000000
C       0.471904000000000      0.469401000000000      1.659201000000000
C       0.042357000000000      1.124888000000000      2.831965000000000
C       0.572643000000000      2.359921000000000      3.206013000000000
C       1.581351000000000      2.927718000000000      2.437060000000000
H       2.855641000000000      2.736502000000000      0.731138000000000
H       0.217476000000000      2.870602000000000      4.092268000000000
H       2.004073000000000      3.883439000000000      2.730238000000000
C      -0.122056000000000     -0.887399000000000      1.401118000000000
C       0.321389000000000     -1.918104000000000      2.259701000000000
C      -1.099502000000000     -1.197541000000000      0.438502000000000
C      -0.138146000000000     -3.226285000000000      2.119612000000000
C      -1.547369000000000     -2.517827000000000      0.296535000000000
C      -1.061746000000000     -3.519771000000000      1.123317000000000
H       0.221408000000000     -4.013131000000000      2.771438000000000
H      -2.279772000000000     -2.768381000000000     -0.461564000000000
H      -1.414916000000000     -4.538745000000000      1.000140000000000
P       2.002704000000000      0.323412000000000     -0.727628000000000
P      -1.737513000000000      0.093260000000000     -0.723726000000000
C      -3.137781000000000     -0.755498000000000     -1.574369000000000
C      -4.390637000000000     -0.946967000000000     -0.994837000000000
C      -2.922915000000000     -1.221206000000000     -2.878674000000000
C      -5.410687000000000     -1.596123000000000     -1.701261000000000
H      -4.613609000000000     -0.601616000000000      0.011385000000000
C      -3.932449000000000     -1.877918000000000     -3.579014000000000
H      -1.950933000000000     -1.063091000000000     -3.344344000000000
C      -5.183976000000000     -2.064924000000000     -2.989415000000000
C      -6.740185000000000     -1.778226000000000     -1.061496000000000
C      -3.684610000000000     -2.370184000000000     -4.959309000000000
H      -5.962460000000000     -2.571865000000000     -3.555428000000000
C      -2.644986000000000      1.223464000000000      0.412252000000000
C      -2.899198000000000      2.535515000000000     -0.006406000000000
C      -3.129708000000000      0.810707000000000      1.652867000000000
C      -3.616984000000000      3.419025000000000      0.795280000000000
H      -2.532537000000000      2.872985000000000     -0.974048000000000
C      -3.868422000000000      1.693190000000000      2.453684000000000
H      -2.948645000000000     -0.193657000000000      2.027106000000000
C      -4.109223000000000      2.994322000000000      2.030797000000000
C      -3.855071000000000      4.813358000000000      0.342135000000000
C      -4.408982000000000      1.228072000000000      3.755261000000000
H      -4.676198000000000      3.694761000000000      2.640171000000000
C       2.441220000000000     -1.387062000000000     -0.211565000000000
C       3.230964000000000     -1.603722000000000      0.926739000000000
C       1.922644000000000     -2.487607000000000     -0.885580000000000
C       3.513987000000000     -2.894416000000000      1.363509000000000
H       3.605481000000000     -0.755617000000000      1.499269000000000
C       2.179700000000000     -3.787066000000000     -0.430016000000000
H       1.280939000000000     -2.355189000000000     -1.752206000000000
C       2.976949000000000     -3.993576000000000      0.688035000000000
C       4.349377000000000     -3.096401000000000      2.572403000000000
C       1.543723000000000     -4.940079000000000     -1.116704000000000
H       3.186490000000000     -4.994318000000000      1.060335000000000
C       3.657769000000000      1.078485000000000     -1.082064000000000
C       4.886688000000000      0.446112000000000     -0.882983000000000
C       3.658147000000000      2.346234000000000     -1.677095000000000
C       6.083792000000000      1.074988000000000     -1.239568000000000
H       4.958628000000000     -0.551741000000000     -0.462918000000000
C       4.849816000000000      2.985537000000000     -2.019082000000000
H       2.723902000000000      2.859321000000000     -1.895461000000000
C       6.069497000000000      2.347602000000000     -1.801043000000000
C       7.372038000000000      0.372749000000000     -1.005048000000000
C       4.808179000000000      4.336537000000000     -2.637771000000000
H       7.002548000000000      2.836902000000000     -2.078190000000000
H       0.036493000000000     -0.765653000000000     -2.170868000000000
O      -0.899319000000000      0.471231000000000      3.555248000000000
O       1.229027000000000     -1.551786000000000      3.201225000000000
Rh      0.071712000000000      0.791512000000000     -1.836301000000000
C       0.021759000000000      2.730450000000000     -1.582665000000000
O      -0.041685000000000      3.867780000000000     -1.472039000000000
C      -1.250840000000000      1.002179000000000      4.815451000000000
H      -1.943336000000000      0.288849000000000      5.258563000000000
H      -0.365018000000000      1.120479000000000      5.450497000000000
H      -1.753384000000000      1.972881000000000      4.709703000000000
C       1.516465000000000     -2.481511000000000      4.225310000000000
H       2.186678000000000     -1.969876000000000      4.916647000000000
H       0.601189000000000     -2.778936000000000      4.750253000000000
H       2.017068000000000     -3.375678000000000      3.835253000000000
O       7.457383000000000     -0.719596000000000     -0.498361000000000
H       8.277189999999999      0.927038000000000     -1.327964000000000
O       3.788513000000000      4.942269000000000     -2.859173000000000
H       5.798240000000000      4.768880000000000     -2.891114000000000
O       4.558494000000000     -4.177832000000000      3.070155000000000
H       4.772704000000000     -2.170298000000000      3.012792000000000
O       0.777387000000000     -4.832406000000000     -2.043587000000000
H       1.811768000000000     -5.936623000000000     -0.708809000000000
O      -4.519651000000000     -2.934327000000000     -5.624221000000000
H      -2.664554000000000     -2.184540000000000     -5.351982000000000
O      -7.008760000000000     -1.384762000000000      0.047720000000000
H      -7.491020000000000     -2.310928000000000     -1.679815000000000
O      -4.465697000000000      5.628934000000000      0.990205000000000
H      -3.424986000000000      5.069136000000000     -0.647556000000000
O      -4.203305000000000      0.130903000000000      4.218499000000000
H      -5.029959000000000      1.970402000000000      4.297616000000000
