86

C      -2.119156000000000      1.765394000000000     -1.801267000000000
C      -1.487183000000000      0.731924000000000     -1.103034000000000
C      -0.463734000000000     -0.019670000000000     -1.722294000000000
C      -0.148839000000000      0.271496000000000     -3.066078000000000
C      -0.773957000000000      1.314533000000000     -3.749255000000000
C      -1.754851000000000      2.058753000000000     -3.109488000000000
H      -2.909775000000000      2.341405000000000     -1.334634000000000
H      -0.506198000000000      1.534806000000000     -4.775571000000000
H      -2.249951000000000      2.865711000000000     -3.639695000000000
C       0.178015000000000     -1.248112000000000     -1.135879000000000
C      -0.258701000000000     -2.474416000000000     -1.693769000000000
C       1.176984000000000     -1.290233000000000     -0.143233000000000
C       0.227761000000000     -3.696345000000000     -1.231594000000000
C       1.642998000000000     -2.526498000000000      0.327565000000000
C       1.164375000000000     -3.714075000000000     -0.205250000000000
H      -0.122666000000000     -4.628865000000000     -1.656510000000000
H       2.382470000000000     -2.568444000000000      1.118104000000000
H       1.528399000000000     -4.662805000000000      0.175567000000000
P      -1.908461000000000      0.436889000000000      0.682095000000000
P       1.806023000000000      0.246242000000000      0.676298000000000
C       3.275364000000000     -0.345748000000000      1.624104000000000
C       3.197060000000000     -0.344919000000000      3.015730000000000
C       4.452458000000000     -0.769727000000000      1.003109000000000
C       4.287016000000000     -0.773908000000000      3.783424000000000
H       2.286841000000000     -0.006875000000000      3.504287000000000
C       5.539161000000000     -1.193716000000000      1.772545000000000
H       4.537308000000000     -0.778362000000000     -0.079953000000000
C       5.463548000000000     -1.199136000000000      3.167881000000000
C       4.194128000000000     -0.767247000000000      5.220084000000000
C       6.745989000000000     -1.629597000000000      1.119587000000000
H       6.309286000000000     -1.525876000000000      3.762365000000000
C       2.652495000000000      1.142844000000000     -0.693094000000000
C       3.047227000000000      2.464786000000000     -0.473443000000000
C       2.905774000000000      0.551792000000000     -1.928802000000000
C       3.686619000000000      3.188351000000000     -1.483344000000000
H       2.856510000000000      2.943234000000000      0.483779000000000
C       3.519812000000000      1.290898000000000     -2.946657000000000
H       2.601812000000000     -0.469157000000000     -2.132572000000000
C       3.918813000000000      2.609120000000000     -2.733334000000000
C       4.092327000000000      4.548153000000000     -1.241008000000000
C       3.717058000000000      0.676523000000000     -4.233296000000000
H       4.395816000000000      3.178102000000000     -3.523260000000000
C      -2.350553000000000     -1.352030000000000      0.599833000000000
C      -3.157780000000000     -1.820629000000000     -0.439920000000000
C      -1.809959000000000     -2.259818000000000      1.508070000000000
C      -3.442300000000000     -3.184110000000000     -0.551157000000000
H      -3.548334000000000     -1.135649000000000     -1.188231000000000
C      -2.067711000000000     -3.628108000000000      1.370428000000000
H      -1.154689000000000     -1.910772000000000      2.300051000000000
C      -2.890777000000000     -4.099597000000000      0.347325000000000
C      -4.266341000000000     -3.647018000000000     -1.636759000000000
C      -1.427263000000000     -4.563444000000000      2.257210000000000
H      -3.089302000000000     -5.160809000000000      0.244498000000000
C      -3.566519000000000      1.237754000000000      0.902720000000000
C      -4.775560000000000      0.547497000000000      0.993534000000000
C      -3.573931000000000      2.623921000000000      1.097540000000000
C      -5.969922000000000      1.235063000000000      1.245975000000000
H      -4.817422000000000     -0.530145000000000      0.885941000000000
C      -4.768952000000000      3.309784000000000      1.323467000000000
H      -2.642680000000000      3.183929000000000      1.081365000000000
C      -5.980375000000000      2.619257000000000      1.401706000000000
C      -7.201560000000000      0.495528000000000      1.341799000000000
C      -4.747399000000000      4.739086000000000      1.495151000000000
H      -6.907077000000000      3.148292000000000      1.592279000000000
H       0.085064000000000     -0.266266000000000      2.342769000000000
O       0.783931000000000     -0.523837000000000     -3.652083000000000
O      -1.192297000000000     -2.379010000000000     -2.672664000000000
Rh      0.023421000000000      1.159127000000000      1.634086000000000
C       0.071979000000000      2.975794000000000      0.890576000000000
O       0.135303000000000      4.038068000000000      0.475513000000000
C       0.734746000000000     -0.658358000000000     -5.064659000000000
H       1.083130000000000      0.246901000000000     -5.570624000000000
H       1.415989000000000     -1.471785000000000     -5.311953000000000
H      -0.284677000000000     -0.901247000000000     -5.385135000000000
C      -1.489033000000000     -3.545996000000000     -3.417241000000000
H      -2.211345000000000     -3.244051000000000     -4.174889000000000
H      -0.584286000000000     -3.942701000000000     -3.892072000000000
H      -1.941906000000000     -4.321731000000000     -2.789644000000000
N      -8.186636000000000     -0.105508000000000      1.415501000000000
N      -4.726430000000000      5.887519000000000      1.628037000000000
N      -4.906415000000000     -4.014486000000000     -2.527518000000000
N      -0.890807000000000     -5.315574000000000      2.953002000000000
N       7.710565000000000     -1.980694000000000      0.587248000000000
N       4.116479000000000     -0.759984000000000      6.373730000000000
N       4.419286000000000      5.639766000000000     -1.044817000000000
N       3.858056000000000      0.180239000000000     -5.268779000000000
