78

C      -2.017430000000000     -2.037577000000000      1.438908000000000
C      -1.443743000000000     -0.848264000000000      0.971011000000000
C      -0.394771000000000     -0.240607000000000      1.688633000000000
C       0.004517000000000     -0.822463000000000      2.910259000000000
C      -0.560492000000000     -2.015349000000000      3.361333000000000
C      -1.567716000000000     -2.617263000000000      2.616058000000000
H      -2.809604000000000     -2.518433000000000      0.875110000000000
H      -0.232367000000000     -2.469710000000000      4.287714000000000
H      -2.010418000000000     -3.544585000000000      2.965558000000000
C       0.251558000000000      1.065671000000000      1.319991000000000
C      -0.159709000000000      2.184481000000000      2.078505000000000
C       1.248667000000000      1.250816000000000      0.344058000000000
C       0.334487000000000      3.460164000000000      1.815402000000000
C       1.751564000000000      2.535783000000000      0.097028000000000
C       1.284283000000000      3.626449000000000      0.814024000000000
H      -0.011547000000000      4.316984000000000      2.380124000000000
H       2.504840000000000      2.688196000000000     -0.666779000000000
H       1.671504000000000      4.618056000000000      0.602169000000000
P      -1.923156000000000     -0.237128000000000     -0.711297000000000
P       1.827129000000000     -0.146311000000000     -0.729725000000000
C       3.281260000000000      0.575515000000000     -1.609164000000000
C       4.522367000000000      0.768746000000000     -0.995022000000000
C       3.097387000000000      0.935137000000000     -2.945848000000000
C       5.552626000000000      1.324997000000000     -1.736794000000000
H       4.704345000000000      0.496188000000000      0.038775000000000
C       4.160220000000000      1.494004000000000     -3.642178000000000
H       2.143752000000000      0.778658000000000     -3.440474000000000
C       5.402660000000000      1.700782000000000     -3.064404000000000
F       6.742697000000000      1.512086000000000     -1.153939000000000
F       3.986080000000000      1.840698000000000     -4.922028000000000
H       6.223631000000000      2.128994000000000     -3.625862000000000
C       2.668383000000000     -1.255644000000000      0.476577000000000
C       2.884700000000000     -2.586013000000000      0.109323000000000
C       3.119618000000000     -0.787842000000000      1.713364000000000
C       3.544234000000000     -3.427204000000000      0.992237000000000
H       2.546023000000000     -2.975205000000000     -0.845184000000000
C       3.767581000000000     -1.673220000000000      2.561324000000000
H       2.950255000000000      0.232400000000000      2.039032000000000
C       3.993989000000000     -3.000448000000000      2.233600000000000
F       3.751203000000000     -4.701542000000000      0.644585000000000
F       4.189111000000000     -1.230389000000000      3.756867000000000
H       4.500005000000000     -3.674420000000000      2.913534000000000
C      -2.380542000000000      1.516548000000000     -0.379988000000000
C      -3.016348000000000      1.884080000000000      0.810566000000000
C      -2.073886000000000      2.483526000000000     -1.337372000000000
C      -3.336319000000000      3.216339000000000      1.008367000000000
H      -3.201330000000000      1.173380000000000      1.608865000000000
C      -2.411164000000000      3.805720000000000     -1.085227000000000
H      -1.555693000000000      2.223125000000000     -2.253878000000000
C      -3.044563000000000      4.205437000000000      0.081369000000000
F      -3.934677000000000      3.575176000000000      2.156869000000000
F      -2.107911000000000      4.737531000000000     -1.995651000000000
H      -3.296525000000000      5.243166000000000      0.261277000000000
C      -3.574537000000000     -1.024326000000000     -1.000930000000000
C      -4.718629000000000     -0.753077000000000     -0.242638000000000
C      -3.639097000000000     -1.948858000000000     -2.044645000000000
C      -5.895858000000000     -1.416285000000000     -0.547506000000000
H      -4.721119000000000     -0.041106000000000      0.573396000000000
C      -4.843177000000000     -2.589170000000000     -2.309682000000000
H      -2.768494000000000     -2.165241000000000     -2.656098000000000
C      -5.991401000000000     -2.343627000000000     -1.576730000000000
F      -6.990131000000000     -1.159323000000000      0.178491000000000
F      -4.899114000000000     -3.472544000000000     -3.311675000000000
H      -6.924159000000000     -2.847030000000000     -1.798375000000000
H       0.062529000000000      0.735254000000000     -2.192929000000000
O       0.955167000000000     -0.144798000000000      3.601707000000000
O      -1.073594000000000      1.931214000000000      3.048820000000000
Rh     -0.023996000000000     -0.809647000000000     -1.805608000000000
C      -0.091775000000000     -2.736164000000000     -1.480135000000000
O      -0.132206000000000     -3.870424000000000     -1.334684000000000
C       1.392722000000000     -0.687483000000000      4.828844000000000
H       0.568883000000000     -0.741865000000000      5.550224000000000
H       1.826441000000000     -1.684868000000000      4.691977000000000
H       2.164435000000000     -0.012960000000000      5.197579000000000
C      -1.416788000000000      2.985580000000000      3.923004000000000
H      -0.529718000000000      3.367573000000000      4.441799000000000
H      -1.913907000000000      3.803797000000000      3.391960000000000
H      -2.111060000000000      2.558826000000000      4.646605000000000
