102

C      -1.893481000000000     -2.081651000000000      1.304245000000000
C      -1.354776000000000     -0.863316000000000      0.870008000000000
C      -0.308212000000000     -0.265336000000000      1.599419000000000
C       0.125030000000000     -0.885702000000000      2.790051000000000
C      -0.393065000000000     -2.114818000000000      3.195123000000000
C      -1.401325000000000     -2.705659000000000      2.441197000000000
H      -2.704224000000000     -2.543986000000000      0.752948000000000
H      -0.028380000000000     -2.605912000000000      4.088828000000000
H      -1.819306000000000     -3.656331000000000      2.758927000000000
C       0.341953000000000      1.045281000000000      1.259123000000000
C      -0.029071000000000      2.153909000000000      2.049294000000000
C       1.330709000000000      1.222789000000000      0.275829000000000
C       0.504186000000000      3.419622000000000      1.814139000000000
C       1.873829000000000      2.495075000000000      0.054402000000000
C       1.450919000000000      3.580280000000000      0.807374000000000
H       0.192630000000000      4.273622000000000      2.402703000000000
H       2.632864000000000      2.635080000000000     -0.707248000000000
H       1.876441000000000      4.563145000000000      0.625906000000000
P      -1.913181000000000     -0.143064000000000     -0.757165000000000
P       1.853833000000000     -0.194684000000000     -0.807060000000000
C       3.360304000000000      0.442227000000000     -1.657101000000000
C       3.154788000000000      1.142771000000000     -2.854877000000000
C       4.663548000000000      0.243082000000000     -1.205528000000000
C       4.223788000000000      1.670221000000000     -3.572972000000000
H       2.139067000000000      1.267945000000000     -3.225112000000000
C       5.756579000000000      0.745264000000000     -1.921606000000000
H       4.848820000000000     -0.318907000000000     -0.295030000000000
C       5.520637000000000      1.462246000000000     -3.090476000000000
C       4.000085000000000      2.441992000000000     -4.848867000000000
C       7.160560000000000      0.488878000000000     -1.434168000000000
H       6.365372000000000      1.860496000000000     -3.650361000000000
C       2.509403000000000     -1.338305000000000      0.478039000000000
C       2.198015000000000     -2.695669000000000      0.440659000000000
C       3.266024000000000     -0.841640000000000      1.545315000000000
C       2.611359000000000     -3.557882000000000      1.458758000000000
H       1.598117000000000     -3.089084000000000     -0.373644000000000
C       3.733476000000000     -1.688203000000000      2.548347000000000
H       3.476252000000000      0.224458000000000      1.608095000000000
C       3.384008000000000     -3.040395000000000      2.497842000000000
C       2.176672000000000     -5.000548000000000      1.453250000000000
C       4.598891000000000     -1.148098000000000      3.658941000000000
H       3.719041000000000     -3.704999000000000      3.293136000000000
C      -2.310649000000000      1.576908000000000     -0.244130000000000
C      -3.077493000000000      1.799473000000000      0.904650000000000
C      -1.817210000000000      2.666228000000000     -0.958940000000000
C      -3.381969000000000      3.092908000000000      1.323220000000000
H      -3.434835000000000      0.951830000000000      1.487101000000000
C      -2.065536000000000      3.972829000000000     -0.531593000000000
H      -1.198531000000000      2.491498000000000     -1.835599000000000
C      -2.854862000000000      4.167698000000000      0.601840000000000
C      -4.276728000000000      3.314621000000000      2.517005000000000
C      -1.441355000000000      5.137635000000000     -1.254655000000000
H      -3.063249000000000      5.183305000000000      0.935611000000000
C      -3.581959000000000     -0.887502000000000     -1.051370000000000
C      -4.782692000000000     -0.195155000000000     -0.903662000000000
C      -3.622831000000000     -2.200132000000000     -1.546705000000000
C      -6.008241000000000     -0.798479000000000     -1.213641000000000
H      -4.784428000000000      0.833418000000000     -0.557439000000000
C      -4.827229000000000     -2.830631000000000     -1.839073000000000
H      -2.694677000000000     -2.740728000000000     -1.712366000000000
C      -6.016116000000000     -2.113056000000000     -1.665801000000000
C      -7.288267000000000     -0.014137000000000     -1.068541000000000
C      -4.857615000000000     -4.251372000000000     -2.342978000000000
H      -6.965061000000000     -2.590372000000000     -1.904459000000000
H       0.089333000000000      0.889575000000000     -2.142931000000000
O       1.064133000000000     -0.207271000000000      3.500461000000000
O      -0.928268000000000      1.899892000000000      3.036200000000000
Rh     -0.041857000000000     -0.684925000000000     -1.941664000000000
C      -0.166335000000000     -2.617288000000000     -2.001964000000000
O      -0.247138000000000     -3.750554000000000     -2.177031000000000
C       1.428542000000000     -0.727550000000000      4.756112000000000
H       1.921190000000000     -1.703187000000000      4.656708000000000
H       2.130251000000000     -0.012991000000000      5.188106000000000
H       0.555017000000000     -0.825817000000000      5.412697000000000
C      -1.208108000000000      2.943191000000000      3.937681000000000
H      -0.294522000000000      3.291119000000000      4.435985000000000
H      -1.689204000000000      3.790142000000000      3.432389000000000
H      -1.892708000000000      2.528895000000000      4.678756000000000
H      -7.337144000000000      0.484872000000000     -0.095711000000000
H      -8.163956000000001     -0.661307000000000     -1.163799000000000
H      -7.359532000000000      0.762873000000000     -1.837255000000000
H      -5.414106000000000     -4.323946000000000     -3.282769000000000
H      -5.347521000000000     -4.913939000000000     -1.621404000000000
H      -3.847137000000000     -4.630217000000000     -2.516673000000000
H      -4.107363000000000      4.295800000000000      2.970665000000000
H      -4.109526000000000      2.547738000000000      3.279533000000000
H      -5.332577000000000      3.264597000000000      2.227532000000000
H      -1.479379000000000      4.999029000000000     -2.338953000000000
H      -0.386075000000000      5.232998000000000     -0.972911000000000
H      -1.942847000000000      6.077898000000000     -1.009813000000000
H       7.237746000000000      0.641679000000000     -0.353494000000000
H       7.878768000000000      1.151057000000000     -1.924735000000000
H       7.462630000000000     -0.543719000000000     -1.640412000000000
H       4.570221000000000      2.008319000000000     -5.676609000000000
H       4.322448000000000      3.483121000000000     -4.740514000000000
H       2.943738000000000      2.443374000000000     -5.128678000000000
H       2.823016000000000     -5.616837000000000      2.084045000000000
H       2.186209000000000     -5.414213000000000      0.440907000000000
H       1.151985000000000     -5.088369000000000      1.832782000000000
H       4.488971000000000     -1.735326000000000      4.575763000000000
H       4.343166000000000     -0.108037000000000      3.882648000000000
H       5.657895000000000     -1.173971000000000      3.378094000000000
