142

C      -1.981168000000000     -2.242157000000000      0.862093000000000
C      -1.386022000000000     -0.986166000000000      0.681582000000000
C      -0.348979000000000     -0.575891000000000      1.545889000000000
C       0.007166000000000     -1.421428000000000      2.620412000000000
C      -0.581628000000000     -2.675653000000000      2.779113000000000
C      -1.569184000000000     -3.079684000000000      1.888799000000000
H      -2.779290000000000     -2.561224000000000      0.201098000000000
H      -0.278402000000000     -3.331816000000000      3.585469000000000
H      -2.035008000000000     -4.053659000000000      2.011784000000000
C       0.375940000000000      0.738257000000000      1.464367000000000
C       0.077797000000000      1.690336000000000      2.464078000000000
C       1.376223000000000      1.046946000000000      0.522380000000000
C       0.705835000000000      2.934805000000000      2.487122000000000
C       2.002617000000000      2.299425000000000      0.555566000000000
C       1.658139000000000      3.234750000000000      1.520502000000000
H       0.456582000000000      3.668906000000000      3.243130000000000
H       2.768562000000000      2.540802000000000     -0.173353000000000
H       2.148765000000000      4.204370000000000      1.534477000000000
P      -1.904876000000000      0.057056000000000     -0.782056000000000
P       1.838848000000000     -0.160460000000000     -0.820953000000000
C       3.405000000000000      0.536231000000000     -1.497813000000000
C       4.671049000000000      0.143053000000000     -1.060943000000000
C       3.260988000000000      1.485923000000000     -2.504984000000000
C       5.810180000000000      0.742732000000000     -1.611522000000000
H       4.764859000000000     -0.635430000000000     -0.317778000000000
C       4.395140000000000      2.104055000000000     -3.068777000000000
H       2.261175000000000      1.733668000000000     -2.841802000000000
C       5.660660000000000      1.733550000000000     -2.590955000000000
N       7.106757000000000      0.411021000000000     -1.163152000000000
N       4.254590000000000      3.056886000000000     -4.070173000000000
H       6.548330000000000      2.233415000000000     -2.955836000000000
C       2.370374000000000     -1.564129000000000      0.245127000000000
C       1.899586000000000     -2.841482000000000     -0.011368000000000
C       3.138413000000000     -1.297292000000000      1.383367000000000
C       2.148236000000000     -3.891068000000000      0.897987000000000
H       1.285528000000000     -3.007587000000000     -0.884046000000000
C       3.411838000000000     -2.322858000000000      2.286517000000000
H       3.465330000000000     -0.282652000000000      1.577559000000000
C       2.898835000000000     -3.605716000000000      2.047552000000000
N       1.623298000000000     -5.157308000000000      0.673129000000000
N       4.122552000000000     -2.090055000000000      3.489937000000000
H       3.057485000000000     -4.364973000000000      2.804110000000000
C      -2.222199000000000      1.655450000000000      0.070664000000000
C      -2.961310000000000      1.648628000000000      1.250957000000000
C      -1.638220000000000      2.819723000000000     -0.411773000000000
C      -3.120459000000000      2.837668000000000      1.980408000000000
H      -3.366697000000000      0.713862000000000      1.618494000000000
C      -1.754499000000000      4.014302000000000      0.321469000000000
H      -1.039570000000000      2.765758000000000     -1.310337000000000
C      -2.501609000000000      4.009627000000000      1.512319000000000
N      -3.837898000000000      2.839192000000000      3.165011000000000
N      -1.118161000000000      5.172992000000000     -0.111344000000000
H      -2.584055000000000      4.917610000000000      2.093265000000000
C      -3.596790000000000     -0.561769000000000     -1.209128000000000
C      -4.757666000000000      0.119378000000000     -0.857434000000000
C      -3.661211000000000     -1.729496000000000     -1.970047000000000
C      -6.015336000000000     -0.391687000000000     -1.232502000000000
H      -4.687162000000000      1.044755000000000     -0.307372000000000
C      -4.904851000000000     -2.258217000000000     -2.356051000000000
H      -2.743284000000000     -2.216203000000000     -2.270158000000000
C      -6.075445000000000     -1.580242000000000     -1.974710000000000
N      -7.179570000000000      0.267425000000000     -0.851276000000000
N      -4.971356000000000     -3.418145000000000     -3.115449000000000
H      -7.035756000000000     -1.974632000000000     -2.271557000000000
H       0.164292000000000      1.257965000000000     -1.942663000000000
O       0.941259000000000     -0.939147000000000      3.483597000000000
O      -0.843991000000000      1.318305000000000      3.393433000000000
Rh     -0.047305000000000     -0.319353000000000     -2.056784000000000
C      -0.261142000000000     -2.184486000000000     -2.502183000000000
O      -0.397943000000000     -3.255328000000000     -2.905368000000000
C       1.173166000000000     -1.677117000000000      4.662955000000000
H       0.240211000000000     -1.820713000000000      5.222684000000000
H       1.632832000000000     -2.647190000000000      4.442836000000000
H       1.871158000000000     -1.086862000000000      5.257773000000000
C      -1.030713000000000      2.179130000000000      4.491016000000000
H      -0.092479000000000      2.322479000000000      5.042491000000000
H      -1.419710000000000      3.153843000000000      4.171742000000000
H      -1.764768000000000      1.695208000000000      5.137316000000000
C      -7.065726000000000      1.616589000000000     -0.334605000000000
H      -6.476787000000000      1.630147000000000      0.588751000000000
H      -6.590905000000000      2.308408000000000     -1.046597000000000
H      -8.063271000000000      1.989082000000000     -0.096415000000000
C      -8.422396000000001     -0.103283000000000     -1.492290000000000
H      -9.221018000000001      0.539671000000000     -1.119287000000000
H      -8.380411000000000     -0.009756000000000     -2.588635000000000
H      -8.691625999999999     -1.136999000000000     -1.249500000000000
C      -3.765929000000000     -4.207344000000000     -3.269722000000000
H      -2.998442000000000     -3.649424000000000     -3.815186000000000
H      -3.333540000000000     -4.514063000000000     -2.304061000000000
H      -3.999376000000000     -5.102838000000000     -3.847241000000000
C      -6.248313000000000     -4.080672000000000     -3.260815000000000
H      -6.704962000000000     -4.339847000000000     -2.292826000000000
H      -6.955492000000000     -3.450240000000000     -3.811306000000000
H      -6.110145000000000     -4.997490000000000     -3.835408000000000
C      -4.130540000000000      4.083594000000000      3.830368000000000
H      -4.603555000000000      4.802735000000000      3.148477000000000
H      -4.817908000000000      3.897066000000000      4.656765000000000
H      -3.228095000000000      4.561767000000000      4.243457000000000
C      -4.351736000000000      1.591724000000000      3.683928000000000
H      -4.778138000000000      1.764909000000000      4.673518000000000
H      -5.134424000000000      1.161543000000000      3.041657000000000
H      -3.549925000000000      0.848236000000000      3.777856000000000
C      -0.166684000000000      5.055392000000000     -1.200577000000000
H       0.257729000000000      6.040026000000000     -1.405046000000000
H       0.649415000000000      4.351093000000000     -0.975934000000000
H      -0.669852000000000      4.715179000000000     -2.111121000000000
C      -0.888911000000000      6.220525000000000      0.860192000000000
H      -0.364584000000000      5.853035000000000      1.757178000000000
H      -0.287218000000000      7.006972000000000      0.402125000000000
H      -1.833435000000000      6.674339000000000      1.179984000000000
C       5.407007000000000      3.854433000000000     -4.427421000000000
H       5.811207000000000      4.427967000000000     -3.578212000000000
H       6.207852000000000      3.219320000000000     -4.820231000000000
H       5.125052000000000      4.553452000000000     -5.216110000000000
C       2.942452000000000      3.632996000000000     -4.287072000000000
H       3.013394000000000      4.389483000000000     -5.069956000000000
H       2.233233000000000      2.871239000000000     -4.624876000000000
H       2.530633000000000      4.102542000000000     -3.379619000000000
C       7.190004000000000     -0.485237000000000     -0.027814000000000
H       6.576081000000000     -0.106584000000000      0.793709000000000
H       6.864579000000000     -1.514272000000000     -0.259202000000000
H       8.229676000000000     -0.523338000000000      0.309383000000000
C       8.077745000000000      0.064227000000000     -2.190604000000000
H       8.042971000000000      0.775617000000000     -3.015046000000000
H       9.082890000000001      0.093524000000000     -1.759326000000000
H       7.903388000000000     -0.944859000000000     -2.599792000000000
C       1.566317000000000     -6.070220000000000      1.793583000000000
H       1.008163000000000     -5.655344000000000      2.649082000000000
H       1.081668000000000     -6.994560000000000      1.476121000000000
H       2.573655000000000     -6.327382000000000      2.137482000000000
C       0.598796000000000     -5.293686000000000     -0.347163000000000
H       0.260532000000000     -6.330979000000000     -0.368356000000000
H      -0.267056000000000     -4.637662000000000     -0.166319000000000
H       1.002738000000000     -5.056958000000000     -1.335805000000000
C       5.315811000000000     -2.904841000000000      3.668471000000000
H       5.101813000000000     -3.952385000000000      3.454297000000000
H       6.138554000000000     -2.579573000000000      3.008062000000000
H       5.655204000000000     -2.827443000000000      4.705945000000000
C       4.375480000000000     -0.700452000000000      3.816502000000000
H       3.445550000000000     -0.129317000000000      3.748699000000000
H       4.751165000000000     -0.645881000000000      4.842980000000000
H       5.124416000000000     -0.229691000000000      3.154853000000000
