110

C       1.960624000000000      2.321301000000000      1.000676000000000
C       1.393117000000000      1.064055000000000      0.753984000000000
C       0.400814000000000      0.562284000000000      1.619814000000000
C       0.066402000000000      1.314746000000000      2.766889000000000
C       0.618113000000000      2.575422000000000      2.989994000000000
C       1.557402000000000      3.073894000000000      2.095530000000000
H       2.731100000000000      2.709730000000000      0.343964000000000
H       0.318789000000000      3.171425000000000      3.843034000000000
H       1.991717000000000      4.054105000000000      2.269316000000000
C      -0.290781000000000     -0.762570000000000      1.470011000000000
C       0.100199000000000     -1.778853000000000      2.369727000000000
C      -1.336985000000000     -1.030269000000000      0.569047000000000
C      -0.483317000000000     -3.043975000000000      2.329399000000000
C      -1.927455000000000     -2.301045000000000      0.543585000000000
C      -1.490717000000000     -3.297894000000000      1.405360000000000
H      -0.156834000000000     -3.830323000000000      2.998465000000000
H      -2.738220000000000     -2.510966000000000     -0.145649000000000
H      -1.945318000000000     -4.283508000000000      1.368775000000000
P       1.856202000000000      0.140636000000000     -0.797606000000000
P      -1.889186000000000      0.262746000000000     -0.650846000000000
C      -3.460302000000000     -0.422485000000000     -1.329033000000000
C      -4.727669000000000     -0.055803000000000     -0.897207000000000
C      -3.316597000000000     -1.341784000000000     -2.381436000000000
C      -5.865728000000000     -0.623227000000000     -1.496007000000000
H      -4.856094000000000      0.678626000000000     -0.108652000000000
C      -4.440539000000000     -1.915823000000000     -2.963335000000000
H      -2.316080000000000     -1.578209000000000     -2.727484000000000
C      -5.721267000000000     -1.554987000000000     -2.516366000000000
S      -7.426918000000000     -0.079495000000000     -0.861603000000000
S      -4.372566000000000     -3.098844000000000     -4.280132000000000
H      -6.586975000000000     -2.004122000000000     -2.991502000000000
C      -2.413996000000000      1.558549000000000      0.546659000000000
C      -1.952075000000000      2.868257000000000      0.428582000000000
C      -3.160480000000000      1.172071000000000      1.659795000000000
C      -2.207901000000000      3.788826000000000      1.447984000000000
H      -1.358262000000000      3.144890000000000     -0.432695000000000
C      -3.440384000000000      2.093063000000000      2.668510000000000
H      -3.482116000000000      0.140097000000000      1.750578000000000
C      -2.950024000000000      3.395440000000000      2.565875000000000
S      -1.576412000000000      5.442339000000000      1.456664000000000
S      -4.359162000000000      1.660169000000000      4.122068000000000
H      -3.122815000000000      4.101910000000000      3.374692000000000
C       2.255966000000000     -1.509957000000000     -0.083152000000000
C       3.105996000000000     -1.604396000000000      1.015177000000000
C       1.652323000000000     -2.656770000000000     -0.605027000000000
C       3.396883000000000     -2.856007000000000      1.571719000000000
H       3.539811000000000     -0.707129000000000      1.451858000000000
C       1.876508000000000     -3.892091000000000     -0.003721000000000
H       0.977698000000000     -2.548910000000000     -1.445112000000000
C       2.763860000000000     -3.993628000000000      1.077722000000000
S       4.571107000000000     -2.862123000000000      2.900958000000000
S       1.066289000000000     -5.383872000000000     -0.506244000000000
H       2.939345000000000     -4.968760000000000      1.521173000000000
C       3.517415000000000      0.811560000000000     -1.262538000000000
C       4.707169000000000      0.113153000000000     -1.059986000000000
C       3.543871000000000      2.050625000000000     -1.912980000000000
C       5.925773000000000      0.670298000000000     -1.460695000000000
H       4.685775000000000     -0.866507000000000     -0.605809000000000
C       4.759374000000000      2.618406000000000     -2.297746000000000
H       2.609571000000000      2.561806000000000     -2.114755000000000
C       5.950398000000000      1.925450000000000     -2.065360000000000
S       7.481127000000000     -0.147780000000000     -1.236226000000000
S       4.903715000000000      4.199670000000000     -3.082297000000000
H       6.898755000000000      2.365609000000000     -2.363459000000000
H      -0.240793000000000     -1.037476000000000     -1.956100000000000
O      -0.815351000000000      0.738505000000000      3.626365000000000
O       1.073271000000000     -1.440590000000000      3.251903000000000
Rh     -0.067195000000000      0.549086000000000     -1.956126000000000
C       0.067615000000000      2.449650000000000     -2.279122000000000
O       0.139397000000000      3.546389000000000     -2.618991000000000
C      -0.969834000000000      1.345963000000000      4.892138000000000
H      -1.606500000000000      0.678649000000000      5.474249000000000
H       0.001022000000000      1.459789000000000      5.389245000000000
H      -1.463530000000000      2.321023000000000      4.810923000000000
C       1.363413000000000     -2.357683000000000      4.281464000000000
H       0.465872000000000     -2.578639000000000      4.872811000000000
H       1.773238000000000     -3.292623000000000      3.878208000000000
H       2.118105000000000     -1.881958000000000      4.906656000000000
C       7.021661000000000     -1.585513000000000     -0.235968000000000
H       7.958850000000000     -2.087303000000000      0.010991000000000
H       6.526592000000000     -1.285771000000000      0.691041000000000
H       6.385944000000000     -2.279454000000000     -0.790548000000000
C       3.182679000000000      4.747541000000000     -3.173325000000000
H       2.731615000000000      4.822850000000000     -2.180563000000000
H       3.209340000000000      5.740480000000000     -3.625558000000000
H       2.582511000000000      4.087804000000000     -3.803138000000000
C       4.652684000000000     -4.612586000000000      3.344679000000000
H       4.992861000000000     -5.221044000000000      2.503941000000000
H       5.383202000000000     -4.685057000000000      4.152118000000000
H       3.689020000000000     -4.981096000000000      3.706720000000000
C      -0.103867000000000     -4.778786000000000     -1.746704000000000
H       0.412752000000000     -4.394695000000000     -2.629491000000000
H      -0.709295000000000     -5.640446000000000     -2.034815000000000
H      -0.750066000000000     -4.005786000000000     -1.319161000000000
C      -2.597367000000000     -3.209367000000000     -4.607283000000000
H      -2.488034000000000     -3.914244000000000     -5.433221000000000
H      -2.187121000000000     -2.242181000000000     -4.906672000000000
H      -2.054839000000000     -3.591865000000000     -3.739264000000000
C      -8.606306999999999     -0.994471000000000     -1.881329000000000
H      -9.596632000000000     -0.690028000000000     -1.538540000000000
H      -8.503278000000000     -0.735995000000000     -2.937554000000000
H      -8.501633999999999     -2.073085000000000     -1.744372000000000
C      -0.471380000000000      5.437882000000000      0.024358000000000
H      -1.022058000000000      5.329504000000000     -0.912069000000000
H       0.029659000000000      6.407789000000000      0.030000000000000
H       0.275909000000000      4.643995000000000      0.115577000000000
C      -4.149046000000000     -0.142835000000000      4.147293000000000
H      -4.793701000000000     -0.635511000000000      3.416668000000000
H      -3.103437000000000     -0.405046000000000      3.958948000000000
H      -4.437755000000000     -0.471209000000000      5.147593000000000
