78
K:19,20;
C      2.36904    0.90669   -2.17130
C      1.67790    0.65283   -0.98378
C      0.65386    1.54554   -0.58164
C      0.37195    2.64788   -1.39363
C      1.04766    2.87236   -2.58984
C      2.05746    2.00145   -2.97460
H      3.16442    0.23690   -2.48180
H      0.78971    3.72827   -3.20521
H      2.60834    2.16716   -3.89517
C     -0.05716    1.50102    0.74698
C      0.44270    2.38788    1.70882
C     -1.18465    0.71555    1.07534
C     -0.09927    2.47138    2.98562
C     -1.73149    0.82119    2.35971
C     -1.19138    1.67780    3.31357
H      0.33489    3.14790    3.71508
H     -2.59156    0.21551    2.62516
H     -1.63121    1.72515    4.30496
P      1.95751   -0.93480   -0.05894
P     -1.86707   -0.54018   -0.10292
C     -3.38329   -1.14893    0.74478
C     -4.56908   -0.40809    0.81078
C     -3.33247   -2.40904    1.34826
C     -5.67857   -0.91638    1.47921
H     -4.62674    0.56751    0.33609
C     -4.44255   -2.91480    2.02142
H     -2.41475   -2.98789    1.28083
C     -5.61602   -2.16919    2.08763
H     -6.59440   -0.33499    1.52308
H     -4.39155   -3.89464    2.48593
H     -6.48393   -2.56477    2.60624
C     -2.58039    0.51133   -1.43323
C     -2.84363   -0.07113   -2.67614
C     -2.89659    1.86006   -1.23606
C     -3.40690    0.67884   -3.70492
H     -2.60271   -1.11830   -2.83918
C     -3.45514    2.61202   -2.26649
H     -2.69893    2.32544   -0.27335
C     -3.70874    2.02323   -3.50306
H     -3.60217    0.21379   -4.66604
H     -3.69095    3.65928   -2.10273
H     -4.13922    2.61134   -4.30761
C      2.40181   -0.28246    1.60202
C      3.28987    0.79581    1.72026
C      1.81333   -0.80759    2.75167
C      3.58975    1.32988    2.96802
H      3.73339    1.22732    0.82511
C      2.10736   -0.26597    4.00297
H      1.10366   -1.62426    2.65932
C      2.99421    0.79981    4.11289
H      4.27827    2.16577    3.04766
H      1.63403   -0.67519    4.89010
H      3.21922    1.22276    5.08733
C      3.56799   -1.56657   -0.70893
C      4.78320   -1.48106   -0.02239
C      3.54091   -2.23797   -1.93971
C      5.94350   -2.03072   -0.56584
H      4.83120   -0.99707    0.94673
C      4.70232   -2.76700   -2.49132
H      2.59799   -2.34839   -2.46935
C      5.90989   -2.66514   -1.80306
H      6.87648   -1.96030   -0.01504
H      4.66004   -3.27313   -3.45070
H      6.81583   -3.08930   -2.22458
H     -0.24868   -1.96849    1.08022
O     -0.70787    3.50356   -1.04982
O      1.49863    3.27650    1.37451
Rh    -0.09420   -1.85274   -0.50731
C     -0.01828   -1.87482   -2.44681
O     -0.00197   -1.95168   -3.59117
C     -0.47373    4.48329   -0.03646
H     -0.20154    4.00856    0.91779
H      0.32606    5.17738   -0.33413
H     -1.41451    5.02802    0.07564
C      2.77822    2.70340    1.09923
H      3.16295    2.15604    1.97240
H      2.72894    2.01963    0.23895
H      3.43827    3.54315    0.86789
