100

H      -0.470870000000000     -1.692000000000000      1.829720000000000
C      -0.178772840000000     -2.023536900000000     -1.533374410000000
O      -0.079286510000000     -2.136456150000000     -2.678821830000000
Rh     -0.338670000000000     -1.842050000000000      0.307620000000000
C       2.275160000000000     -0.030470000000000     -2.184610000000000
C       1.585770000000000      0.080800000000000     -0.981250000000000
C       0.632430000000000      1.109210000000000     -0.796390000000000
C       0.475290000000000      1.968530000000000     -1.863790000000000
C       1.167700000000000      1.835600000000000     -3.061160000000000
C       2.086870000000000      0.837040000000000     -3.253810000000000
H       3.008490000000000     -0.816020000000000     -2.287690000000000
O      -0.331600000000000      3.095820000000000     -1.958640000000000
H       2.639600000000000      0.744730000000000     -4.172800000000000
C      -0.039170000000000      1.475770000000000      0.476570000000000
C       0.507970000000000      2.534950000000000      1.171700000000000
C      -1.236300000000000      0.959440000000000      1.014070000000000
C      -0.019290000000000      3.025660000000000      2.358490000000000
O       1.624190000000000      3.297100000000000      0.848370000000000
C      -1.741080000000000      1.447880000000000      2.216030000000000
C      -1.145230000000000      2.483460000000000      2.924630000000000
H      -2.644250000000000      1.002990000000000      2.607410000000000
H      -1.550620000000000      2.855410000000000      3.849760000000000
P       1.816240000000000     -1.163900000000000      0.366980000000000
P      -2.082640000000000     -0.431740000000000      0.156740000000000
C      -3.663000000000000     -0.619450000000000      1.055220000000000
C      -4.768500000000000      0.207750000000000      0.897700000000000
C      -3.746390000000000     -1.727280000000000      1.893230000000000
C      -5.940200000000000     -0.050350000000000      1.595980000000000
H      -4.726350000000000      1.049700000000000      0.223290000000000
C      -4.904850000000000     -1.997360000000000      2.604340000000000
H      -2.883620000000000     -2.380840000000000      1.974470000000000
C      -5.992420000000000     -1.146350000000000      2.447290000000000
C      -7.127980000000000      0.851770000000000      1.445470000000000
C      -4.995550000000000     -3.179770000000000      3.519970000000000
H      -6.904960000000000     -1.351050000000000      2.990120000000000
C      -2.602400000000000      0.442010000000000     -1.359020000000000
C      -2.666130000000000     -0.258520000000000     -2.555360000000000
C      -2.984120000000000      1.778160000000000     -1.318080000000000
C      -3.106340000000000      0.362670000000000     -3.714780000000000
H      -2.361270000000000     -1.296300000000000     -2.574730000000000
C      -3.459750000000000      2.407760000000000     -2.459740000000000
H      -2.895170000000000      2.337410000000000     -0.396160000000000
C      -3.511640000000000      1.690170000000000     -3.647180000000000
C      -3.162250000000000     -0.379400000000000     -5.015490000000000
C      -3.923890000000000      3.830490000000000     -2.398740000000000
H      -3.861710000000000      2.180920000000000     -4.544060000000000
C       2.503200000000000     -0.022650000000000      1.615000000000000
C       3.616740000000000      0.742930000000000      1.279110000000000
C       1.920180000000000      0.112580000000000      2.864180000000000
C       4.177860000000000      1.607700000000000      2.203910000000000
H       4.048120000000000      0.651190000000000      0.290920000000000
C       2.438810000000000      1.011280000000000      3.787470000000000
H       1.047200000000000     -0.477640000000000      3.105300000000000
C       3.575170000000000      1.733780000000000      3.451400000000000
C       5.409900000000000      2.394540000000000      1.878730000000000
C       1.785910000000000      1.209170000000000      5.121900000000000
H       3.994750000000000      2.425520000000000      4.168190000000000
C       3.280960000000000     -2.134250000000000     -0.132500000000000
C       4.450260000000000     -2.176330000000000      0.615460000000000
C       3.141800000000000     -2.990700000000000     -1.223980000000000
C       5.495460000000000     -3.014900000000000      0.246430000000000
H       4.555240000000000     -1.558480000000000      1.495040000000000
C       4.173080000000000     -3.829020000000000     -1.611330000000000
H       2.206590000000000     -3.006010000000000     -1.767080000000000
C       5.350530000000000     -3.823550000000000     -0.870650000000000
C       6.766930000000000     -3.023960000000000      1.039820000000000
C       4.030200000000000     -4.724700000000000     -2.804010000000000
H       6.159700000000000     -4.478680000000000     -1.161940000000000
C       1.669710000000000      4.287370000000000      1.778440000000000
F       1.453520000000000      5.492940000000000      1.185230000000000
F       2.906430000000000      4.410730000000000      2.292010000000000
C      -0.072960000000000      3.633980000000000     -3.180470000000000
F      -1.213760000000000      3.813770000000000     -3.878920000000000
F       0.413810000000000      4.892160000000000     -3.041870000000000
O       0.762920000000000      4.093500000000000      2.772210000000000
O       0.793690000000000      2.872710000000000     -3.898890000000000
H       5.722940000000000      2.218830000000000      0.852800000000000
H       6.223230000000000      2.111300000000000      2.546390000000000
H       5.222910000000000      3.457790000000000      2.012590000000000
H       1.489630000000000      2.250780000000000      5.242130000000000
H       2.478530000000000      0.965280000000000      5.926590000000000
H       0.903520000000000      0.581620000000000      5.216660000000000
H       6.566910000000000     -2.829870000000000      2.090930000000000
H       7.436760000000000     -2.244140000000000      0.675790000000000
H       7.278150000000000     -3.978890000000000      0.945840000000000
H       2.991150000000000     -4.791060000000000     -3.115930000000000
H       4.395170000000000     -5.724800000000000     -2.578900000000000
H       4.615610000000000     -4.335980000000000     -3.637710000000000
H      -8.054380000000000      0.285190000000000      1.505670000000000
H      -7.096280000000000      1.377930000000000      0.494620000000000
H      -7.136300000000000      1.593970000000000      2.244380000000000
H      -4.099580000000000     -3.790690000000000      3.452210000000000
H      -5.859090000000000     -3.792920000000000      3.267180000000000
H      -5.113040000000000     -2.849310000000000      4.551690000000000
H      -2.748880000000000      0.227300000000000     -5.819090000000000
H      -4.196270000000000     -0.612220000000000     -5.270740000000000
H      -2.606470000000000     -1.311700000000000     -4.954400000000000
H      -3.330290000000000      4.396260000000000     -1.684520000000000
H      -4.966890000000000      3.868770000000000     -2.080920000000000
H      -3.845240000000000      4.303380000000000     -3.373550000000000
