100

H      -0.353192000000000     -2.098513000000000      1.599862000000000
C      -0.514947000000000     -3.207536000000000     -1.734070000000000
O      -0.563393000000000     -3.668642000000000     -2.784719000000000
Rh     -0.405899000000000     -2.534551000000000      0.083548000000000
C       1.883814000000000     -0.068016000000000     -2.646950000000000
C       1.401700000000000      0.048275000000000     -1.345193000000000
C       0.633413000000000      1.189181000000000     -0.965556000000000
C       0.457116000000000      2.148706000000000     -1.941076000000000
C       0.921935000000000      2.006186000000000     -3.243763000000000
C       1.642304000000000      0.904582000000000     -3.632936000000000
H       2.482489000000000     -0.930909000000000     -2.917183000000000
O      -0.217307000000000      3.332271000000000     -1.826147000000000
H       2.012258000000000      0.795536000000000     -4.645758000000000
C       0.041981000000000      1.442029000000000      0.382957000000000
C       0.571991000000000      2.462874000000000      1.145509000000000
C      -1.062225000000000      0.745331000000000      0.955679000000000
C       0.121860000000000      2.771533000000000      2.423731000000000
O       1.611309000000000      3.289404000000000      0.817243000000000
C      -1.518612000000000      1.083501000000000      2.227407000000000
C      -0.927613000000000      2.098740000000000      2.998229000000000
H      -2.371140000000000      0.558054000000000      2.642359000000000
H      -1.286432000000000      2.345055000000000      3.990763000000000
P       1.620460000000000     -1.322004000000000     -0.116167000000000
P      -1.817896000000000     -0.659183000000000      0.013124000000000
C      -3.449562000000000     -0.938990000000000      0.811560000000000
C      -4.661707000000000     -0.610567000000000      0.202726000000000
C      -3.465932000000000     -1.591614000000000      2.051466000000000
C      -5.877824000000000     -0.911867000000000      0.823669000000000
H      -4.673915000000000     -0.121829000000000     -0.766742000000000
C      -4.663783000000000     -1.878952000000000      2.701493000000000
H      -2.524662000000000     -1.881500000000000      2.513578000000000
C      -5.861265000000000     -1.529809000000000      2.071530000000000
C      -7.181621000000000     -0.589769000000000      0.137414000000000
C      -4.671726000000000     -2.590397000000000      4.028815000000000
H      -6.804523000000000     -1.757693000000000      2.564832000000000
C      -2.231357000000000      0.251079000000000     -1.536248000000000
C      -1.814732000000000     -0.232979000000000     -2.777973000000000
C      -2.826744000000000      1.511002000000000     -1.461334000000000
C      -1.956882000000000      0.535566000000000     -3.932147000000000
H      -1.321045000000000     -1.196387000000000     -2.844157000000000
C      -3.006717000000000      2.291153000000000     -2.605201000000000
H      -3.124239000000000      1.910405000000000     -0.492839000000000
C      -2.556158000000000      1.794531000000000     -3.827421000000000
C      -1.434141000000000      0.051117000000000     -5.259558000000000
C      -3.610477000000000      3.667090000000000     -2.486126000000000
H      -2.657487000000000      2.407526000000000     -4.722453000000000
C       2.314402000000000     -0.341952000000000      1.280633000000000
C       1.778237000000000     -0.432420000000000      2.566880000000000
C       3.307013000000000      0.603406000000000      1.017591000000000
C       2.195045000000000      0.437510000000000      3.573685000000000
H       0.985545000000000     -1.148303000000000      2.765131000000000
C       3.770333000000000      1.459257000000000      2.018241000000000
H       3.706324000000000      0.701391000000000      0.009133000000000
C       3.191398000000000      1.375474000000000      3.283281000000000
C       1.560799000000000      0.405373000000000      4.940142000000000
C       4.833124000000000      2.479006000000000      1.696841000000000
H       3.511085000000000      2.065946000000000      4.062954000000000
C       3.081108000000000     -2.270546000000000     -0.726979000000000
C       2.893790000000000     -3.146269000000000     -1.807408000000000
C       4.330964000000000     -2.229364000000000     -0.111505000000000
C       3.932809000000000     -3.931640000000000     -2.295319000000000
H       1.918131000000000     -3.222790000000000     -2.277966000000000
C       5.388375000000000     -3.025885000000000     -0.569474000000000
H       4.498651000000000     -1.584578000000000      0.745461000000000
C       5.178607000000000     -3.859318000000000     -1.662381000000000
C       3.724106000000000     -4.846659000000000     -3.475294000000000
C       6.721333000000000     -2.980268000000000      0.134331000000000
H       5.996287000000000     -4.479256000000000     -2.025944000000000
C       1.766713000000000      4.184921000000000      1.911409000000000
H       1.508285000000000      5.199579000000000      1.587242000000000
H       2.795250000000000      4.135546000000000      2.279549000000000
C      -0.098017000000000      3.980929000000000     -3.085888000000000
H      -1.093902000000000      4.234054000000000     -3.460014000000000
H       0.525901000000000      4.875386000000000     -2.974474000000000
O       0.881547000000000      3.778004000000000      2.948619000000000
O       0.525109000000000      3.077751000000000     -3.992666000000000
H       0.676643000000000     -0.237397000000000      4.946955000000000
H       1.252274000000000      1.411864000000000      5.242754000000000
H       2.259685000000000      0.031814000000000      5.696391000000000
H       5.068179000000000      3.100753000000000      2.565738000000000
H       4.502949000000000      3.131596000000000      0.880533000000000
H       5.759872000000000      1.995139000000000      1.371621000000000
H       4.274310000000000     -4.488877000000000     -4.352300000000000
H       2.666252000000000     -4.909236000000000     -3.743887000000000
H       4.080154000000000     -5.858074000000000     -3.256673000000000
H       6.655524000000000     -3.442454000000000      1.125069000000000
H       7.056613000000000     -1.948439000000000      0.277894000000000
H       7.488838000000000     -3.512111000000000     -0.433703000000000
H      -7.488992000000000     -1.410885000000000     -0.519691000000000
H      -7.093892000000000      0.309059000000000     -0.479506000000000
H      -7.983499000000000     -0.430493000000000      0.863548000000000
H      -3.729137000000000     -2.439854000000000      4.562824000000000
H      -4.798950000000000     -3.664997000000000      3.867971000000000
H      -5.487738000000000     -2.233915000000000      4.664499000000000
H      -0.764747000000000      0.797596000000000     -5.701163000000000
H      -2.249533000000000     -0.123687000000000     -5.969538000000000
H      -0.876229000000000     -0.882157000000000     -5.145349000000000
H      -2.979530000000000      4.305495000000000     -1.856583000000000
H      -4.600067000000000      3.627967000000000     -2.020091000000000
H      -3.717484000000000      4.144120000000000     -3.464704000000000
