71

H       7.087265000000000      9.958007000000000      3.482829000000000
H       7.051032000000000      7.538138000000000      3.996497000000000
H       8.658796000000001      3.973889000000000      4.179121000000000
H      10.764277000000000      3.415482000000000      3.001381000000000
H      12.789329000000000      6.537513000000000      5.149388000000000
H      10.685297000000000      7.099914000000000      6.318733000000000
H       3.159872000000000      3.893233000000000      4.689120000000000
H       0.916947000000000      3.395334000000000      3.752680000000000
H      -0.617152000000000      6.995845000000000      5.525528000000000
H       1.624011000000000      7.505222000000000      6.430960000000000
H       3.766952000000000      9.867571000000000      3.156728000000000
H       3.712466000000000      7.500341000000000      3.842925000000000
C       7.460435000000000      9.604251000000000      4.438761000000000
C       7.441042000000000      8.244299000000000      4.727343000000000
C       9.536899999999999      5.550652000000000      5.348987000000000
C       9.567621000000001      4.524296000000000      4.403013000000000
C      10.752929000000000      4.215054000000000      3.735180000000000
C      11.912856000000000      4.931957000000000      4.008181000000000
C      11.888154999999999      5.968897000000000      4.942435000000000
C      10.705878000000000      6.281231000000000      5.603031000000000
C       2.538207000000000      5.717603000000000      5.635313000000000
C       2.329567000000000      4.567800000000000      4.872444000000000
C       1.065978000000000      4.290388000000000      4.348302000000000
C       0.005137000000000      5.157342000000000      4.585675000000000
C       0.206517000000000      6.313024000000000      5.342370000000000
C       1.466311000000000      6.595770000000000      5.855987000000000
C       4.282684000000000      7.898849000000000      5.887386000000000
C       4.347045000000000     10.586874999999999      5.104447000000000
C       4.012284000000000      9.599138999999999      4.179833000000000
C       3.987432000000000      8.263909999999999      4.567119000000000
H       8.740919999999999      8.339112000000000      7.868695000000000
H       8.746594999999999     10.757168000000000      7.363761000000000
H       4.875486000000000      8.633552999999999      7.829604000000000
H       4.940594000000000     10.991185000000000      7.133216000000000
C       7.915239000000000      7.775138000000000      5.957042000000000
C       8.378406000000000      8.689323999999999      6.905820000000000
C       8.384817999999999     10.053671000000000      6.620012000000000
C       7.935018000000000     10.511221000000001      5.385007000000000
C       4.633182000000000      8.891901000000001      6.804289000000000
C       4.665603000000000     10.228828000000000      6.410745000000000
H      10.376998000000000      4.977951000000000      7.867878000000000
H       8.680738000000000      5.168734000000000     11.819106000000000
H      10.571816999999999      4.642010000000000     10.308916999999999
H       3.821862000000000      5.524877000000000     11.998120999999999
H       1.841301000000000      5.528936000000000      8.180909000000000
H       1.771603000000000      5.257548000000000     10.631595000000001
C       9.553876000000001      5.250727000000000      8.519397000000000
C       8.377511999999999      5.782828000000000      7.977536000000000
C       7.354596000000000      6.112897000000000      8.856215000000001
C       7.421613000000000      5.884613000000000     10.230475999999999
C       8.598565000000001      5.353785000000000     10.752100000000000
C       9.657785000000001      5.054451000000000      9.894928999999999
C       5.048432000000000      6.266348000000000      8.933882000000001
C       5.047876000000000      6.052153000000000     10.314003000000000
C       3.850957000000000      5.691890000000000     10.925305000000000
C       2.702121000000000      5.537540000000000     10.149259000000001
C       2.736226000000000      5.702529000000000      8.767477000000000
C       3.931715000000000      6.066336000000000      8.132816999999999
O       6.217006000000000      6.702418000000000      8.342458000000001
H       4.789533000000000      3.511253000000000      5.945818000000000
P       7.956851000000000      5.954025000000000      6.194220000000000
P       4.203964000000000      6.105438000000000      6.307623000000000
Rh      6.015695000000000      4.514933000000000      5.910860000000000
H       4.367318000000000     11.630348000000000      4.804863000000000
H       7.941670000000000     11.574090999999999      5.162843000000000
H      -0.977627000000000      4.940025000000000      4.178858000000000
H      12.835863000000000      4.691107000000000      3.490039000000000
C       6.920363000000000      2.930096000000000      5.791559000000000
O       7.415546000000000      1.890805000000000      5.737450000000000
N       6.276245000000000      6.197016000000000     10.984757000000000
H       6.284498000000000      5.850036000000000     11.936401999999999
