78

H       4.578695000000000     -1.153903000000000      3.433052000000000
H       3.830223000000000     -1.194135000000000      1.076026000000000
H       1.456472000000000     -4.439250000000000      1.320384000000000
H       2.374707000000000     -6.677995000000000      0.823557000000000
H       3.788712000000000     -5.257389000000000     -2.976211000000000
H       2.866474000000000     -3.018140000000000     -2.480894000000000
H       2.824897000000000      2.630096000000000     -2.873435000000000
H       3.868968000000000      4.742382000000000     -3.646263000000000
H       3.088087000000000      6.524849000000000      0.183318000000000
H       2.070204000000000      4.414415000000000      0.958564000000000
H       1.251680000000000      1.412455000000000      4.622183000000000
H       0.313990000000000      1.407679000000000      2.345736000000000
C       3.549897000000000     -1.408775000000000      3.198548000000000
C       3.128888000000000     -1.429802000000000      1.874254000000000
C       2.071833000000000     -3.582907000000000     -0.563378000000000
C       1.953538000000000     -4.621736000000000      0.370676000000000
C       2.474093000000000     -5.880399000000000      0.093883000000000
C       3.131109000000000     -6.114238000000000     -1.114493000000000
C       3.268771000000000     -5.085141000000000     -2.039272000000000
C       2.743390000000000     -3.822884000000000     -1.763749000000000
C       2.358109000000000      3.385034000000000     -0.918817000000000
C       2.878004000000000      3.487469000000000     -2.210273000000000
C       3.465218000000000      4.677636000000000     -2.640841000000000
C       3.537404000000000      5.771799000000000     -1.786471000000000
C       3.028183000000000      5.676228000000000     -0.490934000000000
C       2.449852000000000      4.489363000000000     -0.057525000000000
C       2.208797000000000      1.780852000000000      1.382013000000000
C       3.266859000000000      1.800452000000000      3.973834000000000
C       1.907962000000000      1.578807000000000      3.773464000000000
C       1.378663000000000      1.569425000000000      2.484340000000000
H      -0.128520000000000     -2.277024000000000      2.358368000000000
H       0.615223000000000     -2.205911000000000      4.710484000000000
H       4.238409000000000      2.134268000000000      0.738356000000000
H       5.168280000000000      2.155726000000000      3.023350000000000
C       1.805770000000000     -1.755578000000000      1.556276000000000
C       0.903005000000000     -2.023730000000000      2.587736000000000
C       1.324106000000000     -1.990885000000000      3.916527000000000
C       2.648172000000000     -1.694592000000000      4.222659000000000
C       3.581152000000000      1.970421000000000      1.589271000000000
C       4.105337000000000      1.989014000000000      2.876999000000000
H      -0.462129000000000     -4.333315000000000     -0.553299000000000
Br     -5.078375000000000     -2.715216000000000      0.031759000000000
H      -2.930245000000000     -4.487330000000000     -0.424393000000000
Br     -4.761816000000000      3.262872000000000      0.160596000000000
H      -0.022623000000000      4.397826000000000     -0.524158000000000
H      -2.447117000000000      4.810919000000000     -0.299921000000000
C      -1.049426000000000     -3.442069000000000     -0.359111000000000
C      -0.424774000000000     -2.218113000000000     -0.157679000000000
C      -1.243736000000000     -1.103264000000000      0.066306000000000
C      -2.637304000000000     -1.114305000000000      0.057631000000000
C      -3.205904000000000     -2.392797000000000     -0.090757000000000
C      -2.436437000000000     -3.530882000000000     -0.303082000000000
C      -1.116245000000000      1.258519000000000      0.083764000000000
C      -2.502725000000000      1.416195000000000      0.097746000000000
C      -2.936878000000000      2.749105000000000     -0.007342000000000
C      -2.055724000000000      3.804835000000000     -0.211260000000000
C      -0.690106000000000      3.569799000000000     -0.313844000000000
C      -0.189142000000000      2.283369000000000     -0.150418000000000
C      -3.432595000000000      0.193901000000000      0.224328000000000
O      -0.554271000000000      0.042476000000000      0.340384000000000
P       1.390780000000000     -1.906520000000000     -0.230175000000000
P       1.587786000000000      1.812335000000000     -0.353442000000000
C      -4.040087000000000      0.199168000000000      1.645990000000000
H      -4.705586000000000     -0.654939000000000      1.785814000000000
H      -3.238136000000000      0.140503000000000      2.388997000000000
H      -4.609492000000000      1.113599000000000      1.821883000000000
C      -4.501426000000000      0.270979000000000     -0.913381000000000
H      -4.350214000000000      1.153802000000000     -1.534336000000000
H      -4.431576000000000     -0.593085000000000     -1.574094000000000
H      -5.515709000000000      0.309124000000000     -0.510179000000000
H       3.673512000000000      1.816213000000000      4.980546000000000
H       2.976653000000000     -1.673469000000000      5.257429000000000
H       3.994752000000000      6.697158000000000     -2.122837000000000
H       3.541195000000000     -7.096517000000000     -1.327777000000000
Rh      1.640383000000000     -0.103937000000000     -1.845862000000000
H       1.534902000000000      1.049338000000000     -2.921364000000000
C       1.534388000000000     -1.086731000000000     -3.391857000000000
O       1.461307000000000     -1.625881000000000     -4.405864000000000
