78

H      -0.773088000000000     -4.939827000000000      2.734421000000000
H      -0.906536000000000     -3.766770000000000      0.560984000000000
H      -2.731197000000000     -2.510542000000000     -2.689519000000000
H      -4.908593000000000     -3.454752000000000     -3.399172000000000
H      -6.615954000000000     -2.353625000000000      0.386394000000000
H      -4.439712000000000     -1.421772000000000      1.098803000000000
H       4.569844000000000     -1.447189000000000      0.789363000000000
H       6.753356000000000     -2.129817000000000     -0.142293000000000
H       4.938270000000000     -2.675926000000000     -3.997560000000000
H       2.751825000000000     -1.958532000000000     -3.067095000000000
H       2.539947000000000     -5.252346000000000      2.209031000000000
H       2.418642000000000     -3.887107000000000      0.158929000000000
C      -1.125493000000000     -3.913872000000000      2.696664000000000
C      -1.201156000000000     -3.254661000000000      1.475133000000000
C      -3.447462000000000     -1.878387000000000     -0.763137000000000
C      -3.586575000000000     -2.464850000000000     -2.022282000000000
C      -4.811739000000000     -3.001427000000000     -2.417896000000000
C      -5.902213000000000     -2.955463000000000     -1.556669000000000
C      -5.768490000000000     -2.382201000000000     -0.291265000000000
C      -4.546571000000000     -1.853620000000000      0.106274000000000
C       3.518379000000000     -1.640695000000000     -1.087340000000000
C       4.652897000000000     -1.703765000000000     -0.264205000000000
C       5.880095000000000     -2.093158000000000     -0.785884000000000
C       5.985726000000000     -2.441956000000000     -2.133123000000000
C       4.862673000000000     -2.397991000000000     -2.951096000000000
C       3.631110000000000     -1.996732000000000     -2.431927000000000
C       1.948900000000000     -2.054463000000000      1.198050000000000
C       2.083872000000000     -3.607369000000000      3.525053000000000
C       2.304595000000000     -4.194783000000000      2.280849000000000
C       2.230475000000000     -3.425110000000000      1.125514000000000
H      -2.338519000000000     -0.239140000000000      2.560265000000000
H      -2.173040000000000     -1.403200000000000      4.729479000000000
H       1.485084000000000     -0.419025000000000      2.529915000000000
H       1.591019000000000     -1.790511000000000      4.567278000000000
C      -1.650446000000000     -1.931476000000000      1.410575000000000
C      -1.991985000000000     -1.268814000000000      2.591799000000000
C      -1.902914000000000     -1.926777000000000      3.817311000000000
C      -1.478828000000000     -3.250735000000000      3.870531000000000
C       1.711998000000000     -1.476736000000000      2.446775000000000
C       1.778682000000000     -2.252428000000000      3.602816000000000
H      -4.238415000000000      0.676827000000000     -0.613093000000000
H      -2.570389000000000      4.396944000000000      0.707381000000000
Br     -5.118004000000000      3.475917000000000     -0.396479000000000
H       2.471805000000000      4.463138000000000      0.758952000000000
H       4.233492000000000      0.819644000000000     -0.636770000000000
Br      5.051218000000000      3.624398000000000     -0.339522000000000
C      -3.401537000000000      1.218991000000000     -0.186892000000000
C      -2.210178000000000      0.562253000000000      0.121176000000000
C      -1.169246000000000      1.324075000000000      0.651637000000000
C      -1.251629000000000      2.693272000000000      0.887302000000000
C      -2.447276000000000      3.330579000000000      0.559595000000000
C      -3.500788000000000      2.589665000000000      0.033481000000000
C       1.154056000000000      1.352445000000000      0.654158000000000
C       1.199545000000000      2.722645000000000      0.905255000000000
C       2.378645000000000      3.396032000000000      0.595720000000000
C       3.453941000000000      2.691171000000000      0.064611000000000
C       3.386273000000000      1.325983000000000     -0.189082000000000
C       2.212214000000000      0.628861000000000      0.103385000000000
C      -0.038964000000000      3.362433000000000      1.530180000000000
O       0.000560000000000      0.658331000000000      0.938167000000000
P      -1.817428000000000     -1.195119000000000     -0.266077000000000
P       1.897701000000000     -1.123042000000000     -0.393049000000000
C      -0.049643000000000      3.023607000000000      3.038320000000000
H      -0.944781000000000      3.442459000000000      3.509361000000000
H      -0.050601000000000      1.940472000000000      3.197049000000000
H       0.836016000000000      3.445501000000000      3.524109000000000
C      -0.055626000000000      4.879514000000000      1.353185000000000
H       0.810091000000000      5.331419000000000      1.845364000000000
H      -0.045873000000000      5.161558000000000      0.295772000000000
H      -0.945377000000000      5.308214000000000      1.822722000000000
H       2.142360000000000     -4.205713000000000      4.429240000000000
H      -1.411978000000000     -3.763464000000000      4.825369000000000
H       6.943759000000000     -2.751264000000000     -2.539384000000000
H      -6.856620000000000     -3.370717000000000     -1.865032000000000
Rh     -0.014163000000000     -1.034691000000000     -1.863716000000000
H       1.126386000000000     -0.680121000000000     -2.903409000000000
C      -1.029194000000000     -0.673988000000000     -3.357397000000000
O      -1.591459000000000     -0.421173000000000     -4.327621000000000
