78

H       3.862985000000000     -1.130498000000000     -1.447092000000000
H       1.476761000000000     -0.993572000000000     -2.113416000000000
H      -0.090674000000000     -4.465580000000000     -0.279441000000000
H      -0.070976000000000     -6.530163000000000     -1.640087000000000
H      -1.816647000000000     -4.383442000000000     -4.926802000000000
H      -1.843659000000000     -2.316920000000000     -3.559864000000000
H      -2.500498000000000      3.177393000000000     -2.784192000000000
H      -2.587126000000000      5.470545000000000     -3.730548000000000
H       0.282758000000000      6.777938000000000     -0.813402000000000
H       0.382353000000000      4.490766000000000      0.114063000000000
H       3.622178000000000      2.240554000000000     -2.248815000000000
H       1.155355000000000      2.352857000000000     -2.404663000000000
C       3.080181000000000     -1.423702000000000     -0.755593000000000
C       1.739480000000000     -1.348613000000000     -1.118941000000000
C      -0.997048000000000     -3.259528000000000     -1.822823000000000
C      -0.483159000000000     -4.451366000000000     -1.293798000000000
C      -0.467724000000000     -5.610756000000000     -2.059120000000000
C      -0.952650000000000     -5.589320000000000     -3.367783000000000
C      -1.447380000000000     -4.407054000000000     -3.906540000000000
C      -1.468927000000000     -3.244104000000000     -3.136444000000000
C      -1.068960000000000      3.685121000000000     -1.267776000000000
C      -1.896893000000000      3.970297000000000     -2.354174000000000
C      -1.942690000000000      5.261119000000000     -2.882619000000000
C      -1.164932000000000      6.271622000000000     -2.329309000000000
C      -0.330508000000000      5.993474000000000     -1.245595000000000
C      -0.277703000000000      4.707460000000000     -0.722704000000000
C       0.825770000000000      1.852705000000000     -0.330306000000000
C       3.601398000000000      1.719036000000000     -0.162165000000000
C       3.007046000000000      2.036094000000000     -1.379664000000000
C       1.622224000000000      2.093222000000000     -1.457098000000000
H       0.324250000000000     -2.446970000000000      1.767836000000000
H       2.699814000000000     -2.559440000000000      2.426967000000000
H       0.849617000000000      1.312846000000000      1.760076000000000
H       3.317085000000000      1.178812000000000      1.896952000000000
C       0.728923000000000     -1.724346000000000     -0.227323000000000
C       1.086880000000000     -2.149468000000000      1.054025000000000
C       2.423888000000000     -2.220790000000000      1.434558000000000
C       3.409254000000000     -1.868624000000000      0.521460000000000
C       1.444136000000000      1.515667000000000      0.874475000000000
C       2.834069000000000      1.444963000000000      0.962932000000000
H      -2.732939000000000     -4.080631000000000      0.075625000000000
H      -4.053059000000000     -2.664469000000000      3.904516000000000
H      -4.070064000000000     -4.376501000000000      2.135053000000000
H      -3.618935000000000      2.311003000000000      4.503236000000000
H      -2.208555000000000      4.300821000000000      0.980695000000000
H      -3.391701000000000      4.352878000000000      3.143820000000000
C      -2.711153000000000     -3.320408000000000      0.850065000000000
C      -1.943491000000000     -2.168683000000000      0.670008000000000
C      -1.970238000000000     -1.215029000000000      1.687423000000000
C      -2.693115000000000     -1.354712000000000      2.868597000000000
C      -3.457661000000000     -2.513146000000000      3.010193000000000
C      -3.467101000000000     -3.483289000000000      2.009897000000000
C      -1.802007000000000      1.089877000000000      1.938305000000000
C      -2.490381000000000      1.074957000000000      3.150166000000000
C      -3.064251000000000      2.273139000000000      3.571557000000000
C      -2.939398000000000      3.427902000000000      2.802036000000000
C      -2.260625000000000      3.402898000000000      1.586858000000000
C      -1.680305000000000      2.217720000000000      1.125736000000000
C      -2.532675000000000     -0.249346000000000      3.910237000000000
O      -1.224128000000000     -0.074040000000000      1.482240000000000
P      -1.009849000000000     -1.705110000000000     -0.844496000000000
P      -0.995461000000000      1.986094000000000     -0.569186000000000
C      -1.171218000000000     -0.449744000000000      4.614493000000000
H      -0.350351000000000     -0.441241000000000      3.890105000000000
H      -1.000750000000000      0.352311000000000      5.339977000000000
H      -1.158167000000000     -1.410284000000000      5.139982000000000
C      -3.646734000000000     -0.277312000000000      4.954926000000000
H      -4.630678000000000     -0.135363000000000      4.497010000000000
H      -3.643268000000000     -1.231153000000000      5.490023000000000
H      -3.490929000000000      0.506266000000000      5.701828000000000
Br      5.487989000000000      1.645782000000000     -0.056260000000000
Br      5.224271000000000     -1.998264000000000      1.037043000000000
H      -1.201364000000000      7.275208000000000     -2.741743000000000
H      -0.936338000000000     -6.494809000000000     -3.966364000000000
Rh     -2.223583000000000      0.224694000000000     -1.651680000000000
H      -3.202716000000000      1.423519000000000     -1.979394000000000
C      -3.578294000000000     -0.683698000000000     -2.511727000000000
O      -4.468137000000000     -1.175617000000000     -3.048136000000000
