82

H      -0.738553000000000     -4.347576000000000      3.001187000000000
H      -0.882571000000000     -3.330624000000000      0.750742000000000
H      -4.438099000000000     -0.976346000000000      1.116815000000000
H      -6.600839000000000     -1.990536000000000      0.478487000000000
H      -4.870668000000000     -3.367679000000000     -3.205013000000000
H      -2.706838000000000     -2.343007000000000     -2.569111000000000
H       2.768734000000000     -1.763129000000000     -2.981961000000000
H       4.961087000000000     -2.541750000000000     -3.847480000000000
H       6.760593000000000     -1.692483000000000     -0.040096000000000
H       4.571386000000000     -0.947711000000000      0.828516000000000
H       2.561168000000000     -4.674091000000000      2.498465000000000
H       2.425888000000000     -3.453935000000000      0.359328000000000
C      -1.099647000000000     -3.329781000000000      2.891793000000000
C      -1.181327000000000     -2.758494000000000      1.627185000000000
C      -3.435683000000000     -1.568172000000000     -0.700534000000000
C      -4.537258000000000     -1.487997000000000      0.162140000000000
C      -5.751476000000000     -2.062142000000000     -0.193637000000000
C      -5.875017000000000     -2.736090000000000     -1.409578000000000
C      -4.781981000000000     -2.836487000000000     -2.262738000000000
C      -3.564522000000000     -2.254785000000000     -1.909139000000000
C       3.527089000000000     -1.290216000000000     -1.030496000000000
C       3.646077000000000     -1.748482000000000     -2.343091000000000
C       4.880970000000000     -2.183834000000000     -2.825913000000000
C       6.001292000000000     -2.160466000000000     -2.003404000000000
C       5.889592000000000     -1.708620000000000     -0.687661000000000
C       4.659157000000000     -1.284761000000000     -0.201726000000000
C       1.955790000000000     -1.555218000000000      1.271582000000000
C       2.105630000000000     -2.943425000000000      3.699723000000000
C       2.322922000000000     -3.614695000000000      2.498027000000000
C       2.241009000000000     -2.926914000000000      1.292743000000000
H      -2.343049000000000      0.316217000000000      2.498296000000000
H      -2.166242000000000     -0.691035000000000      4.744212000000000
H       1.496181000000000      0.167607000000000      2.489122000000000
H       1.612026000000000     -1.060158000000000      4.616225000000000
C      -1.641292000000000     -1.446833000000000      1.470047000000000
C      -1.987922000000000     -0.705795000000000      2.602124000000000
C      -1.892627000000000     -1.275298000000000      3.870739000000000
C      -1.457591000000000     -2.588712000000000      4.016537000000000
C       1.723011000000000     -0.893408000000000      2.478411000000000
C       1.796690000000000     -1.587191000000000      3.685135000000000
H      -4.249533000000000      0.990493000000000     -0.734147000000000
H      -2.619305000000000      4.804812000000000      0.343498000000000
C      -4.784705000000000      3.596731000000000     -0.592314000000000
H       2.422833000000000      4.918471000000000      0.404397000000000
H       4.218505000000000      1.207044000000000     -0.746755000000000
C       4.649523000000000      3.820658000000000     -0.526638000000000
C      -3.419505000000000      1.569407000000000     -0.342660000000000
C      -2.226356000000000      0.943927000000000      0.008354000000000
C      -1.192433000000000      1.750992000000000      0.485871000000000
C      -1.287523000000000      3.132588000000000      0.632790000000000
C      -2.488025000000000      3.731358000000000      0.263906000000000
C      -3.553993000000000      2.960443000000000     -0.220514000000000
C       1.132480000000000      1.799942000000000      0.491649000000000
C       1.165717000000000      3.184572000000000      0.654826000000000
C       2.340796000000000      3.841543000000000      0.308253000000000
C       3.443679000000000      3.126259000000000     -0.177935000000000
C       3.366026000000000      1.736075000000000     -0.335448000000000
C       2.199930000000000      1.048391000000000     -0.004137000000000
C      -0.081303000000000      3.850208000000000      1.233779000000000
O      -0.016720000000000      1.115692000000000      0.811747000000000
P      -1.813979000000000     -0.830654000000000     -0.254504000000000
P       1.900071000000000     -0.734672000000000     -0.379867000000000
C      -0.093685000000000      3.608885000000000      2.760551000000000
H      -0.085546000000000      2.538101000000000      2.988661000000000
H       0.786809000000000      4.068648000000000      3.220900000000000
H      -0.994092000000000      4.048551000000000      3.201825000000000
C      -0.110504000000000      5.352910000000000      0.961167000000000
H       0.750145000000000      5.842417000000000      1.425502000000000
H      -0.099752000000000      5.567007000000000     -0.112069000000000
H      -1.005848000000000      5.802326000000000      1.399696000000000
H       2.169799000000000     -3.477771000000000      4.642823000000000
H      -1.385854000000000     -3.032317000000000      5.005063000000000
H       6.961745000000000     -2.497318000000000     -2.381218000000000
H      -6.823332000000000     -3.187023000000000     -1.685044000000000
Rh     -0.009138000000000     -0.777232000000000     -1.858323000000000
H       1.131500000000000     -0.494192000000000     -2.920246000000000
C      -1.024216000000000     -0.544759000000000     -3.375994000000000
O      -1.586906000000000     -0.375009000000000     -4.364248000000000
C      -5.819976000000000      4.132480000000000     -0.902123000000000
H      -6.734845000000000      4.603935000000000     -1.182642000000000
C       5.663702000000000      4.405596000000000     -0.816487000000000
H       6.560301000000000      4.920581000000000     -1.078847000000000
