82

H       0.555492000000000      4.676672000000000     -0.742585000000000
H       0.787757000000000      2.410345000000000     -1.719737000000000
H       4.397917000000000      1.082250000000000      0.074894000000000
H       6.492967000000000      1.543452000000000     -1.155432000000000
H       4.723228000000000     -0.001530000000000     -4.752472000000000
H       2.627315000000000     -0.470798000000000     -3.516955000000000
H      -4.560453000000000      0.362698000000000      0.080241000000000
H      -6.779451000000000      0.137863000000000     -0.981748000000000
H      -4.995233000000000     -1.990459000000000     -4.259278000000000
H      -2.769939000000000     -1.783020000000000     -3.178976000000000
H      -2.717339000000000      4.217221000000000     -1.583350000000000
H      -2.493366000000000      1.822393000000000     -2.151700000000000
C       0.943703000000000      3.858628000000000     -0.144277000000000
C       1.074794000000000      2.587203000000000     -0.685116000000000
C       3.382513000000000      0.246424000000000     -1.636252000000000
C       4.474901000000000      0.830489000000000     -0.980499000000000
C       5.650712000000000      1.094015000000000     -1.672147000000000
C       5.743877000000000      0.790131000000000     -3.031208000000000
C       4.658742000000000      0.227538000000000     -3.693571000000000
C       3.480065000000000     -0.042994000000000     -2.998259000000000
C      -3.519053000000000     -0.713764000000000     -1.475582000000000
C      -4.657145000000000     -0.164502000000000     -0.866089000000000
C      -5.904900000000000     -0.287013000000000     -1.464417000000000
C      -6.029651000000000     -0.947619000000000     -2.687563000000000
C      -4.904710000000000     -1.482979000000000     -3.304052000000000
C      -3.651540000000000     -1.368197000000000     -2.700749000000000
C      -1.993006000000000      1.213771000000000     -0.141673000000000
C      -2.241838000000000      3.936380000000000      0.497416000000000
C      -2.449662000000000      3.496474000000000     -0.817564000000000
C      -2.318248000000000      2.152717000000000     -1.130299000000000
H       2.287865000000000      0.957453000000000      2.040450000000000
H       2.029268000000000      3.212227000000000      3.009985000000000
H      -1.504912000000000      0.949542000000000      1.944704000000000
H      -1.708051000000000      3.348717000000000      2.494479000000000
C       1.569565000000000      1.528675000000000      0.085768000000000
C       1.903850000000000      1.763773000000000      1.422135000000000
C       1.764875000000000      3.032020000000000      1.973010000000000
C       1.292550000000000      4.093953000000000      1.193394000000000
C      -1.767756000000000      1.655863000000000      1.163607000000000
C      -1.888640000000000      3.005274000000000      1.480948000000000
H       4.354711000000000     -1.613849000000000      0.056931000000000
H       2.973343000000000     -3.654601000000000      3.568765000000000
H       4.743680000000000     -3.191345000000000      1.921454000000000
H      -2.033206000000000     -3.957149000000000      3.912016000000000
H      -4.054060000000000     -2.280284000000000      0.526409000000000
H      -4.030374000000000     -3.785470000000000      2.479968000000000
C       3.567770000000000     -1.802561000000000      0.780301000000000
C       2.331989000000000     -1.168515000000000      0.641840000000000
C       1.350262000000000     -1.464363000000000      1.587449000000000
C       1.537126000000000     -2.332295000000000      2.659428000000000
C       2.780603000000000     -2.956706000000000      2.760676000000000
C       3.783559000000000     -2.694507000000000      1.829613000000000
C      -0.965212000000000     -1.627459000000000      1.719781000000000
C      -0.907141000000000     -2.485939000000000      2.816505000000000
C      -2.032965000000000     -3.265517000000000      3.076088000000000
C      -3.162081000000000     -3.171375000000000      2.265469000000000
C      -3.181192000000000     -2.313038000000000      1.169460000000000
C      -2.067951000000000     -1.522157000000000      0.871152000000000
C       0.377394000000000     -2.472773000000000      3.642944000000000
O       0.129442000000000     -0.846168000000000      1.422985000000000
P       1.807382000000000     -0.094333000000000     -0.754719000000000
P      -1.870674000000000     -0.544105000000000     -0.678657000000000
C       0.361251000000000     -1.218325000000000      4.546159000000000
H       0.274625000000000     -0.305753000000000      3.947613000000000
H      -0.487727000000000     -1.261894000000000      5.236151000000000
H       1.287198000000000     -1.162751000000000      5.127996000000000
C       0.511772000000000     -3.718318000000000      4.516925000000000
H       1.432406000000000     -3.673116000000000      5.105625000000000
H      -0.317016000000000     -3.778176000000000      5.228032000000000
H       0.524757000000000     -4.632303000000000      3.914864000000000
C      -2.374878000000000      5.327664000000000      0.817566000000000
C       1.157588000000000      5.401179000000000      1.767581000000000
H      -7.003785000000000     -1.037686000000000     -3.158326000000000
H       6.661741000000000      1.000193000000000     -3.571516000000000
Rh      0.070445000000000     -1.388336000000000     -1.828638000000000
H      -0.994664000000000     -2.431716000000000     -2.360626000000000
C       1.163693000000000     -2.501496000000000     -2.807734000000000
O       1.778228000000000     -3.249340000000000     -3.428496000000000
C      -2.489912000000000      6.501012000000000      1.072707000000000
H      -2.583734000000000      7.538361000000000      1.302377000000000
C       1.051944000000000      6.496315000000000      2.262107000000000
H       0.951319000000000      7.465743000000000      2.695352000000000
