84

H       5.087056000000000     -3.000694000000000     -3.531146000000000
H       2.869959000000000     -2.168452000000000     -2.824542000000000
H       2.342775000000000     -0.253219000000000      2.536767000000000
H       2.143635000000000     -1.412777000000000      4.705405000000000
H       0.674164000000000     -4.918396000000000      2.705524000000000
H       0.839631000000000     -3.748283000000000      0.532292000000000
H      -2.501277000000000     -3.834332000000000      0.217541000000000
H      -2.648159000000000     -5.163524000000000      2.288843000000000
H      -1.609178000000000     -1.688830000000000      4.589494000000000
H      -1.475522000000000     -0.353159000000000      2.530806000000000
H      -6.788857000000000     -2.014069000000000     -0.129397000000000
H      -4.602379000000000     -1.328697000000000      0.793535000000000
C       4.924958000000000     -2.713263000000000     -2.497293000000000
C       3.675188000000000     -2.238298000000000     -2.100981000000000
C       1.619678000000000     -1.929387000000000      1.384411000000000
C       1.971254000000000     -1.274202000000000      2.567277000000000
C       1.864915000000000     -1.930164000000000      3.792333000000000
C       1.412607000000000     -3.244980000000000      3.843705000000000
C       1.048589000000000     -3.900278000000000      2.668847000000000
C       1.142122000000000     -3.242692000000000      1.447467000000000
C      -1.982791000000000     -1.997342000000000      1.225611000000000
C      -2.297905000000000     -3.361730000000000      1.175784000000000
C      -2.386703000000000     -4.111079000000000      2.343402000000000
C      -2.148084000000000     -3.509849000000000      3.577596000000000
C      -1.809998000000000     -2.161584000000000      3.632956000000000
C      -1.727583000000000     -1.406389000000000      2.464449000000000
C      -3.541344000000000     -1.601576000000000     -1.067950000000000
C      -6.011242000000000     -2.410174000000000     -2.101344000000000
C      -5.910659000000000     -2.012669000000000     -0.767239000000000
C      -4.682006000000000     -1.620670000000000     -0.251161000000000
H       4.322035000000000     -1.712347000000000      1.194418000000000
H       6.536576000000000     -2.546818000000000      0.487452000000000
H      -2.764915000000000     -2.003707000000000     -3.028750000000000
H      -4.953723000000000     -2.728861000000000     -3.947403000000000
C       3.450101000000000     -1.863801000000000     -0.774763000000000
C       4.490562000000000     -1.986648000000000      0.156138000000000
C       5.736359000000000     -2.458343000000000     -0.240586000000000
C       5.955441000000000     -2.820539000000000     -1.569893000000000
C      -3.648874000000000     -2.007235000000000     -2.398838000000000
C      -4.881856000000000     -2.412286000000000     -2.911737000000000
H       4.247780000000000      0.636017000000000     -0.603439000000000
H       2.625180000000000      4.389227000000000      0.682468000000000
C       4.866717000000000      3.219437000000000     -0.251429000000000
H      -2.424287000000000      4.517497000000000      0.703584000000000
H      -4.231767000000000      0.878871000000000     -0.643559000000000
C      -4.678271000000000      3.533020000000000     -0.282032000000000
C       3.416529000000000      1.196384000000000     -0.185695000000000
C       2.214101000000000      0.557659000000000      0.103912000000000
C       1.181192000000000      1.341027000000000      0.623563000000000
C       1.280236000000000      2.709731000000000      0.856407000000000
C       2.491046000000000      3.322943000000000      0.539927000000000
C       3.543312000000000      2.568611000000000      0.029415000000000
C      -1.145354000000000      1.394488000000000      0.625179000000000
C      -1.172249000000000      2.769853000000000      0.866220000000000
C      -2.344483000000000      3.445763000000000      0.551731000000000
C      -3.434927000000000      2.751472000000000      0.028339000000000
C      -3.378335000000000      1.382698000000000     -0.204325000000000
C      -2.213006000000000      0.672019000000000      0.092509000000000
C       0.072991000000000      3.398595000000000      1.486585000000000
O       0.002369000000000      0.691279000000000      0.902560000000000
P       1.808221000000000     -1.195464000000000     -0.289778000000000
P      -1.916919000000000     -1.089582000000000     -0.379373000000000
C       0.108508000000000      4.913564000000000      1.293213000000000
H       0.105881000000000      5.184141000000000      0.232764000000000
H      -0.753378000000000      5.381295000000000      1.777252000000000
H       1.001490000000000      5.337138000000000      1.761090000000000
C       0.074570000000000      3.076057000000000      2.998499000000000
H      -0.808510000000000      3.511765000000000      3.476661000000000
H       0.064376000000000      1.994691000000000      3.169471000000000
H       0.972142000000000      3.490779000000000      3.468466000000000
H      -6.970470000000000     -2.721556000000000     -2.503089000000000
H       6.928548000000000     -3.189951000000000     -1.878043000000000
H      -2.219261000000000     -4.092006000000000      4.491360000000000
H       1.331703000000000     -3.756258000000000      4.798215000000000
Rh     -0.019441000000000     -1.013250000000000     -1.869587000000000
H      -1.182737000000000     -0.642710000000000     -2.876105000000000
C       0.944914000000000     -0.654651000000000     -3.395389000000000
O       1.468044000000000     -0.404263000000000     -4.393668000000000
F       4.754434000000000      4.549426000000000     -0.379891000000000
F       5.421460000000000      2.745892000000000     -1.374959000000000
F       5.745275000000000      2.993118000000000      0.739323000000000
F      -4.421495000000000      4.547166000000000     -1.122380000000000
F      -5.198567000000000      4.081865000000000      0.828861000000000
F      -5.629749000000000      2.774984000000000     -0.838656000000000
