84

H       6.678179000000000     -1.587146000000000      0.792264000000000
H       4.390035000000000     -0.838373000000000      1.343750000000000
H       1.132795000000000      0.452259000000000      2.462606000000000
H       1.033522000000000     -0.570163000000000      4.702041000000000
H       2.274344000000000     -4.336650000000000      3.052698000000000
H       2.352734000000000     -3.323766000000000      0.803830000000000
H      -1.000588000000000     -3.301546000000000      0.933575000000000
H      -1.094586000000000     -4.104922000000000      3.270631000000000
H      -2.638176000000000     -0.296197000000000      4.518435000000000
H      -2.570964000000000      0.500272000000000      2.181393000000000
H      -6.492272000000000     -2.515265000000000      0.205837000000000
H      -4.434025000000000     -1.354647000000000      0.922602000000000
C       5.900557000000000     -1.627538000000000      0.035788000000000
C       4.614250000000000     -1.202261000000000      0.343913000000000
C       1.757838000000000     -1.362035000000000      1.477182000000000
C       1.380140000000000     -0.598070000000000      2.582640000000000
C       1.331623000000000     -1.174591000000000      3.850739000000000
C       1.662777000000000     -2.514226000000000      4.027601000000000
C       2.020754000000000     -3.288420000000000      2.925613000000000
C       2.058845000000000     -2.718134000000000      1.658311000000000
C      -1.796143000000000     -1.353331000000000      1.397053000000000
C      -1.372757000000000     -2.647142000000000      1.719619000000000
C      -1.427420000000000     -3.099400000000000      3.032607000000000
C      -1.889465000000000     -2.256949000000000      4.042710000000000
C      -2.285253000000000     -0.959656000000000      3.734460000000000
C      -2.240638000000000     -0.508004000000000      2.416029000000000
C      -3.360331000000000     -1.770201000000000     -0.903993000000000
C      -5.685794000000000     -3.106229000000000     -1.703741000000000
C      -5.633262000000000     -2.482695000000000     -0.457215000000000
C      -4.475762000000000     -1.825328000000000     -0.056556000000000
H       3.114242000000000     -1.803843000000000     -2.641919000000000
H       5.398851000000000     -2.558640000000000     -3.192085000000000
H      -2.550201000000000     -2.375155000000000     -2.798157000000000
H      -4.609945000000000     -3.561250000000000     -3.510953000000000
C       3.597884000000000     -1.243132000000000     -0.622863000000000
C       3.894599000000000     -1.741023000000000     -1.892079000000000
C       5.185457000000000     -2.172265000000000     -2.200530000000000
C       6.188667000000000     -2.112925000000000     -1.240608000000000
C      -3.418264000000000     -2.404260000000000     -2.146959000000000
C      -4.578084000000000     -3.069382000000000     -2.543803000000000
H       4.270810000000000      1.235425000000000     -0.188702000000000
C       2.483766000000000      5.441376000000000      0.436800000000000
H       4.372349000000000      3.670985000000000      0.107096000000000
C      -3.267633000000000      5.088820000000000     -0.117449000000000
H      -4.401720000000000      0.678606000000000     -0.905037000000000
H      -4.842931000000000      3.098707000000000     -0.724784000000000
C       3.355729000000000      1.792114000000000     -0.020219000000000
C       2.132966000000000      1.131377000000000      0.052738000000000
C       0.994966000000000      1.926257000000000      0.241681000000000
C       0.995869000000000      3.319711000000000      0.294837000000000
C       2.258219000000000      3.951175000000000      0.281439000000000
C       3.407030000000000      3.172347000000000      0.125017000000000
C      -1.353672000000000      1.787398000000000      0.038239000000000
C      -1.533016000000000      3.167692000000000      0.060498000000000
C      -2.841638000000000      3.636742000000000     -0.192655000000000
C      -3.843304000000000      2.721627000000000     -0.526666000000000
C      -3.604342000000000      1.354970000000000     -0.614500000000000
C      -2.340508000000000      0.860917000000000     -0.316424000000000
C      -0.341394000000000      4.078936000000000      0.412696000000000
O      -0.165197000000000      1.222882000000000      0.410800000000000
P       1.887968000000000     -0.678702000000000     -0.230502000000000
P      -1.823951000000000     -0.900233000000000     -0.387619000000000
C      -0.322301000000000      5.286264000000000     -0.573696000000000
H       0.608073000000000      5.317848000000000     -1.139397000000000
H      -1.119355000000000      5.202414000000000     -1.311666000000000
H      -0.437797000000000      6.244658000000000     -0.056701000000000
C      -0.507149000000000      4.498686000000000      1.892537000000000
H      -0.515180000000000      3.605091000000000      2.524889000000000
H       0.315483000000000      5.137133000000000      2.225765000000000
H      -1.447039000000000      5.033132000000000      2.056050000000000
H      -6.587899000000000     -3.624909000000000     -2.013610000000000
H       7.192649000000000     -2.449860000000000     -1.479609000000000
H      -1.928297000000000     -2.609530000000000      5.069070000000000
H       1.631815000000000     -2.956881000000000      5.018740000000000
Rh      0.098528000000000     -0.928701000000000     -1.867633000000000
H      -1.071100000000000     -0.900897000000000     -2.934288000000000
C       1.049460000000000     -0.733589000000000     -3.420829000000000
O       1.560850000000000     -0.597240000000000     -4.443908000000000
H       2.637367000000000      5.923172000000000     -0.535214000000000
H       3.389383000000000      5.607944000000000      1.026519000000000
H       1.663344000000000      5.960781000000000      0.929935000000000
H      -3.277931000000000      5.552457000000000     -1.110119000000000
H      -2.628699000000000      5.700040000000000      0.518799000000000
H      -4.286143000000000      5.145425000000000      0.276123000000000
