84

H       1.029184000000000      2.947647000000000      3.436997000000000
H       1.145044000000000      0.764154000000000      2.315814000000000
H       4.390230000000000      0.896052000000000      0.696862000000000
H       6.679118000000000      1.215044000000000     -0.183666000000000
H       5.342580000000000      0.017517000000000     -4.087046000000000
H       3.056060000000000     -0.308775000000000     -3.202201000000000
H      -2.475307000000000     -0.085426000000000     -3.708193000000000
H      -4.550626000000000      0.372221000000000     -4.994032000000000
H      -6.605964000000000      1.294914000000000     -1.336330000000000
H      -4.531336000000000      0.867875000000000     -0.062191000000000
H      -1.164539000000000      4.756895000000000      0.290826000000000
H      -1.057110000000000      2.768364000000000     -1.164972000000000
C       1.306201000000000      2.902635000000000      2.386091000000000
C       1.365607000000000      1.663118000000000      1.748776000000000
C       3.574547000000000      0.238985000000000     -1.189414000000000
C       4.604331000000000      0.687813000000000     -0.349039000000000
C       5.888920000000000      0.872094000000000     -0.844354000000000
C       6.159510000000000      0.625530000000000     -2.191613000000000
C       5.141418000000000      0.199731000000000     -3.036176000000000
C       3.852039000000000      0.008277000000000     -2.536840000000000
C      -3.370295000000000      0.346311000000000     -1.805373000000000
C      -3.383245000000000      0.217351000000000     -3.195406000000000
C      -4.551602000000000      0.472655000000000     -3.913190000000000
C      -5.711291000000000      0.854617000000000     -3.247532000000000
C      -5.704278000000000      0.991074000000000     -1.859018000000000
C      -4.538810000000000      0.745914000000000     -1.142747000000000
C      -1.854379000000000      1.425210000000000      0.319660000000000
C      -1.955108000000000      3.696385000000000      1.987458000000000
C      -1.495943000000000      3.793799000000000      0.672245000000000
C      -1.435892000000000      2.673484000000000     -0.149032000000000
H       2.272526000000000      2.723517000000000     -1.343477000000000
H       2.168660000000000      4.901995000000000     -0.203667000000000
H      -2.643200000000000      0.363269000000000      2.026041000000000
H      -2.716061000000000      2.347225000000000      3.478128000000000
C       1.721141000000000      1.580811000000000      0.403464000000000
C       1.991986000000000      2.766894000000000     -0.293157000000000
C       1.938492000000000      3.994521000000000      0.349989000000000
C       1.598688000000000      4.082021000000000      1.704175000000000
C      -2.310160000000000      1.321492000000000      1.636460000000000
C      -2.356415000000000      2.444426000000000      2.456274000000000
H       4.185191000000000     -1.727740000000000      0.412736000000000
H       2.194200000000000     -4.373695000000000      3.130319000000000
H       4.233321000000000     -3.652409000000000      1.950008000000000
H      -2.784725000000000     -4.536531000000000      2.453435000000000
H      -4.195924000000000     -1.905599000000000     -0.629478000000000
H      -4.501968000000000     -3.897675000000000      0.808361000000000
C       3.285528000000000     -2.006208000000000      0.950663000000000
C       2.103113000000000     -1.288219000000000      0.747953000000000
C       0.973624000000000     -1.717883000000000      1.446805000000000
C       0.959251000000000     -2.813384000000000      2.309055000000000
C       2.156305000000000     -3.506751000000000      2.479064000000000
C       3.309275000000000     -3.101042000000000      1.810865000000000
C      -1.331299000000000     -1.788363000000000      1.152183000000000
C      -1.472242000000000     -2.894970000000000      1.984439000000000
C      -2.633040000000000     -3.655219000000000      1.838923000000000
C      -3.605499000000000     -3.294694000000000      0.908093000000000
C      -3.437795000000000     -2.170978000000000      0.100720000000000
C      -2.281542000000000     -1.397911000000000      0.209258000000000
C      -0.362201000000000     -3.134023000000000      3.005380000000000
O      -0.193402000000000     -1.017000000000000      1.238016000000000
P       1.865542000000000      0.008137000000000     -0.545094000000000
P      -1.825765000000000      0.019106000000000     -0.866415000000000
C      -0.555080000000000     -2.131110000000000      4.165842000000000
H       0.252871000000000     -2.240682000000000      4.896677000000000
H      -0.551703000000000     -1.100451000000000      3.796683000000000
H      -1.511771000000000     -2.315395000000000      4.665765000000000
C      -0.388776000000000     -4.556189000000000      3.562015000000000
H      -0.252387000000000     -5.299917000000000      2.770630000000000
H       0.399226000000000     -4.689815000000000      4.308682000000000
H      -1.339945000000000     -4.750794000000000      4.065661000000000
C      -1.978274000000000      4.895487000000000      2.898880000000000
C       1.528947000000000      5.425065000000000      2.383229000000000
H      -6.620601000000000      1.051599000000000     -3.807134000000000
H       7.162612000000000      0.774161000000000     -2.579351000000000
Rh      0.125938000000000     -0.783628000000000     -2.033551000000000
H      -1.011020000000000     -1.435987000000000     -2.926799000000000
C       1.131585000000000     -1.896132000000000     -3.094453000000000
O       1.679554000000000     -2.643436000000000     -3.777000000000000
H      -1.114114000000000      4.885716000000000      3.574095000000000
H      -2.878693000000000      4.905394000000000      3.520269000000000
H      -1.944648000000000      5.829647000000000      2.331225000000000
H       1.433891000000000      5.320057000000000      3.467545000000000
H       0.665966000000000      5.999707000000000      2.026077000000000
H       2.423819000000000      6.020289000000000      2.176293000000000
