86

H      -2.174070000000000     -0.357627000000000      4.732151000000000
H      -1.860831000000000      0.605101000000000      2.485598000000000
H      -2.775163000000000     -0.708440000000000     -2.976862000000000
H      -4.975949000000000     -1.000833000000000     -4.069682000000000
H      -6.793269000000000     -1.645811000000000     -0.231918000000000
H      -4.602435000000000     -1.336916000000000      0.863231000000000
H       4.042673000000000     -1.622404000000000      1.677722000000000
H       6.255821000000000     -2.674211000000000      1.363409000000000
H       5.483382000000000     -3.054016000000000     -2.844884000000000
H       3.248835000000000     -2.033753000000000     -2.524852000000000
H       1.682690000000000      0.843538000000000      4.446847000000000
H       2.110828000000000      1.094324000000000      2.030579000000000
C      -2.219898000000000     -1.005636000000000      3.861996000000000
C      -2.040717000000000     -0.460299000000000      2.590420000000000
C      -3.541205000000000     -0.990464000000000     -0.983537000000000
C      -3.660732000000000     -0.901407000000000     -2.374936000000000
C      -4.897784000000000     -1.068170000000000     -2.989221000000000
C      -6.027831000000000     -1.336882000000000     -2.219926000000000
C      -5.916501000000000     -1.432309000000000     -0.835645000000000
C      -4.679950000000000     -1.257021000000000     -0.217580000000000
C       3.502427000000000     -1.748637000000000     -0.407627000000000
C       4.354334000000000     -1.937137000000000      0.685610000000000
C       5.604362000000000     -2.526463000000000      0.507613000000000
C       6.015245000000000     -2.924822000000000     -0.761736000000000
C       5.171253000000000     -2.738135000000000     -1.854420000000000
C       3.918243000000000     -2.158805000000000     -1.678256000000000
C       1.580979000000000     -0.944525000000000      1.556552000000000
C       1.120752000000000     -1.228381000000000      4.300920000000000
C       1.533741000000000     -0.004831000000000      3.785793000000000
C       1.769919000000000      0.138480000000000      2.417786000000000
H      -2.306335000000000     -3.306621000000000      0.753461000000000
H      -2.651394000000000     -4.262927000000000      3.006814000000000
H       0.955918000000000     -3.003382000000000      1.406551000000000
H       0.574405000000000     -3.261765000000000      3.837829000000000
C      -2.092404000000000     -1.279387000000000      1.461890000000000
C      -2.291504000000000     -2.658170000000000      1.627443000000000
C      -2.482200000000000     -3.196305000000000      2.894513000000000
C      -2.452814000000000     -2.367669000000000      4.016695000000000
C       1.135913000000000     -2.167222000000000      2.079986000000000
C       0.920825000000000     -2.311283000000000      3.444607000000000
H      -3.934259000000000      1.242536000000000      0.780836000000000
H      -1.967951000000000      5.023289000000000      0.317124000000000
C      -4.245069000000000      3.844899000000000      1.256221000000000
H       3.060751000000000      4.684541000000000     -0.294890000000000
H       4.475408000000000      0.652394000000000      0.032169000000000
C       5.274949000000000      3.267770000000000      0.100338000000000
C      -3.067452000000000      1.819247000000000      0.463827000000000
C      -1.967031000000000      1.151440000000000     -0.082000000000000
C      -0.895953000000000      1.932795000000000     -0.500313000000000
C      -0.855319000000000      3.326906000000000     -0.370884000000000
C      -1.953008000000000      3.943395000000000      0.210889000000000
C      -3.070867000000000      3.204661000000000      0.636883000000000
C       1.402229000000000      1.789549000000000     -0.758748000000000
C       1.583368000000000      3.168007000000000     -0.675519000000000
C       2.865297000000000      3.618512000000000     -0.371550000000000
C       3.930419000000000      2.728716000000000     -0.171617000000000
C       3.678007000000000      1.350667000000000     -0.204940000000000
C       2.403462000000000      0.861009000000000     -0.478502000000000
C       0.363370000000000      4.044925000000000     -0.956201000000000
O       0.166932000000000      1.290146000000000     -1.072222000000000
P      -1.871836000000000     -0.686658000000000     -0.263177000000000
P       1.881512000000000     -0.896100000000000     -0.257631000000000
C       0.529084000000000      5.452674000000000     -0.385531000000000
H      -0.344182000000000      6.066985000000000     -0.621975000000000
H       0.661699000000000      5.433946000000000      0.700926000000000
H       1.393995000000000      5.947643000000000     -0.835963000000000
C       0.175923000000000      4.135668000000000     -2.487550000000000
H      -0.715150000000000      4.727204000000000     -2.721356000000000
H       1.049027000000000      4.613550000000000     -2.943617000000000
H       0.057278000000000      3.141230000000000     -2.927441000000000
H       0.940308000000000     -1.338290000000000      5.366108000000000
H      -2.600894000000000     -2.786844000000000      5.007357000000000
H       6.988647000000000     -3.385640000000000     -0.898519000000000
H      -6.991564000000000     -1.477651000000000     -2.699273000000000
Rh     -0.036272000000000     -1.778794000000000     -1.493901000000000
H       1.071939000000000     -2.537276000000000     -2.316929000000000
C      -1.090278000000000     -2.918804000000000     -2.461257000000000
O      -1.693376000000000     -3.692225000000000     -3.064201000000000
C      -4.305733000000000      5.083298000000000      1.747159000000000
H      -5.130112000000000      3.213551000000000      1.318427000000000
H      -3.452097000000000      5.754919000000000      1.743933000000000
H      -5.221668000000000      5.465640000000000      2.183626000000000
C       6.421533000000000      2.591349000000000      0.020927000000000
H       5.304739000000000      4.321942000000000      0.372919000000000
H       6.461164000000000      1.547633000000000     -0.277751000000000
H       7.368174000000000      3.070964000000000      0.243892000000000
