82

H       0.042701000000000     -4.223308000000000      3.428883000000000
H      -0.203846000000000     -3.505732000000000      1.074602000000000
H      -2.177204000000000     -3.115475000000000     -2.438916000000000
H      -4.084100000000000     -4.610907000000000     -2.937248000000000
H      -5.918775000000000     -3.508451000000000      0.787604000000000
H      -4.011686000000000     -2.019252000000000      1.287954000000000
H       3.160165000000000     -1.608523000000000     -2.864856000000000
H       5.465301000000000     -2.084759000000000     -3.648750000000000
H       7.020783000000000     -0.745215000000000      0.124847000000000
H       4.724510000000000     -0.296133000000000      0.912626000000000
H       3.387600000000000     -3.899821000000000      3.021222000000000
H       3.102751000000000     -3.017575000000000      0.736253000000000
C      -0.480421000000000     -3.300432000000000      3.198656000000000
C      -0.617741000000000     -2.896429000000000      1.875919000000000
C      -2.979356000000000     -2.443064000000000     -0.559867000000000
C      -3.004257000000000     -3.188702000000000     -1.739951000000000
C      -4.076804000000000     -4.036525000000000     -2.016456000000000
C      -5.127996000000000     -4.146976000000000     -1.113287000000000
C      -5.104915000000000     -3.416300000000000      0.075251000000000
C      -4.034369000000000     -2.575181000000000      0.353676000000000
C       3.787907000000000     -0.902455000000000     -0.937281000000000
C       4.008886000000000     -1.415737000000000     -2.216444000000000
C       5.307083000000000     -1.681956000000000     -2.653387000000000
C       6.390636000000000     -1.437054000000000     -1.817854000000000
C       6.178743000000000     -0.931440000000000     -0.534428000000000
C       4.886389000000000     -0.673655000000000     -0.094175000000000
C       2.221240000000000     -1.154681000000000      1.378704000000000
C       2.542511000000000     -2.160151000000000      3.972130000000000
C       2.941492000000000     -2.920758000000000      2.875024000000000
C       2.774571000000000     -2.424788000000000      1.586893000000000
H      -2.311613000000000      0.010051000000000      2.374031000000000
H      -2.037399000000000     -0.695289000000000      4.722818000000000
H       1.358951000000000      0.573043000000000      2.345540000000000
H       1.634813000000000     -0.319667000000000      4.620252000000000
C      -1.288439000000000     -1.708894000000000      1.563696000000000
C      -1.788793000000000     -0.915693000000000      2.598866000000000
C      -1.640209000000000     -1.316717000000000      3.925843000000000
C      -0.996148000000000     -2.512399000000000      4.226522000000000
C       1.803896000000000     -0.407483000000000      2.481810000000000
C       1.964325000000000     -0.910792000000000      3.771375000000000
H      -4.352191000000000     -0.182530000000000     -0.632455000000000
C      -3.856322000000000      4.332580000000000      0.039794000000000
H      -5.141781000000000      2.179139000000000     -0.505736000000000
C       1.903791000000000      5.549973000000000      0.114776000000000
H       4.116672000000000      1.657638000000000     -0.705395000000000
H       3.888914000000000      4.104317000000000     -0.513478000000000
C      -3.656213000000000      0.616990000000000     -0.402158000000000
C      -2.319250000000000      0.329622000000000     -0.145695000000000
C      -1.459575000000000      1.404688000000000      0.122213000000000
C      -1.838355000000000      2.740238000000000      0.110271000000000
C      -3.216996000000000      2.984323000000000     -0.087047000000000
C      -4.096735000000000      1.933939000000000     -0.350706000000000
C       0.840503000000000      1.905834000000000      0.119096000000000
C       0.633674000000000      3.281677000000000      0.126384000000000
C       1.795342000000000      4.073676000000000     -0.061870000000000
C       3.020133000000000      3.471518000000000     -0.354244000000000
C       3.160171000000000      2.091364000000000     -0.437620000000000
C       2.064131000000000      1.278795000000000     -0.179487000000000
C      -0.787059000000000      3.843026000000000      0.335150000000000
O      -0.173111000000000      1.043487000000000      0.426981000000000
P      -1.547284000000000     -1.341711000000000     -0.220287000000000
P       2.073829000000000     -0.563827000000000     -0.361919000000000
C      -0.901314000000000      4.297139000000000      1.811255000000000
H      -0.179534000000000      5.086037000000000      2.024390000000000
H      -1.905342000000000      4.673709000000000      2.027055000000000
H      -0.715280000000000      3.444929000000000      2.473459000000000
C      -1.036056000000000      4.995061000000000     -0.687837000000000
H      -1.852278000000000      4.744640000000000     -1.368161000000000
H      -1.261880000000000      5.937902000000000     -0.186570000000000
H      -0.161483000000000      5.164462000000000     -1.315750000000000
H       2.673276000000000     -2.544438000000000      4.979192000000000
H      -0.884892000000000     -2.826437000000000      5.260008000000000
H       7.400093000000000     -1.644394000000000     -2.159290000000000
H      -5.962945000000000     -4.806700000000000     -1.328005000000000
Rh      0.239111000000000     -1.097367000000000     -1.840703000000000
H       1.320650000000000     -0.690978000000000     -2.922199000000000
C      -0.765032000000000     -1.210213000000000     -3.378044000000000
O      -1.323137000000000     -1.249262000000000     -4.382577000000000
O      -5.014620000000000      4.534216000000000     -0.243232000000000
H      -3.240021000000000      5.151276000000000      0.445125000000000
O       1.091772000000000      6.294189000000000      0.610908000000000
H       2.881307000000000      5.950221000000000     -0.223748000000000
