82

H       3.342201000000000      3.897294000000000     -1.228040000000000
H       2.759914000000000      1.606982000000000     -1.965395000000000
H       4.465596000000000     -0.425424000000000      0.231585000000000
H       6.629646000000000     -0.860473000000000     -0.881093000000000
H       4.554773000000000     -2.109829000000000     -4.429644000000000
H       2.388035000000000     -1.682185000000000     -3.311062000000000
H      -3.001246000000000     -0.676539000000000     -3.436210000000000
H      -5.050714000000000     -0.048773000000000     -4.692687000000000
H      -6.312303000000000      2.404753000000000     -1.399572000000000
H      -4.263909000000000      1.795957000000000     -0.159247000000000
H       0.179814000000000      4.440222000000000     -1.241429000000000
H      -0.547724000000000      2.172740000000000     -2.003344000000000
C       2.914537000000000      3.188963000000000     -0.521940000000000
C       2.579658000000000      1.905086000000000     -0.935346000000000
C       3.278849000000000     -1.062506000000000     -1.455460000000000
C       4.485501000000000     -0.812868000000000     -0.784646000000000
C       5.701867000000000     -1.051355000000000     -1.411211000000000
C       5.729246000000000     -1.525788000000000     -2.724019000000000
C       4.539233000000000     -1.753635000000000     -3.404633000000000
C       3.316677000000000     -1.521324000000000     -2.772689000000000
C      -3.505153000000000      0.505971000000000     -1.716197000000000
C      -3.731294000000000     -0.003865000000000     -2.996169000000000
C      -4.884071000000000      0.349878000000000     -3.697019000000000
C      -5.813793000000000      1.210912000000000     -3.124027000000000
C      -5.591486000000000      1.727802000000000     -1.847239000000000
C      -4.440573000000000      1.382209000000000     -1.149294000000000
C      -1.487207000000000      1.680221000000000     -0.126304000000000
C      -0.652872000000000      4.202448000000000      0.717092000000000
C      -0.376775000000000      3.778045000000000     -0.585690000000000
C      -0.786350000000000      2.522371000000000     -1.000428000000000
H       1.405130000000000      0.684451000000000      2.016709000000000
H       1.999360000000000      2.983672000000000      2.733645000000000
H      -2.304698000000000      1.461011000000000      1.858370000000000
H      -1.553898000000000      3.707424000000000      2.606614000000000
C       2.038989000000000      0.982772000000000     -0.027999000000000
C       1.819355000000000      1.380494000000000      1.296035000000000
C       2.153150000000000      2.664731000000000      1.706791000000000
C       2.707577000000000      3.572115000000000      0.803667000000000
C      -1.766439000000000      2.110465000000000      1.173240000000000
C      -1.349567000000000      3.371428000000000      1.592382000000000
H       3.560152000000000     -2.801779000000000      0.507998000000000
H       1.347853000000000     -4.161422000000000      3.914569000000000
H       3.324381000000000     -4.298326000000000      2.450638000000000
H      -3.556992000000000     -3.083307000000000      3.707528000000000
H      -4.697472000000000     -0.992089000000000      0.139189000000000
H      -5.281384000000000     -2.403498000000000      2.086989000000000
C       2.694904000000000     -2.707408000000000      1.154928000000000
C       1.711289000000000     -1.756601000000000      0.868118000000000
C       0.603158000000000     -1.714124000000000      1.716901000000000
C       0.436220000000000     -2.545321000000000      2.823425000000000
C       1.437751000000000     -3.481937000000000      3.073668000000000
C       2.556019000000000     -3.559984000000000      2.247053000000000
C      -1.671158000000000     -1.227643000000000      1.619813000000000
C      -1.960973000000000     -2.026347000000000      2.722468000000000
C      -3.282151000000000     -2.448867000000000      2.871389000000000
C      -4.258842000000000     -2.066331000000000      1.953948000000000
C      -3.934169000000000     -1.265577000000000      0.860881000000000
C      -2.618753000000000     -0.838567000000000      0.672972000000000
C      -0.810222000000000     -2.326088000000000      3.679515000000000
O      -0.379550000000000     -0.794151000000000      1.417571000000000
P       1.659252000000000     -0.717212000000000     -0.656715000000000
P      -1.982761000000000      0.043307000000000     -0.804022000000000
C      -0.579166000000000     -1.076354000000000      4.559476000000000
H       0.275276000000000     -1.236444000000000      5.224954000000000
H      -0.377783000000000     -0.194661000000000      3.942570000000000
H      -1.467753000000000     -0.875506000000000      5.166908000000000
C      -1.107876000000000     -3.524056000000000      4.579426000000000
H      -1.276854000000000     -4.433887000000000      3.994947000000000
H      -0.277916000000000     -3.699354000000000      5.269698000000000
H      -1.993386000000000     -3.330832000000000      5.191456000000000
C      -0.147785000000000      5.519572000000000      1.169802000000000
C       3.075426000000000      4.933570000000000      1.267308000000000
H      -6.710446000000000      1.485579000000000     -3.670968000000000
H       6.680347000000000     -1.707855000000000     -3.214591000000000
Rh     -0.370852000000000     -1.422263000000000     -1.802390000000000
H      -1.693618000000000     -2.042854000000000     -2.410811000000000
C       0.308775000000000     -2.942598000000000     -2.593858000000000
O       0.639922000000000     -3.927522000000000     -3.085737000000000
O       0.533566000000000      6.244582000000000      0.480626000000000
H      -0.419048000000000      5.807965000000000      2.205446000000000
O       2.948798000000000      5.304726000000000      2.411078000000000
H       3.484690000000000      5.606844000000000      0.487795000000000
