78

H      -1.584486000000000      0.759534000000000      4.575260000000000
H      -2.014538000000000      1.132362000000000      2.177168000000000
H      -4.042842000000000     -1.604334000000000      1.717551000000000
H      -6.310249000000000     -2.510657000000000      1.334262000000000
H      -5.658553000000000     -2.369351000000000     -2.909225000000000
H      -3.382739000000000     -1.481007000000000     -2.530356000000000
H       2.678280000000000     -1.101768000000000     -3.104965000000000
H       4.838413000000000     -1.510066000000000     -4.249055000000000
H       6.768811000000000     -1.950942000000000     -0.437428000000000
H       4.624666000000000     -1.511548000000000      0.704714000000000
H       2.189110000000000     -0.529985000000000      4.628442000000000
H       1.916080000000000      0.446502000000000      2.383382000000000
C      -1.475164000000000     -0.065010000000000      3.877446000000000
C      -1.714189000000000      0.146365000000000      2.519014000000000
C      -3.562055000000000     -1.478188000000000     -0.381578000000000
C      -4.393415000000000     -1.771895000000000      0.703030000000000
C      -5.672571000000000     -2.281366000000000      0.486203000000000
C      -6.131256000000000     -2.494253000000000     -0.810704000000000
C      -5.308421000000000     -2.199504000000000     -1.896138000000000
C      -4.028429000000000     -1.699043000000000     -1.682631000000000
C       3.513158000000000     -1.250185000000000     -1.127518000000000
C       3.583429000000000     -1.261240000000000     -2.524168000000000
C       4.795067000000000     -1.501596000000000     -3.164530000000000
C       5.943864000000000     -1.748332000000000     -2.415771000000000
C       5.878378000000000     -1.750773000000000     -1.025195000000000
C       4.668769000000000     -1.499186000000000     -0.381183000000000
C       2.101146000000000     -1.442855000000000      1.356503000000000
C       2.413550000000000     -2.545661000000000      3.908604000000000
C       2.221271000000000     -1.176839000000000      3.757023000000000
C       2.065139000000000     -0.623961000000000      2.486121000000000
H      -1.034313000000000     -2.978680000000000      1.367029000000000
H      -0.652042000000000     -3.358126000000000      3.782271000000000
H       2.263913000000000     -3.471697000000000      0.640402000000000
H       2.564699000000000     -4.443355000000000      2.895904000000000
C      -1.575156000000000     -0.904730000000000      1.609961000000000
C      -1.177520000000000     -2.166430000000000      2.077414000000000
C      -0.960802000000000     -2.377905000000000      3.433175000000000
C      -1.109772000000000     -1.325610000000000      4.336481000000000
C       2.261091000000000     -2.827028000000000      1.516944000000000
C       2.426482000000000     -3.372219000000000      2.784713000000000
H      -4.337856000000000      0.980964000000000      0.225188000000000
H      -2.634657000000000      4.897807000000000     -0.136534000000000
Cl     -5.123734000000000      3.708953000000000      0.459827000000000
H       2.430566000000000      4.859202000000000      0.283204000000000
H       4.129747000000000      0.944800000000000      0.642121000000000
Cl      4.817646000000000      3.648252000000000      1.183094000000000
C      -3.484952000000000      1.604854000000000     -0.025261000000000
C      -2.257947000000000      1.028079000000000     -0.362631000000000
C      -1.209159000000000      1.882794000000000     -0.688867000000000
C      -1.284876000000000      3.272744000000000     -0.597907000000000
C      -2.507698000000000      3.824991000000000     -0.227771000000000
C      -3.594778000000000      2.989640000000000      0.027072000000000
C       1.101511000000000      1.860873000000000     -0.547837000000000
C       1.164953000000000      3.251875000000000     -0.410930000000000
C       2.321479000000000      3.790110000000000      0.139831000000000
C       3.370969000000000      2.946377000000000      0.506913000000000
C       3.292069000000000      1.570371000000000      0.349314000000000
C       2.125494000000000      0.998327000000000     -0.170059000000000
C      -0.021229000000000      4.061036000000000     -0.938943000000000
O      -0.030078000000000      1.302527000000000     -1.075696000000000
P      -1.876608000000000     -0.772959000000000     -0.199436000000000
P       1.893553000000000     -0.831062000000000     -0.362192000000000
C      -0.054892000000000      5.475125000000000     -0.361562000000000
H      -0.139463000000000      5.464202000000000      0.729697000000000
H       0.850501000000000      6.022420000000000     -0.638290000000000
H      -0.899050000000000      6.035292000000000     -0.773124000000000
C       0.099604000000000      4.139787000000000     -2.477835000000000
H      -0.756089000000000      4.682746000000000     -2.891637000000000
H       1.019519000000000      4.664799000000000     -2.754085000000000
H       0.123290000000000      3.140519000000000     -2.921795000000000
H       2.543392000000000     -2.971395000000000      4.898972000000000
H      -0.927574000000000     -1.488291000000000      5.394565000000000
H       6.886888000000000     -1.946444000000000     -2.915562000000000
H      -7.127086000000000     -2.893129000000000     -0.976367000000000
Rh     -0.072688000000000     -1.855924000000000     -1.434787000000000
H       1.065831000000000     -2.674749000000000     -2.160332000000000
C      -1.086306000000000     -3.081750000000000     -2.334154000000000
O      -1.669036000000000     -3.892274000000000     -2.906398000000000
