80

H      -1.074981000000000     -0.667531000000000      4.698747000000000
H      -1.115665000000000      0.348617000000000      2.458346000000000
H      -3.172998000000000     -1.777721000000000     -2.673591000000000
H      -5.480236000000000     -2.419890000000000     -3.271163000000000
H      -6.776678000000000     -1.470194000000000      0.713093000000000
H      -4.467084000000000     -0.835429000000000      1.314137000000000
H       2.487015000000000     -2.504513000000000     -2.840699000000000
H       4.503051000000000     -3.745850000000000     -3.579703000000000
H       6.346836000000000     -3.012633000000000      0.230231000000000
H       4.332649000000000     -1.793945000000000      0.973047000000000
H       0.840023000000000     -4.326227000000000      3.237755000000000
H       0.808094000000000     -3.488385000000000      0.911758000000000
C      -1.408191000000000     -1.257656000000000      3.850629000000000
C      -1.425051000000000     -0.684815000000000      2.580261000000000
C      -3.663919000000000     -1.234357000000000     -0.650572000000000
C      -3.961462000000000     -1.694508000000000     -1.934097000000000
C      -5.264976000000000     -2.062453000000000     -2.269378000000000
C      -6.278898000000000     -1.976837000000000     -1.322624000000000
C      -5.989963000000000     -1.529836000000000     -0.032420000000000
C      -4.691262000000000     -1.167712000000000      0.303335000000000
C       3.282742000000000     -2.048768000000000     -0.897719000000000
C       3.337496000000000     -2.612209000000000     -2.174862000000000
C       4.472610000000000     -3.309565000000000     -2.586362000000000
C       5.557140000000000     -3.449871000000000     -1.727067000000000
C       5.506372000000000     -2.898124000000000     -0.447079000000000
C       4.373604000000000     -2.207652000000000     -0.031458000000000
C       1.715339000000000     -1.596473000000000      1.406794000000000
C       1.737030000000000     -2.538479000000000      4.039449000000000
C       1.232389000000000     -3.338853000000000      3.015512000000000
C       1.212851000000000     -2.867114000000000      1.708455000000000
H      -2.561889000000000     -3.356613000000000      0.815067000000000
H      -2.537536000000000     -4.361823000000000      3.067341000000000
H       2.598621000000000      0.196391000000000      2.223388000000000
H       2.598948000000000     -0.632555000000000      4.546446000000000
C      -1.849877000000000     -1.429930000000000      1.478864000000000
C      -2.229766000000000     -2.765381000000000      1.665404000000000
C      -2.222302000000000     -3.331214000000000      2.935376000000000
C      -1.817536000000000     -2.574736000000000      4.033370000000000
C       2.204027000000000     -0.792672000000000      2.439332000000000
C       2.211823000000000     -1.263114000000000      3.751809000000000
H      -4.244297000000000      1.256861000000000     -0.161106000000000
C      -2.243438000000000      5.286748000000000      0.463698000000000
H      -4.243086000000000      3.713165000000000      0.135837000000000
C       3.427252000000000      4.696228000000000     -0.013217000000000
H       4.439964000000000      0.329666000000000     -0.795174000000000
H       4.986389000000000      2.746684000000000     -0.600083000000000
C      -3.308179000000000      1.779076000000000     -0.000618000000000
C      -2.109850000000000      1.074488000000000      0.060490000000000
C      -0.930462000000000      1.815308000000000      0.237605000000000
C      -0.862321000000000      3.204206000000000      0.288490000000000
C      -2.110164000000000      3.863562000000000      0.282180000000000
C      -3.310094000000000      3.160954000000000      0.142706000000000
C       1.409680000000000      1.577010000000000      0.059569000000000
C       1.636741000000000      2.947315000000000      0.084868000000000
C       2.978229000000000      3.332549000000000     -0.134323000000000
C       3.973161000000000      2.397684000000000     -0.435560000000000
C       3.668648000000000      1.044115000000000     -0.527600000000000
C       2.374038000000000      0.612565000000000     -0.267050000000000
C       0.487254000000000      3.941311000000000      0.311010000000000
O       0.191976000000000      1.054579000000000      0.383203000000000
P      -1.938443000000000     -0.750985000000000     -0.232150000000000
P       1.781182000000000     -1.130506000000000     -0.371158000000000
C       0.673162000000000      4.648507000000000      1.669097000000000
H      -0.127195000000000      5.372836000000000      1.840397000000000
H       0.664734000000000      3.917538000000000      2.483397000000000
H       1.622208000000000      5.190247000000000      1.694516000000000
C       0.495178000000000      4.951230000000000     -0.860682000000000
H       1.431742000000000      5.507857000000000     -0.896852000000000
H       0.363625000000000      4.423252000000000     -1.809890000000000
H      -0.302462000000000      5.686738000000000     -0.755674000000000
H       1.748542000000000     -2.906410000000000      5.060933000000000
H      -1.812334000000000     -3.013756000000000      5.026440000000000
H       6.439851000000000     -3.993990000000000     -2.048415000000000
H      -7.292892000000000     -2.263919000000000     -1.582899000000000
Rh     -0.135441000000000     -1.023167000000000     -1.859248000000000
H       1.041281000000000     -0.998252000000000     -2.914897000000000
C      -1.065740000000000     -0.736721000000000     -3.414049000000000
O      -1.564658000000000     -0.547559000000000     -4.433429000000000
N      -2.415037000000000      6.418892000000000      0.633272000000000
N       3.850903000000000      5.767630000000000      0.099225000000000
