80

H      -2.414914000000000     -4.691126000000000      2.583026000000000
H      -2.384990000000000     -3.444884000000000      0.455977000000000
H      -4.483510000000000     -0.846699000000000      1.048781000000000
H      -6.720513000000000     -1.557480000000000      0.274449000000000
H      -5.075238000000000     -2.557142000000000     -3.566413000000000
H      -2.838446000000000     -1.832673000000000     -2.795775000000000
H       2.675766000000000     -2.072765000000000     -2.903418000000000
H       4.809025000000000     -3.056563000000000     -3.706809000000000
H       6.623661000000000     -2.217259000000000      0.095566000000000
H       4.492620000000000     -1.265791000000000      0.905080000000000
H       0.926905000000000     -4.430584000000000      2.862560000000000
H       0.959162000000000     -3.371556000000000      0.628041000000000
C      -2.152404000000000     -3.637572000000000      2.581450000000000
C      -2.129511000000000     -2.934937000000000      1.382154000000000
C      -3.515812000000000     -1.257449000000000     -0.837566000000000
C      -4.617085000000000     -1.204568000000000      0.030275000000000
C      -5.873189000000000     -1.610600000000000     -0.401717000000000
C      -6.041828000000000     -2.092817000000000     -1.701035000000000
C      -4.951859000000000     -2.171502000000000     -2.559603000000000
C      -3.691161000000000     -1.755725000000000     -2.129158000000000
C       3.447987000000000     -1.592723000000000     -0.957202000000000
C       3.543476000000000     -2.107558000000000     -2.251767000000000
C       4.744175000000000     -2.657356000000000     -2.699685000000000
C       5.852481000000000     -2.693125000000000     -1.860281000000000
C       5.761938000000000     -2.186511000000000     -0.563598000000000
C       4.564203000000000     -1.646032000000000     -0.111104000000000
C       1.789646000000000     -1.514111000000000      1.338882000000000
C       1.733101000000000     -2.704364000000000      3.868421000000000
C       1.298135000000000     -3.416659000000000      2.752249000000000
C       1.316921000000000     -2.821282000000000      1.496286000000000
H      -1.241772000000000      0.124944000000000      2.571595000000000
H      -1.257966000000000     -1.128614000000000      4.684323000000000
H       2.582420000000000      0.215472000000000      2.359847000000000
H       2.516522000000000     -0.834297000000000      4.591125000000000
C      -1.814607000000000     -1.569777000000000      1.360754000000000
C      -1.493401000000000     -0.930402000000000      2.559498000000000
C      -1.509260000000000     -1.638937000000000      3.759578000000000
C      -1.846918000000000     -2.988296000000000      3.775981000000000
C       2.213430000000000     -0.801691000000000      2.463249000000000
C       2.181832000000000     -1.395402000000000      3.723909000000000
H      -4.169101000000000      1.247120000000000     -0.481663000000000
H      -2.262780000000000      4.928067000000000      0.607926000000000
C      -4.545782000000000      3.859735000000000     -0.202028000000000
H       2.777143000000000      4.751986000000000      0.286002000000000
H       4.291892000000000      0.925064000000000     -0.936603000000000
C       4.872947000000000      3.521696000000000     -0.758716000000000
C      -3.285785000000000      1.758286000000000     -0.115290000000000
C      -2.112444000000000      1.051670000000000      0.141783000000000
C      -1.010241000000000      1.791913000000000      0.579013000000000
C      -1.013548000000000      3.175423000000000      0.762635000000000
C      -2.197049000000000      3.852015000000000      0.493323000000000
C      -3.325629000000000      3.145275000000000      0.064023000000000
C       1.310984000000000      1.716645000000000      0.442216000000000
C       1.432459000000000      3.094698000000000      0.609134000000000
C       2.622573000000000      3.682788000000000      0.193940000000000
C       3.644204000000000      2.895180000000000     -0.349502000000000
C       3.491300000000000      1.511115000000000     -0.496960000000000
C       2.303994000000000      0.901705000000000     -0.104335000000000
C       0.270156000000000      3.819104000000000      1.282712000000000
O       0.147232000000000      1.092253000000000      0.817802000000000
P      -1.845327000000000     -0.731530000000000     -0.281902000000000
P       1.866722000000000     -0.865453000000000     -0.379308000000000
C       0.360384000000000      3.556417000000000      2.803570000000000
H      -0.488698000000000      4.020156000000000      3.315494000000000
H       0.351933000000000      2.483051000000000      3.019220000000000
H       1.287574000000000      3.980718000000000      3.201747000000000
C       0.303859000000000      5.324831000000000      1.026776000000000
H       0.239432000000000      5.554121000000000     -0.041408000000000
H      -0.523648000000000      5.819279000000000      1.542964000000000
H       1.225712000000000      5.758450000000000      1.424044000000000
H       1.711350000000000     -3.167066000000000      4.850439000000000
H      -1.866503000000000     -3.533937000000000      4.714446000000000
H       6.787487000000000     -3.118258000000000     -2.211542000000000
H      -7.023288000000000     -2.412467000000000     -2.036835000000000
Rh     -0.012998000000000     -0.732994000000000     -1.867135000000000
H       1.168086000000000     -0.552800000000000     -2.907325000000000
C      -0.961450000000000     -0.249522000000000     -3.372595000000000
O      -1.470335000000000      0.092350000000000     -4.344497000000000
N      -5.527041000000000      4.437497000000000     -0.407140000000000
N       5.862206000000000      4.029463000000000     -1.078590000000000
