84

H      -2.413398000000000     -4.948253000000000      2.476694000000000
H      -2.368539000000000     -3.658205000000000      0.375886000000000
H      -2.779004000000000     -2.037015000000000     -2.829251000000000
H      -4.992335000000000     -2.794009000000000     -3.637022000000000
H      -6.720103000000000     -1.792040000000000      0.166782000000000
H      -4.506386000000000     -1.051227000000000      0.977883000000000
H       2.709808000000000     -2.219177000000000     -2.864385000000000
H       4.852467000000000     -3.201697000000000     -3.646232000000000
H       6.630136000000000     -2.348536000000000      0.170507000000000
H       4.489515000000000     -1.398406000000000      0.956871000000000
H       0.923912000000000     -4.666146000000000      2.806110000000000
H       0.975827000000000     -3.559285000000000      0.594838000000000
C      -2.160237000000000     -3.892577000000000      2.499825000000000
C      -2.128925000000000     -3.165343000000000      1.315441000000000
C      -3.499330000000000     -1.461119000000000     -0.887109000000000
C      -3.644943000000000     -1.968018000000000     -2.178892000000000
C      -4.892189000000000     -2.401978000000000     -2.630010000000000
C      -5.998584000000000     -2.332265000000000     -1.791977000000000
C      -5.859617000000000     -1.840886000000000     -0.492823000000000
C      -4.616753000000000     -1.417552000000000     -0.040278000000000
C       3.462878000000000     -1.733280000000000     -0.913032000000000
C       3.572028000000000     -2.250835000000000     -2.205220000000000
C       4.777860000000000     -2.799440000000000     -2.640885000000000
C       5.878397000000000     -2.831308000000000     -1.791249000000000
C       5.774710000000000     -2.320843000000000     -0.497122000000000
C       4.571721000000000     -1.781616000000000     -0.057399000000000
C       1.775179000000000     -1.708731000000000      1.356214000000000
C       1.696549000000000     -2.952895000000000      3.859479000000000
C       1.285812000000000     -3.646265000000000      2.722342000000000
C       1.315637000000000     -3.024183000000000      1.479652000000000
H      -1.282910000000000     -0.123179000000000      2.576227000000000
H      -1.313070000000000     -1.419482000000000      4.663596000000000
H       2.530077000000000      0.008584000000000      2.423762000000000
H       2.445802000000000     -1.089054000000000      4.632598000000000
C      -1.825892000000000     -1.797398000000000      1.324972000000000
C      -1.525079000000000     -1.180161000000000      2.540541000000000
C      -1.549256000000000     -1.913018000000000      3.725778000000000
C      -1.875189000000000     -3.265306000000000      3.710993000000000
C       2.173797000000000     -1.015376000000000      2.501413000000000
C       2.131450000000000     -1.636043000000000      3.748797000000000
H      -4.194799000000000      1.054858000000000     -0.479112000000000
H      -2.327247000000000      4.709024000000000      0.706490000000000
C      -4.654921000000000      3.614234000000000     -0.174460000000000
H       2.740925000000000      4.580326000000000      0.443284000000000
H       4.290019000000000      0.802225000000000     -0.833882000000000
C       4.861038000000000      3.467398000000000     -0.593824000000000
C      -3.311037000000000      1.551336000000000     -0.092495000000000
C      -2.135607000000000      0.846814000000000      0.158807000000000
C      -1.043951000000000      1.587852000000000      0.623364000000000
C      -1.062818000000000      2.966645000000000      0.837484000000000
C      -2.251854000000000      3.636533000000000      0.569703000000000
C      -3.367825000000000      2.930671000000000      0.115918000000000
C       1.281026000000000      1.535741000000000      0.516750000000000
C       1.387864000000000      2.911247000000000      0.716069000000000
C       2.580691000000000      3.513201000000000      0.331694000000000
C       3.616325000000000      2.750622000000000     -0.212879000000000
C       3.478778000000000      1.371645000000000     -0.392725000000000
C       2.290869000000000      0.741776000000000     -0.030569000000000
C       0.208780000000000      3.610799000000000      1.385727000000000
O       0.117193000000000      0.892056000000000      0.859040000000000
P      -1.844330000000000     -0.921550000000000     -0.299188000000000
P       1.869764000000000     -1.020128000000000     -0.346490000000000
C       0.281227000000000      3.323530000000000      2.902796000000000
H       1.199168000000000      3.749148000000000      3.320913000000000
H      -0.579323000000000      3.769921000000000      3.411363000000000
H       0.279963000000000      2.246306000000000      3.099406000000000
C       0.233578000000000      5.120883000000000      1.155910000000000
H       0.178486000000000      5.365749000000000      0.090720000000000
H      -0.604104000000000      5.600153000000000      1.670136000000000
H       1.149520000000000      5.553821000000000      1.567120000000000
H       1.665299000000000     -3.436281000000000      4.831298000000000
H      -1.900955000000000     -3.830214000000000      4.637935000000000
H       6.817042000000000     -3.257103000000000     -2.132276000000000
H      -6.969975000000000     -2.665098000000000     -2.144138000000000
Rh      0.009247000000000     -0.891679000000000     -1.862863000000000
H       1.203030000000000     -0.693585000000000     -2.886472000000000
C      -0.925455000000000     -0.412144000000000     -3.375374000000000
O      -1.425430000000000     -0.071813000000000     -4.353207000000000
O      -5.660939000000000      3.060877000000000     -0.547385000000000
O      -4.598988000000000      4.947369000000000      0.024597000000000
H      -5.482563000000000      5.289000000000000     -0.196893000000000
O       5.038000000000000      4.655253000000000     -0.460018000000000
O       5.799744000000000      2.653183000000000     -1.112116000000000
H       6.559042000000000      3.220116000000000     -1.332126000000000
