84

H       2.349977000000000     -3.296702000000000     -1.645058000000000
H       0.284279000000000     -2.013970000000000     -2.213095000000000
H      -3.346143000000000     -1.009995000000000     -3.219749000000000
H      -4.816376000000000     -2.666831000000000     -4.327887000000000
H      -4.246635000000000     -5.369982000000000     -1.037363000000000
H      -2.776665000000000     -3.715698000000000      0.068485000000000
H       0.348063000000000      3.105684000000000     -3.283174000000000
H       1.737912000000000      4.740708000000000     -4.528327000000000
H       4.684374000000000      4.608057000000000     -1.404874000000000
H       3.316658000000000      2.954042000000000     -0.184147000000000
H       4.703895000000000     -0.981529000000000     -1.908533000000000
H       2.747574000000000      0.456771000000000     -2.369212000000000
C       1.601177000000000     -3.078648000000000     -0.890693000000000
C       0.450137000000000     -2.368498000000000     -1.197543000000000
C      -2.983659000000000     -2.242425000000000     -1.494831000000000
C      -3.554172000000000     -1.959875000000000     -2.736962000000000
C      -4.377906000000000     -2.896077000000000     -3.361966000000000
C      -4.631763000000000     -4.118363000000000     -2.749818000000000
C      -4.056930000000000     -4.412604000000000     -1.512457000000000
C      -3.233550000000000     -3.482065000000000     -0.890602000000000
C       1.726719000000000      2.936320000000000     -1.646444000000000
C       1.297121000000000      3.438892000000000     -2.875409000000000
C       2.080896000000000      4.360192000000000     -3.571426000000000
C       3.293745000000000      4.786623000000000     -3.043427000000000
C       3.734554000000000      4.283739000000000     -1.818282000000000
C       2.961291000000000      3.357728000000000     -1.129579000000000
C       2.086369000000000      0.518648000000000     -0.313972000000000
C       4.308295000000000     -1.107132000000000      0.203819000000000
C       4.042482000000000     -0.684579000000000     -1.102207000000000
C       2.936832000000000      0.114275000000000     -1.354796000000000
H      -0.969715000000000     -2.269080000000000      1.894153000000000
H       1.121722000000000     -3.475385000000000      2.451937000000000
H       1.694027000000000      0.351221000000000      1.803274000000000
H       3.651528000000000     -1.108697000000000      2.241006000000000
C      -0.476317000000000     -2.057253000000000     -0.196698000000000
C      -0.250803000000000     -2.494416000000000      1.111590000000000
C       0.915128000000000     -3.181511000000000      1.428471000000000
C       1.847597000000000     -3.458171000000000      0.429072000000000
C       2.340991000000000      0.062180000000000      0.981464000000000
C       3.445731000000000     -0.747834000000000      1.237796000000000
H      -4.604285000000000     -1.677807000000000      0.545752000000000
H      -4.406737000000000      0.579361000000000      4.187331000000000
H      -5.646284000000000     -0.885073000000000      2.643648000000000
H      -0.917820000000000      4.184774000000000      4.143124000000000
H       1.257464000000000      4.431141000000000      0.460131000000000
H       0.469122000000000      5.461545000000000      2.557100000000000
C      -4.041164000000000     -1.046243000000000      1.225600000000000
C      -2.737524000000000     -0.667259000000000      0.899640000000000
C      -2.063590000000000      0.159044000000000      1.800306000000000
C      -2.616748000000000      0.620760000000000      2.991720000000000
C      -3.926079000000000      0.233962000000000      3.278065000000000
C      -4.628748000000000     -0.593839000000000      2.405260000000000
C      -0.442366000000000      1.829340000000000      1.776517000000000
C      -0.908159000000000      2.381082000000000      2.968981000000000
C      -0.567582000000000      3.706216000000000      3.234655000000000
C       0.216807000000000      4.429218000000000      2.338833000000000
C       0.671207000000000      3.845268000000000      1.159546000000000
C       0.345701000000000      2.520791000000000      0.855192000000000
C      -1.718032000000000      1.468762000000000      3.887730000000000
O      -0.779579000000000      0.530508000000000      1.462403000000000
P      -1.893656000000000     -1.001505000000000     -0.697201000000000
P       0.714480000000000      1.689470000000000     -0.748755000000000
C      -0.737135000000000      0.522091000000000      4.616872000000000
H      -0.041561000000000      1.101552000000000      5.232537000000000
H      -1.290874000000000     -0.167396000000000      5.262516000000000
H      -0.156655000000000     -0.068395000000000      3.900552000000000
C      -2.516529000000000      2.257471000000000      4.923806000000000
H      -3.225066000000000      2.943191000000000      4.448594000000000
H      -3.070795000000000      1.577393000000000      5.576738000000000
H      -1.844910000000000      2.835507000000000      5.564813000000000
C       5.477319000000000     -1.968470000000000      0.524164000000000
C       3.194146000000000     -4.004658000000000      0.741082000000000
H       3.901445000000000      5.505102000000000     -3.584792000000000
H      -5.272162000000000     -4.847464000000000     -3.236393000000000
Rh     -1.478056000000000      1.163883000000000     -1.671826000000000
H      -1.329054000000000      2.674645000000000     -2.124696000000000
C      -3.126350000000000      1.447706000000000     -2.425310000000000
O      -4.138560000000000      1.700426000000000     -2.909924000000000
O       5.704855000000000     -2.445256000000000      1.616706000000000
O       6.281788000000000     -2.173807000000000     -0.527057000000000
H       6.960768000000000     -2.805790000000000     -0.233769000000000
O       4.023689000000000     -4.285413000000000     -0.095426000000000
O       3.439389000000000     -4.068801000000000      2.058422000000000
H       4.405592000000000     -4.168711000000000      2.153330000000000
