90

H       6.764520000000000     -1.464561000000000      0.953143000000000
H       4.421442000000000     -0.854636000000000      1.434151000000000
H       2.483704000000000     -3.371607000000000      1.009202000000000
H       2.433801000000000     -4.207119000000000      3.332262000000000
H       1.093633000000000     -0.357119000000000      4.684478000000000
H       1.170223000000000      0.490324000000000      2.369612000000000
H      -0.868490000000000     -3.476129000000000      1.240182000000000
H      -0.953086000000000     -4.030300000000000      3.647999000000000
H      -2.582763000000000     -0.146019000000000      4.486084000000000
H      -2.525459000000000      0.400992000000000      2.078880000000000
H      -4.375887000000000     -4.389550000000000     -3.121143000000000
H      -2.379747000000000     -3.030846000000000     -2.550966000000000
C       6.014272000000000     -1.551851000000000      0.173295000000000
C       4.695187000000000     -1.207010000000000      0.442893000000000
C       1.842008000000000     -1.378838000000000      1.530727000000000
C       2.176026000000000     -2.709086000000000      1.815389000000000
C       2.153748000000000     -3.178886000000000      3.123618000000000
C       1.776104000000000     -2.329845000000000      4.162398000000000
C       1.408861000000000     -1.017571000000000      3.882415000000000
C       1.443796000000000     -0.540637000000000      2.573018000000000
C      -1.706543000000000     -1.506835000000000      1.494388000000000
C      -1.256097000000000     -2.749929000000000      1.952118000000000
C      -1.305848000000000     -3.062435000000000      3.305351000000000
C      -1.789741000000000     -2.128949000000000      4.220762000000000
C      -2.212181000000000     -0.880330000000000      3.776986000000000
C      -2.172956000000000     -0.569150000000000      2.418283000000000
C      -3.233444000000000     -2.239654000000000     -0.746690000000000
C      -5.487941000000000     -3.769783000000000     -1.386381000000000
C      -4.375537000000000     -3.783175000000000     -2.220790000000000
C      -3.251161000000000     -3.021293000000000     -1.903736000000000
H       3.332072000000000     -1.879741000000000     -2.593316000000000
H       5.670690000000000     -2.492238000000000     -3.072010000000000
H      -4.340984000000000     -1.658165000000000      1.013221000000000
H      -6.337734000000000     -2.990735000000000      0.434959000000000
C       3.712258000000000     -1.311172000000000     -0.553016000000000
C       4.079583000000000     -1.779378000000000     -1.815299000000000
C       5.403351000000000     -2.127500000000000     -2.085351000000000
C       6.371012000000000     -2.013695000000000     -1.094042000000000
C      -4.352726000000000     -2.244529000000000      0.097677000000000
C      -5.475287000000000     -2.998313000000000     -0.224388000000000
H       4.249662000000000      1.194371000000000     -0.302620000000000
C       2.266075000000000      5.347566000000000     -0.000883000000000
H       4.230932000000000      3.650091000000000     -0.227158000000000
C      -3.502456000000000      4.657003000000000     -0.588945000000000
H      -4.386526000000000      0.144514000000000     -1.026961000000000
H      -4.942577000000000      2.546938000000000     -1.100452000000000
C       3.307424000000000      1.719884000000000     -0.193154000000000
C       2.114761000000000      1.011030000000000     -0.082695000000000
C       0.936235000000000      1.762686000000000      0.015449000000000
C       0.870039000000000      3.153927000000000     -0.055073000000000
C       2.102854000000000      3.840585000000000     -0.096317000000000
C       3.290183000000000      3.108157000000000     -0.170002000000000
C      -1.402202000000000      1.489678000000000     -0.188709000000000
C      -1.648414000000000      2.855697000000000     -0.299830000000000
C      -2.979104000000000      3.230973000000000     -0.592512000000000
C      -3.930529000000000      2.240037000000000     -0.848614000000000
C      -3.627298000000000      0.884693000000000     -0.795914000000000
C      -2.344514000000000      0.485908000000000     -0.441925000000000
C      -0.498535000000000      3.863958000000000     -0.108130000000000
O      -0.187754000000000      1.014861000000000      0.219061000000000
P       1.964063000000000     -0.826399000000000     -0.222485000000000
P      -1.742531000000000     -1.246026000000000     -0.329190000000000
C      -0.492177000000000      4.837892000000000     -1.333861000000000
H      -1.272379000000000      4.570677000000000     -2.048819000000000
H      -0.651637000000000      5.878895000000000     -1.034048000000000
H       0.456522000000000      4.784968000000000     -1.870728000000000
C      -0.720732000000000      4.588718000000000      1.239037000000000
H       0.066369000000000      5.320449000000000      1.437230000000000
H      -1.680998000000000      5.110548000000000      1.259439000000000
H      -0.715754000000000      3.857740000000000      2.053921000000000
H      -6.362440000000000     -4.363609000000000     -1.634217000000000
H       7.400651000000000     -2.287330000000000     -1.302852000000000
H      -1.825708000000000     -2.372821000000000      5.278347000000000
H       1.756463000000000     -2.694557000000000      5.185084000000000
Rh      0.181919000000000     -1.345397000000000     -1.813990000000000
H      -0.996372000000000     -1.495816000000000     -2.858963000000000
C       1.103638000000000     -1.348172000000000     -3.393891000000000
O       1.593161000000000     -1.359357000000000     -4.437098000000000
H       2.932837000000000      5.680026000000000     -0.805562000000000
H       1.326066000000000      5.876221000000000     -0.146235000000000
C       2.867067000000000      5.756748000000000      1.350480000000000
H       2.226037000000000      5.431833000000000      2.176238000000000
H       3.849144000000000      5.299386000000000      1.499292000000000
H       2.983428000000000      6.842732000000000      1.410855000000000
H      -2.700179000000000      5.391744000000000     -0.566256000000000
H      -4.052678000000000      4.831798000000000     -1.521378000000000
C      -4.439050000000000      4.904354000000000      0.601127000000000
H      -4.810602000000000      5.933167000000000      0.595401000000000
H      -5.300044000000000      4.230793000000000      0.572475000000000
H      -3.918770000000000      4.731033000000000      1.548638000000000
