78

H      -0.922276000000000     -3.990572000000000      2.854240000000000
H      -1.083553000000000     -2.883581000000000      0.646700000000000
H      -4.254091000000000     -0.186070000000000      1.349314000000000
H      -6.566051000000000     -0.990892000000000      0.855390000000000
H      -5.277275000000000     -2.406412000000000     -2.969165000000000
H      -2.958040000000000     -1.599347000000000     -2.494842000000000
H       2.503873000000000     -1.474423000000000     -3.382280000000000
H       4.535527000000000     -2.433963000000000     -4.438579000000000
H       6.672915000000000     -1.965693000000000     -0.741639000000000
H       4.641842000000000     -1.034986000000000      0.314298000000000
H       2.206377000000000     -4.612249000000000      2.024959000000000
H       2.179387000000000     -3.280606000000000     -0.082129000000000
C      -1.142424000000000     -2.928733000000000      2.797515000000000
C      -1.232827000000000     -2.306231000000000      1.557364000000000
C      -3.455077000000000     -0.811267000000000     -0.556348000000000
C      -4.474597000000000     -0.656564000000000      0.394110000000000
C      -5.763185000000000     -1.102878000000000      0.135419000000000
C      -6.018684000000000     -1.721433000000000     -1.082906000000000
C      -5.033507000000000     -1.908997000000000     -2.037349000000000
C      -3.746729000000000     -1.449341000000000     -1.764151000000000
C       3.441439000000000     -1.178105000000000     -1.474603000000000
C       3.420077000000000     -1.581772000000000     -2.810190000000000
C       4.564809000000000     -2.119471000000000     -3.400136000000000
C       5.734799000000000     -2.254219000000000     -2.661651000000000
C       5.763067000000000     -1.857662000000000     -1.323780000000000
C       4.621943000000000     -1.330428000000000     -0.732129000000000
C       2.003799000000000     -1.378642000000000      0.923897000000000
C       2.029748000000000     -2.870760000000000      3.259772000000000
C       2.127246000000000     -3.530881000000000      2.043784000000000
C       2.105200000000000     -2.775452000000000      0.878098000000000
H      -1.887696000000000      0.864914000000000      2.592534000000000
H      -1.695576000000000     -0.237545000000000      4.792119000000000
H       1.842778000000000      0.331775000000000      2.232620000000000
H       1.848725000000000     -1.021001000000000      4.316265000000000
C      -1.514616000000000     -0.938812000000000      1.468249000000000
C      -1.672361000000000     -0.199200000000000      2.642956000000000
C      -1.569006000000000     -0.822430000000000      3.885918000000000
C      -1.312584000000000     -2.187695000000000      3.965924000000000
C       1.918840000000000     -0.748134000000000      2.167320000000000
C       1.931497000000000     -1.492411000000000      3.343424000000000
H      -4.014566000000000      1.811896000000000     -0.460380000000000
H      -1.937874000000000      5.415908000000000      0.585376000000000
H      -3.985929000000000      4.263949000000000     -0.150133000000000
H       3.066949000000000      5.050996000000000      0.231563000000000
H       4.392545000000000      1.229682000000000     -1.182762000000000
H       4.787453000000000      3.637696000000000     -0.822116000000000
C      -3.108383000000000      2.303617000000000     -0.121173000000000
C      -1.957123000000000      1.550623000000000      0.115743000000000
C      -0.815344000000000      2.238556000000000      0.527114000000000
C      -0.763201000000000      3.615992000000000      0.721018000000000
C      -1.929138000000000      4.337735000000000      0.464209000000000
C      -3.088794000000000      3.686999000000000      0.048260000000000
C       1.497365000000000      2.067906000000000      0.336382000000000
C       1.678675000000000      3.435074000000000      0.538763000000000
C       2.882845000000000      3.989032000000000      0.107322000000000
C       3.855906000000000      3.191255000000000     -0.490497000000000
C       3.638850000000000      1.829671000000000     -0.684216000000000
C       2.440438000000000      1.239252000000000     -0.273956000000000
C       0.552241000000000      4.191126000000000      1.241113000000000
O       0.316879000000000      1.482405000000000      0.737882000000000
P      -1.741168000000000     -0.243697000000000     -0.222607000000000
P       1.933299000000000     -0.484870000000000     -0.685055000000000
C       0.639264000000000      3.893752000000000      2.755544000000000
H      -0.175920000000000      4.398280000000000      3.284603000000000
H       0.561881000000000      2.818868000000000      2.948388000000000
H       1.594298000000000      4.250166000000000      3.155150000000000
C       0.647634000000000      5.699659000000000      1.020288000000000
H       0.592217000000000      5.954399000000000     -0.042730000000000
H      -0.161260000000000      6.214094000000000      1.546761000000000
H       1.586620000000000      6.087256000000000      1.425514000000000
F       2.009818000000000     -3.592829000000000      4.390533000000000
H      -1.229870000000000     -2.673446000000000      4.933412000000000
H       6.624718000000000     -2.672148000000000     -3.122157000000000
F      -7.259773000000000     -2.156811000000000     -1.334334000000000
Rh     -0.088327000000000     -0.305657000000000     -1.988310000000000
H       0.971195000000000     -0.098344000000000     -3.146625000000000
C      -1.212573000000000      0.072123000000000     -3.395474000000000
O      -1.845648000000000      0.332106000000000     -4.319911000000000
