86

H       7.015135000000000     -0.810270000000000      0.139355000000000
H       4.735983000000000     -0.772363000000000      1.088854000000000
H       2.915489000000000     -2.985466000000000      0.811686000000000
H       3.166946000000000     -3.928934000000000      3.084827000000000
H       1.618495000000000     -0.290012000000000      4.762608000000000
H       1.426143000000000      0.678049000000000      2.497751000000000
H      -0.320638000000000     -3.434653000000000      1.139780000000000
H      -0.109153000000000     -3.998018000000000      3.543533000000000
H      -2.367239000000000     -0.489376000000000      4.564209000000000
H      -2.618829000000000      0.050087000000000      2.165202000000000
H      -4.630756000000000     -3.666535000000000     -3.526101000000000
H      -2.625777000000000     -2.382916000000000     -2.840019000000000
C       6.159796000000000     -0.701885000000000     -0.520530000000000
C       4.873386000000000     -0.684953000000000      0.015000000000000
C       2.177209000000000     -1.080347000000000      1.504634000000000
C       2.644838000000000     -2.389876000000000      1.681353000000000
C       2.783741000000000     -2.920697000000000      2.958752000000000
C       2.424068000000000     -2.162337000000000      4.072507000000000
C       1.919988000000000     -0.877164000000000      3.900485000000000
C       1.802953000000000     -0.333284000000000      2.622053000000000
C      -1.498549000000000     -1.665647000000000      1.494099000000000
C      -0.785454000000000     -2.802269000000000      1.894202000000000
C      -0.666139000000000     -3.116060000000000      3.243432000000000
C      -1.236061000000000     -2.285668000000000      4.207097000000000
C      -1.926877000000000     -1.142582000000000      3.816857000000000
C      -2.063133000000000     -0.834579000000000      2.464047000000000
C      -3.105910000000000     -2.438021000000000     -0.743810000000000
C      -5.356107000000000     -3.911998000000000     -1.512724000000000
C      -4.461457000000000     -3.450239000000000     -2.475897000000000
C      -3.338003000000000     -2.723290000000000     -2.093239000000000
H       3.101231000000000     -0.330435000000000     -2.860498000000000
H       5.385761000000000     -0.347653000000000     -3.807921000000000
H      -3.844311000000000     -2.679926000000000      1.268346000000000
H      -5.819379000000000     -3.998567000000000      0.588145000000000
C       3.761506000000000     -0.554298000000000     -0.823025000000000
C       3.961422000000000     -0.430355000000000     -2.202389000000000
C       5.246805000000000     -0.438869000000000     -2.735346000000000
C       6.348548000000000     -0.579337000000000     -1.894742000000000
C      -4.011194000000000     -2.897973000000000      0.217308000000000
C      -5.127818000000000     -3.637503000000000     -0.166900000000000
H       4.003885000000000      1.857911000000000     -0.024164000000000
O       1.285311000000000      5.494432000000000      0.245488000000000
H       3.665611000000000      4.272670000000000      0.164101000000000
O      -3.890980000000000      4.190683000000000     -0.366683000000000
H      -4.493401000000000     -0.300708000000000     -0.802313000000000
H      -5.354310000000000      1.993180000000000     -0.802683000000000
C       2.992879000000000      2.247871000000000      0.035685000000000
C       1.908918000000000      1.379627000000000      0.011404000000000
C       0.633781000000000      1.959380000000000      0.082509000000000
C       0.370453000000000      3.323367000000000      0.093636000000000
C       1.510727000000000      4.157284000000000      0.152338000000000
C       2.800728000000000      3.623326000000000      0.128507000000000
C      -1.647134000000000      1.389029000000000     -0.139886000000000
C      -2.058741000000000      2.713058000000000     -0.175528000000000
C      -3.442979000000000      2.907565000000000     -0.398793000000000
C      -4.300154000000000      1.828980000000000     -0.622060000000000
C      -3.811885000000000      0.523468000000000     -0.616532000000000
C      -2.469696000000000      0.276468000000000     -0.369394000000000
C      -1.064519000000000      3.868861000000000      0.013063000000000
O      -0.367650000000000      1.044359000000000      0.165980000000000
P       2.026956000000000     -0.449390000000000     -0.213724000000000
P      -1.666868000000000     -1.377919000000000     -0.312904000000000
C      -1.154191000000000      4.791862000000000     -1.225718000000000
H      -2.159889000000000      5.198073000000000     -1.328014000000000
H      -0.449542000000000      5.618352000000000     -1.137826000000000
H      -0.913613000000000      4.220292000000000     -2.127624000000000
C      -1.405477000000000      4.629092000000000      1.311265000000000
H      -1.331616000000000      3.954307000000000      2.170008000000000
H      -0.711067000000000      5.458300000000000      1.458033000000000
H      -2.422845000000000      5.022030000000000      1.262387000000000
H      -6.226389000000000     -4.488928000000000     -1.810196000000000
H       7.351492000000000     -0.596653000000000     -2.309883000000000
H      -1.131866000000000     -2.525653000000000      5.261113000000000
H       2.525191000000000     -2.578557000000000      5.070412000000000
Rh      0.435810000000000     -1.832108000000000     -1.507239000000000
H      -0.478931000000000     -2.841301000000000     -2.296960000000000
C       1.692559000000000     -2.680487000000000     -2.529532000000000
O       2.428102000000000     -3.276235000000000     -3.185082000000000
C       2.397368000000000      6.361633000000000      0.305830000000000
H       3.015138000000000      6.279626000000000     -0.595579000000000
H       1.986176000000000      7.368442000000000      0.374591000000000
H       3.013332000000000      6.157239000000000      1.188921000000000
C      -5.265923000000000      4.428331000000000     -0.578848000000000
H      -5.580549000000000      4.085980000000000     -1.571186000000000
H      -5.876907000000000      3.936003000000000      0.186327000000000
H      -5.395665000000000      5.508016000000000     -0.508676000000000
