86

H      -6.576138000000000      1.175655000000000     -1.151249000000000
H      -4.304516000000000      1.259878000000000     -0.178802000000000
H      -1.107473000000000      2.115014000000000     -1.549924000000000
H      -0.992461000000000      4.364350000000000     -0.571291000000000
H      -2.200556000000000      2.776527000000000      3.230661000000000
H      -2.369996000000000      0.510237000000000      2.230507000000000
H       2.168818000000000      2.080498000000000     -2.079384000000000
H       2.168069000000000      4.422517000000000     -1.245649000000000
H       1.588353000000000      2.984773000000000      2.759094000000000
H       1.655419000000000      0.682627000000000      1.954457000000000
H       6.691299000000000      0.623330000000000     -1.574889000000000
H       4.504256000000000      0.882531000000000     -0.451162000000000
C      -5.830235000000000      0.450647000000000     -1.462223000000000
C      -4.549440000000000      0.500671000000000     -0.916068000000000
C      -1.765029000000000      1.154200000000000      0.258540000000000
C      -1.373617000000000      2.256765000000000     -0.503988000000000
C      -1.307331000000000      3.532911000000000      0.048081000000000
C      -1.605635000000000      3.710655000000000      1.399938000000000
C      -1.975125000000000      2.611840000000000      2.182103000000000
C      -2.061635000000000      1.349940000000000      1.613238000000000
C       1.922216000000000      1.205878000000000     -0.118732000000000
C       2.055266000000000      2.279522000000000     -1.015893000000000
C       2.053802000000000      3.586526000000000     -0.563191000000000
C       1.886109000000000      3.854800000000000      0.801247000000000
C       1.734647000000000      2.802544000000000      1.701237000000000
C       1.761303000000000      1.487439000000000      1.234341000000000
C       3.506415000000000     -0.568835000000000     -1.695236000000000
C       5.987253000000000     -0.878496000000000     -2.949333000000000
C       5.842993000000000      0.030738000000000     -1.903266000000000
C       4.610210000000000      0.180759000000000     -1.273962000000000
H      -3.155747000000000     -2.112768000000000     -2.581517000000000
H      -5.436666000000000     -2.210714000000000     -3.535793000000000
H       2.797838000000000     -2.048090000000000     -3.084323000000000
H       5.001209000000000     -2.341331000000000     -4.184016000000000
C      -3.577791000000000     -0.420946000000000     -1.315501000000000
C      -3.909298000000000     -1.395291000000000     -2.263814000000000
C      -5.192463000000000     -1.451553000000000     -2.799508000000000
C      -6.153926000000000     -0.524800000000000     -2.401689000000000
C       3.658013000000000     -1.476567000000000     -2.746645000000000
C       4.895052000000000     -1.634541000000000     -3.367060000000000
H      -4.203626000000000     -2.175746000000000      0.422469000000000
H      -2.327885000000000     -4.210266000000000      3.699960000000000
H      -4.294833000000000     -3.814374000000000      2.270740000000000
H       2.712383000000000     -4.134770000000000      3.529498000000000
H       4.286878000000000     -2.117129000000000      0.094059000000000
H       4.557123000000000     -3.714298000000000      1.949907000000000
C      -3.330096000000000     -2.337341000000000      1.046024000000000
C      -2.153231000000000     -1.630117000000000      0.788602000000000
C      -1.067545000000000     -1.870074000000000      1.627048000000000
C      -1.083785000000000     -2.775821000000000      2.685144000000000
C      -2.266558000000000     -3.483458000000000      2.896569000000000
C      -3.379356000000000     -3.261617000000000      2.087397000000000
C       1.251318000000000     -1.837091000000000      1.538673000000000
C       1.367305000000000     -2.736450000000000      2.598685000000000
C       2.576726000000000     -3.415914000000000      2.728172000000000
C       3.619656000000000     -3.180330000000000      1.834866000000000
C       3.469616000000000     -2.273439000000000      0.789735000000000
C       2.264901000000000     -1.583554000000000      0.615955000000000
C       0.174601000000000     -2.857170000000000      3.544138000000000
O       0.073980000000000     -1.147264000000000      1.366640000000000
P      -1.882342000000000     -0.456848000000000     -0.605249000000000
P       1.889275000000000     -0.486962000000000     -0.824593000000000
C       0.224648000000000     -4.138147000000000      4.374890000000000
H      -0.632790000000000     -4.187465000000000      5.051975000000000
H       0.221623000000000     -5.029515000000000      3.739693000000000
H       1.122713000000000     -4.155149000000000      4.998868000000000
C       0.184709000000000     -1.636322000000000      4.492586000000000
H      -0.677786000000000     -1.677324000000000      5.166015000000000
H       1.101526000000000     -1.631815000000000      5.091226000000000
H       0.134594000000000     -0.700788000000000      3.926069000000000
H       6.948830000000000     -0.994215000000000     -3.439908000000000
H      -7.152124000000000     -0.560427000000000     -2.826940000000000
O       1.873008000000000      5.169352000000000      1.149425000000000
O      -1.552089000000000      4.907935000000000      2.042708000000000
Rh     -0.090357000000000     -0.699194000000000     -2.245957000000000
H       1.013695000000000     -0.686580000000000     -3.375251000000000
C      -1.144207000000000     -0.612810000000000     -3.741396000000000
O      -1.741362000000000     -0.539366000000000     -4.722165000000000
C       1.715974000000000      5.475439000000000      2.520892000000000
H       2.532069000000000      5.047906000000000      3.115298000000000
H       1.749563000000000      6.563162000000000      2.591439000000000
H       0.752613000000000      5.112142000000000      2.898733000000000
C      -1.324762000000000      6.059138000000000      1.252015000000000
H      -1.387487000000000      6.907907000000000      1.933892000000000
H      -0.332471000000000      6.033377000000000      0.787274000000000
H      -2.092534000000000      6.157575000000000      0.475485000000000
