98

H      -4.286369000000000     -4.789663000000000     -3.379859000000000
H      -3.284765000000000     -2.629438000000000     -2.708852000000000
H      -0.715935000000000     -1.286904000000000      2.457137000000000
H      -1.782435000000000     -1.222305000000000      4.672792000000000
H      -5.612197000000000     -1.947242000000000      2.868770000000000
H      -4.552733000000000     -1.986371000000000      0.641343000000000
H      -0.277458000000000      2.457459000000000      2.260483000000000
H      -1.079251000000000      2.472179000000000      4.593864000000000
H      -5.005611000000000      1.353696000000000      3.259688000000000
H      -4.199059000000000      1.309744000000000      0.922675000000000
H      -4.132989000000000      5.090358000000000     -3.323162000000000
H      -3.195007000000000      2.881975000000000     -2.681238000000000
C      -3.792707000000000     -4.701421000000000     -2.417313000000000
C      -3.221346000000000     -3.484008000000000     -2.043508000000000
C      -2.558737000000000     -1.641826000000000      1.390877000000000
C      -1.789769000000000     -1.422588000000000      2.534992000000000
C      -2.392579000000000     -1.396395000000000      3.791641000000000
C      -3.763735000000000     -1.592402000000000      3.919275000000000
C      -4.540462000000000     -1.796432000000000      2.780292000000000
C      -3.942864000000000     -1.813020000000000      1.525378000000000
C      -2.189378000000000      1.898032000000000      1.430257000000000
C      -1.314468000000000      2.211342000000000      2.473224000000000
C      -1.767826000000000      2.225023000000000      3.791322000000000
C      -3.097441000000000      1.931363000000000      4.076255000000000
C      -3.972529000000000      1.605796000000000      3.041543000000000
C      -3.518664000000000      1.580735000000000      1.727833000000000
C      -2.394164000000000      3.586026000000000     -0.818109000000000
C      -3.441847000000000      6.076123000000000     -1.539773000000000
C      -3.600635000000000      4.982183000000000     -2.383381000000000
C      -3.077807000000000      3.739572000000000     -2.025735000000000
H      -2.079392000000000     -4.349255000000000      1.035967000000000
H      -3.071799000000000     -6.511559000000000      0.364030000000000
H      -1.736093000000000      4.574092000000000      0.984644000000000
H      -2.643793000000000      6.779126000000000      0.335357000000000
C      -2.584461000000000     -3.351140000000000     -0.809467000000000
C      -2.548291000000000     -4.451761000000000      0.059911000000000
C      -3.110570000000000     -5.665293000000000     -0.314812000000000
C      -3.732971000000000     -5.791921000000000     -1.558116000000000
C      -2.250416000000000      4.689711000000000      0.033571000000000
C      -2.764712000000000      5.928954000000000     -0.328762000000000
H      -0.127085000000000     -4.203461000000000     -0.698912000000000
C       4.170788000000000     -2.869525000000000      0.163065000000000
H       2.307995000000000     -4.501115000000000     -0.524373000000000
C       4.386607000000000      2.598994000000000     -0.273958000000000
H       0.172265000000000      4.226008000000000     -1.092572000000000
H       2.642108000000000      4.320315000000000     -1.047672000000000
C       0.490336000000000     -3.379004000000000     -0.359968000000000
C      -0.086277000000000     -2.148260000000000     -0.048190000000000
C       0.784558000000000     -1.130582000000000      0.346106000000000
C       2.174252000000000     -1.253803000000000      0.467413000000000
C       2.719604000000000     -2.508851000000000      0.133916000000000
C       1.865285000000000     -3.543309000000000     -0.269079000000000
C       0.881605000000000      1.197036000000000      0.211317000000000
C       2.276415000000000      1.218436000000000      0.297861000000000
C       2.910113000000000      2.377952000000000     -0.194869000000000
C       2.129806000000000      3.437670000000000     -0.677513000000000
C       0.742028000000000      3.387328000000000     -0.705341000000000
C       0.088492000000000      2.240777000000000     -0.263571000000000
C       2.881010000000000     -0.000411000000000      1.027044000000000
O       0.199683000000000      0.080593000000000      0.637824000000000
P      -1.863716000000000     -1.730558000000000     -0.316122000000000
P      -1.719259000000000      1.943030000000000     -0.349359000000000
C       4.408464000000000     -0.062589000000000      1.000917000000000
H       4.753603000000000     -0.905067000000000      1.602539000000000
H       4.820013000000000     -0.170316000000000     -0.002402000000000
H       4.819300000000000      0.847843000000000      1.441042000000000
C       2.485620000000000      0.125400000000000      2.523634000000000
H       2.953217000000000      1.020140000000000      2.948355000000000
H       1.404295000000000      0.200815000000000      2.665148000000000
H       2.849768000000000     -0.749973000000000      3.071781000000000
H      -3.848300000000000      7.043204000000000     -1.819628000000000
H      -4.176679000000000     -6.739218000000000     -1.848546000000000
H      -3.450608000000000      1.943636000000000      5.103041000000000
H      -4.227383000000000     -1.578908000000000      4.901128000000000
Rh     -1.916980000000000      0.105434000000000     -1.883295000000000
H      -1.783359000000000      1.296497000000000     -2.923527000000000
C      -1.703091000000000     -0.838239000000000     -3.447259000000000
O      -1.526410000000000     -1.348236000000000     -4.463510000000000
C       4.983263000000000     -2.628690000000000     -0.947067000000000
C       4.708977000000000     -3.533012000000000      1.268140000000000
C       6.860117000000000     -3.643589000000000      0.180486000000000
C       6.049195000000000     -3.910972000000000      1.280765000000000
C       6.322460000000000     -3.007681000000000     -0.936266000000000
H       4.559193000000000     -2.131347000000000     -1.815437000000000
H       6.946443000000000     -2.807825000000000     -1.801829000000000
H       7.905150000000000     -3.936525000000000      0.190018000000000
H       6.459377000000000     -4.416338000000000      2.149610000000000
H       4.072188000000000     -3.738934000000000      2.124476000000000
C       5.128472000000000      2.058323000000000     -1.326990000000000
C       5.026497000000000      3.424073000000000      0.653885000000000
C       7.131315000000000      3.106833000000000     -0.482306000000000
C       6.393767000000000      3.670048000000000      0.555870000000000
C       6.494083000000000      2.305969000000000     -1.427679000000000
H       4.626594000000000      1.434768000000000     -2.062251000000000
H       7.061183000000000      1.875271000000000     -2.247055000000000
H       8.197028000000000      3.297408000000000     -0.559335000000000
H       6.882119000000000      4.303619000000000      1.289785000000000
H       4.446660000000000      3.861281000000000      1.462404000000000
