86

H       3.636773000000000     -2.813938000000000     -1.970111000000000
H       1.224307000000000     -2.488061000000000     -2.298966000000000
H      -2.325441000000000     -2.672230000000000     -3.028262000000000
H      -2.670334000000000     -4.908747000000000     -4.027452000000000
H      -0.472868000000000     -6.689259000000000     -0.793497000000000
H      -0.122551000000000     -4.451838000000000      0.199333000000000
H      -1.475879000000000      2.787136000000000     -3.450637000000000
H      -1.166891000000000      4.864184000000000     -4.777123000000000
H       1.290077000000000      6.488561000000000     -1.649859000000000
H       1.004601000000000      4.409922000000000     -0.344530000000000
H       4.170369000000000      0.494702000000000     -1.455165000000000
H       1.817271000000000      0.765997000000000     -2.094980000000000
C       3.021401000000000     -2.470903000000000     -1.142611000000000
C       1.661179000000000     -2.285593000000000     -1.323429000000000
C      -1.231856000000000     -3.412735000000000     -1.332257000000000
C      -1.935042000000000     -3.552745000000000     -2.528976000000000
C      -2.122484000000000     -4.814705000000000     -3.095251000000000
C      -1.605392000000000     -5.942764000000000     -2.469780000000000
C      -0.888272000000000     -5.811688000000000     -1.279040000000000
C      -0.696279000000000     -4.555205000000000     -0.718970000000000
C      -0.270439000000000      3.467252000000000     -1.809646000000000
C      -0.871426000000000      3.601399000000000     -3.062573000000000
C      -0.697502000000000      4.770669000000000     -3.802871000000000
C       0.073953000000000      5.810611000000000     -3.295664000000000
C       0.682174000000000      5.681419000000000     -2.046695000000000
C       0.517198000000000      4.513838000000000     -1.311025000000000
C       1.216888000000000      1.659825000000000     -0.229982000000000
C       3.912875000000000      1.360720000000000      0.510004000000000
C       3.479753000000000      0.949908000000000     -0.753233000000000
C       2.143910000000000      1.099122000000000     -1.111518000000000
H       0.826099000000000     -1.309181000000000      1.817772000000000
H       3.230381000000000     -1.584465000000000      2.134200000000000
H       0.954823000000000      2.474316000000000      1.753523000000000
H       3.312840000000000      2.215019000000000      2.394218000000000
C       0.837889000000000     -1.886761000000000     -0.260178000000000
C       1.429515000000000     -1.633150000000000      0.975508000000000
C       2.802386000000000     -1.801262000000000      1.161457000000000
C       3.605696000000000     -2.242418000000000      0.110622000000000
C       1.652418000000000      2.038366000000000      1.043479000000000
C       2.983979000000000      1.892578000000000      1.409957000000000
H      -2.609836000000000     -3.861695000000000      0.843405000000000
H      -3.826846000000000     -1.725554000000000      4.351558000000000
H      -3.877754000000000     -3.753398000000000      2.953220000000000
H      -3.426605000000000      3.265564000000000      3.875893000000000
H      -1.818523000000000      4.515919000000000      0.098636000000000
H      -3.124101000000000      4.992627000000000      2.147509000000000
C      -2.544272000000000     -2.973898000000000      1.462942000000000
C      -1.763109000000000     -1.891309000000000      1.047661000000000
C      -1.747300000000000     -0.767329000000000      1.875195000000000
C      -2.467169000000000     -0.663087000000000      3.064515000000000
C      -3.238789000000000     -1.761169000000000      3.440486000000000
C      -3.269919000000000     -2.907507000000000      2.649598000000000
C      -1.551725000000000      1.540341000000000      1.669994000000000
C      -2.271678000000000      1.773333000000000      2.838121000000000
C      -2.843005000000000      3.037043000000000      2.990172000000000
C      -2.672854000000000      4.015276000000000      2.012291000000000
C      -1.934125000000000      3.751103000000000      0.860286000000000
C      -1.363240000000000      2.492457000000000      0.668950000000000
C      -2.321174000000000      0.635671000000000      3.855501000000000
O      -0.985245000000000      0.302421000000000      1.459777000000000
P      -0.964425000000000     -1.741028000000000     -0.609882000000000
P      -0.496004000000000      1.920271000000000     -0.845276000000000
C      -0.967454000000000      0.600549000000000      4.600999000000000
H      -0.136794000000000      0.480223000000000      3.898120000000000
H      -0.819075000000000      1.534110000000000      5.153743000000000
H      -0.948102000000000     -0.235736000000000      5.307479000000000
C      -3.447752000000000      0.820252000000000      4.870413000000000
H      -3.308538000000000      1.749586000000000      5.430014000000000
H      -4.427215000000000      0.847791000000000      4.382674000000000
H      -3.442238000000000      0.005993000000000      5.600605000000000
S       5.585925000000000      1.229660000000000      1.074892000000000
S       5.346463000000000     -2.537071000000000      0.236529000000000
H       0.207598000000000      6.720849000000000     -3.872186000000000
H      -1.751148000000000     -6.924467000000000     -2.909780000000000
Rh     -1.941411000000000      0.190421000000000     -1.692654000000000
H      -2.679669000000000      1.466511000000000     -2.278593000000000
C      -3.492132000000000     -0.578237000000000     -2.312345000000000
O      -4.503211000000000     -0.970675000000000     -2.696666000000000
C       6.500192000000000      0.966556000000000     -0.465007000000000
H       6.305106000000000     -0.025978000000000     -0.875465000000000
H       6.256210000000000      1.744565000000000     -1.191771000000000
H       7.557531000000000      1.040257000000000     -0.203785000000000
C       5.643798000000000     -2.402205000000000      2.015324000000000
H       6.689461000000000     -2.676752000000000      2.166267000000000
H       5.492317000000000     -1.377721000000000      2.361725000000000
H       5.009141000000000     -3.099496000000000      2.566861000000000
