78

H       2.510531000000000      3.300762000000000      2.520499000000000
H       2.372815000000000      0.846275000000000      2.304634000000000
H       2.508116000000000     -2.284755000000000     -2.527664000000000
H       4.657580000000000     -2.553518000000000     -3.739808000000000
H       6.649810000000000     -0.240664000000000     -0.722369000000000
H       4.505146000000000      0.034739000000000      0.488297000000000
H      -4.436270000000000      0.729306000000000      0.208793000000000
H      -6.673985000000000      0.489196000000000     -0.822185000000000
H      -5.298600000000000     -2.927887000000000     -3.024829000000000
H      -3.054233000000000     -2.699810000000000     -1.977431000000000
H      -1.184160000000000      3.876357000000000      1.645394000000000
H      -1.377368000000000      1.429148000000000      1.961571000000000
C       2.227142000000000      2.850761000000000      1.575573000000000
C       2.142632000000000      1.467682000000000      1.444131000000000
C       3.362255000000000     -1.134179000000000     -0.922862000000000
C       3.415196000000000     -1.848308000000000     -2.120566000000000
C       4.617584000000000     -1.997776000000000     -2.810096000000000
C       5.768846000000000     -1.422201000000000     -2.290296000000000
C       5.740784000000000     -0.691730000000000     -1.103584000000000
C       4.535217000000000     -0.546667000000000     -0.430304000000000
C      -3.594026000000000     -0.983706000000000     -0.804449000000000
C      -4.621218000000000     -0.081278000000000     -0.491960000000000
C      -5.878728000000000     -0.205544000000000     -1.067006000000000
C      -6.107349000000000     -1.237933000000000     -1.974849000000000
C      -5.104075000000000     -2.136240000000000     -2.310425000000000
C      -3.847221000000000     -2.004618000000000     -1.720737000000000
C      -1.769641000000000      1.021390000000000     -0.122305000000000
C      -1.572770000000000      3.776949000000000     -0.464565000000000
C      -1.397673000000000      3.230334000000000      0.800649000000000
C      -1.500410000000000      1.849650000000000      0.968037000000000
H       1.198632000000000      1.281133000000000     -1.811614000000000
H       1.361377000000000      3.746872000000000     -1.588608000000000
H      -2.113036000000000      0.962294000000000     -2.253712000000000
H      -1.948172000000000      3.412694000000000     -2.551124000000000
C       1.787950000000000      0.885245000000000      0.225159000000000
C       1.497719000000000      1.718090000000000     -0.860974000000000
C       1.587512000000000      3.101435000000000     -0.746453000000000
C       1.959733000000000      3.655025000000000      0.475210000000000
C      -1.909443000000000      1.595027000000000     -1.392504000000000
C      -1.821039000000000      2.968880000000000     -1.570089000000000
H       4.026397000000000     -2.499116000000000      1.310761000000000
H       2.348357000000000     -3.063744000000000      5.217937000000000
H       4.162194000000000     -3.434299000000000      3.594740000000000
H      -2.642468000000000     -2.444346000000000      5.407931000000000
H      -4.378399000000000     -1.675397000000000      1.568222000000000
H      -4.592488000000000     -2.435877000000000      3.902864000000000
C       3.221947000000000     -2.320690000000000      2.017317000000000
C       2.104155000000000     -1.581685000000000      1.626703000000000
C       1.091181000000000     -1.404167000000000      2.568906000000000
C       1.140169000000000     -1.898352000000000      3.868936000000000
C       2.266932000000000     -2.641655000000000      4.221793000000000
C       3.294771000000000     -2.851073000000000      3.304370000000000
C      -1.218611000000000     -1.154270000000000      2.636994000000000
C      -1.295513000000000     -1.607104000000000      3.952847000000000
C      -2.532969000000000     -2.072071000000000      4.394795000000000
C      -3.636057000000000     -2.071174000000000      3.543573000000000
C      -3.519224000000000     -1.629439000000000      2.228597000000000
C      -2.292085000000000     -1.165548000000000      1.745629000000000
C      -0.020705000000000     -1.530998000000000      4.791056000000000
O      -0.013987000000000     -0.689810000000000      2.157691000000000
P       1.753279000000000     -0.937062000000000     -0.058192000000000
P      -1.936970000000000     -0.809234000000000     -0.026339000000000
C       0.175190000000000     -0.066659000000000      5.246236000000000
H       0.232723000000000      0.607220000000000      4.385228000000000
H      -0.663546000000000      0.247372000000000      5.875898000000000
H       1.102557000000000      0.026954000000000      5.820771000000000
C      -0.086628000000000     -2.434566000000000      6.020896000000000
H      -0.228048000000000     -3.483484000000000      5.742112000000000
H       0.832835000000000     -2.348322000000000      6.606758000000000
H      -0.908900000000000     -2.131296000000000      6.675042000000000
Br     -1.457129000000000      5.647866000000000     -0.705889000000000
Br      2.103752000000000      5.531705000000000      0.654834000000000
Br     -7.816379000000000     -1.409870000000000     -2.766167000000000
Br      7.406815000000000     -1.622052000000000     -3.213067000000000
Rh     -0.155169000000000     -2.244795000000000     -0.757030000000000
H      -1.358709000000000     -3.246369000000000     -0.984259000000000
C       0.763470000000000     -3.751400000000000     -1.297214000000000
O       1.261514000000000     -4.732131000000000     -1.629740000000000
