86

H      -1.222472000000000      4.586021000000000      0.345817000000000
H      -1.145772000000000      2.343793000000000      1.399627000000000
H      -4.499761000000000      0.486428000000000     -0.375241000000000
H      -6.653972000000000      0.709324000000000      0.825584000000000
H      -4.742869000000000     -0.464545000000000      4.484821000000000
H      -2.584686000000000     -0.696626000000000      3.283866000000000
H       2.960834000000000     -1.359600000000000      3.005248000000000
H       5.192062000000000     -1.251483000000000      4.094946000000000
H       6.687475000000000      1.060257000000000      0.803027000000000
H       4.462499000000000      0.971332000000000     -0.273755000000000
H       2.049386000000000      4.559903000000000      1.282811000000000
H       2.159027000000000      2.170117000000000      1.905157000000000
C      -1.478251000000000      3.701253000000000     -0.228336000000000
C      -1.435567000000000      2.442714000000000      0.355431000000000
C      -3.401113000000000     -0.150908000000000      1.370495000000000
C      -4.553810000000000      0.262279000000000      0.687513000000000
C      -5.761399000000000      0.393404000000000      1.355152000000000
C      -5.838331000000000      0.126001000000000      2.731496000000000
C      -4.686070000000000     -0.267541000000000      3.419694000000000
C      -3.478245000000000     -0.402798000000000      2.741496000000000
C       3.564020000000000     -0.218055000000000      1.290054000000000
C       3.779289000000000     -0.834445000000000      2.523484000000000
C       5.028981000000000     -0.774598000000000      3.134328000000000
C       6.085038000000000     -0.096411000000000      2.517590000000000
C       5.869943000000000      0.529575000000000      1.279345000000000
C       4.621794000000000      0.473157000000000      0.679485000000000
C       1.805035000000000      1.453915000000000     -0.100839000000000
C       1.672115000000000      4.168451000000000     -0.800349000000000
C       1.910066000000000      3.791754000000000      0.529127000000000
C       1.966611000000000      2.450183000000000      0.871786000000000
H      -2.355668000000000      0.566869000000000     -2.326420000000000
H      -2.405100000000000      2.801491000000000     -3.371094000000000
H       1.418816000000000      1.075991000000000     -2.191068000000000
H       1.282452000000000      3.468053000000000     -2.794402000000000
C      -1.760510000000000      1.299359000000000     -0.383810000000000
C      -2.100954000000000      1.439550000000000     -1.731994000000000
C      -2.135156000000000      2.695782000000000     -2.325333000000000
C      -1.834077000000000      3.839911000000000     -1.577683000000000
C       1.554178000000000      1.830001000000000     -1.421907000000000
C       1.485258000000000      3.175725000000000     -1.769144000000000
H      -4.103833000000000     -2.182629000000000     -0.257962000000000
H      -2.430978000000000     -4.140438000000000     -3.688654000000000
H      -4.263326000000000     -3.858437000000000     -2.067952000000000
H       2.577076000000000     -3.788375000000000     -3.997676000000000
H       4.326140000000000     -1.750510000000000     -0.659831000000000
H       4.520971000000000     -3.304512000000000     -2.563435000000000
C      -3.291400000000000     -2.289285000000000     -0.969778000000000
C      -2.150850000000000     -1.494134000000000     -0.847167000000000
C      -1.129042000000000     -1.690634000000000     -1.776036000000000
C      -1.189622000000000     -2.611089000000000     -2.818134000000000
C      -2.339599000000000     -3.396380000000000     -2.904257000000000
C      -3.377619000000000     -3.237005000000000     -1.988343000000000
C       1.188659000000000     -1.552076000000000     -1.889840000000000
C       1.255167000000000     -2.445685000000000     -2.957472000000000
C       2.477144000000000     -3.076179000000000     -3.185305000000000
C       3.576446000000000     -2.805956000000000     -2.373044000000000
C       3.470824000000000     -1.918985000000000     -1.305221000000000
C       2.259031000000000     -1.275434000000000     -1.038274000000000
C      -0.011976000000000     -2.630200000000000     -3.790370000000000
O      -0.001607000000000     -0.912140000000000     -1.625430000000000
P      -1.784309000000000     -0.311597000000000      0.511654000000000
P       1.914390000000000     -0.289423000000000      0.479663000000000
C      -0.152638000000000     -1.415279000000000     -4.735942000000000
H       0.700870000000000     -1.370015000000000     -5.420195000000000
H      -1.072548000000000     -1.501556000000000     -5.323558000000000
H      -0.191825000000000     -0.479685000000000     -4.168667000000000
C       0.027355000000000     -3.911233000000000     -4.621307000000000
H       0.129922000000000     -4.798128000000000     -3.988154000000000
H      -0.885806000000000     -4.008169000000000     -5.215359000000000
H       0.863071000000000     -3.884783000000000     -5.326298000000000
C       1.599829000000000      5.557012000000000     -1.149921000000000
C      -1.882056000000000      5.133574000000000     -2.194789000000000
C       7.374394000000000     -0.034155000000000      3.143339000000000
C      -7.086653000000000      0.264063000000000      3.424525000000000
Rh      0.088303000000000     -1.334469000000000      1.647801000000000
H       1.268325000000000     -2.214664000000000      2.228702000000000
C      -0.868853000000000     -2.539858000000000      2.662244000000000
O      -1.392758000000000     -3.335075000000000      3.306136000000000
C       1.537042000000000      6.728669000000000     -1.429612000000000
H       1.474538000000000      7.763327000000000     -1.681272000000000
C      -1.931517000000000      6.215591000000000     -2.725612000000000
H      -1.969597000000000      7.174608000000000     -3.190989000000000
C       8.459381000000000      0.018705000000000      3.667509000000000
H       9.418232000000000      0.064421000000000      4.133140000000000
C      -8.137022999999999      0.380022000000000      4.005844000000000
H      -9.065048000000001      0.482370000000000      4.522124000000000
