102

H       1.919417000000000      3.686837000000000      2.809813000000000
H       1.653273000000000      1.279428000000000      2.370096000000000
H       2.810428000000000     -2.526925000000000     -1.698425000000000
H       5.066599000000000     -3.182476000000000     -2.461638000000000
H       6.675763000000000      0.441643000000000     -0.834828000000000
H       4.431850000000000      1.097336000000000     -0.051613000000000
H      -3.202273000000000     -1.541216000000000     -2.912484000000000
H      -5.379343000000000     -1.240110000000000     -4.047728000000000
H      -6.379754000000000      1.898276000000000     -1.304860000000000
H      -4.224775000000000      1.580174000000000     -0.144977000000000
H      -0.814796000000000      4.406559000000000     -0.187762000000000
H      -1.182733000000000      2.269299000000000     -1.372066000000000
C       1.979266000000000      3.320523000000000      1.786968000000000
C       1.828340000000000      1.955256000000000      1.538729000000000
C       3.461334000000000     -0.672930000000000     -0.814620000000000
C       3.660352000000000     -1.877602000000000     -1.498251000000000
C       4.929695000000000     -2.244452000000000     -1.928711000000000
C       6.032704000000000     -1.417504000000000     -1.699855000000000
C       5.828942000000000     -0.215420000000000     -1.020381000000000
C       4.561766000000000      0.155472000000000     -0.577802000000000
C      -3.569110000000000     -0.015624000000000     -1.440960000000000
C      -3.908873000000000     -0.801861000000000     -2.545926000000000
C      -5.130399000000000     -0.624606000000000     -3.186418000000000
C      -6.036256000000000      0.346809000000000     -2.753461000000000
C      -5.689357000000000      1.133060000000000     -1.652537000000000
C      -4.473207000000000      0.956112000000000     -0.999253000000000
C      -1.743862000000000      1.185518000000000      0.406756000000000
C      -1.290870000000000      3.615922000000000      1.756232000000000
C      -1.136009000000000      3.529118000000000      0.369064000000000
C      -1.343364000000000      2.330152000000000     -0.297086000000000
H       2.109393000000000      2.010831000000000     -1.842231000000000
H       2.394152000000000      4.419145000000000     -1.387673000000000
H      -2.209010000000000      0.393419000000000      2.361099000000000
H      -1.788880000000000      2.518809000000000      3.534940000000000
C       1.899263000000000      1.465125000000000      0.235967000000000
C       2.083616000000000      2.375426000000000     -0.816959000000000
C       2.241431000000000      3.729343000000000     -0.560189000000000
C       2.199380000000000      4.223833000000000      0.749918000000000
C      -1.903657000000000      1.266506000000000      1.791240000000000
C      -1.672193000000000      2.471268000000000      2.454355000000000
H       3.720123000000000     -0.432108000000000      2.043075000000000
H       1.730832000000000     -3.016326000000000      4.829915000000000
H       3.650175000000000     -1.593350000000000      4.228251000000000
H      -3.248762000000000     -3.550154000000000      3.971405000000000
H      -4.631721000000000     -1.093617000000000      0.736496000000000
H      -5.085494000000000     -2.436067000000000      2.767629000000000
C       2.867297000000000     -1.054018000000000      2.303071000000000
C       1.806969000000000     -1.175718000000000      1.396894000000000
C       0.755194000000000     -2.012404000000000      1.759912000000000
C       0.685404000000000     -2.696565000000000      2.977985000000000
C       1.740207000000000     -2.515864000000000      3.866983000000000
C       2.828244000000000     -1.706870000000000      3.529142000000000
C      -1.524690000000000     -2.234526000000000      1.390711000000000
C      -1.729450000000000     -2.953914000000000      2.567367000000000
C      -3.033538000000000     -3.007016000000000      3.056833000000000
C      -4.074041000000000     -2.368764000000000      2.380630000000000
C      -3.822842000000000     -1.623163000000000      1.231395000000000
C      -2.522889000000000     -1.522603000000000      0.729415000000000
C      -0.507372000000000     -3.632398000000000      3.184450000000000
O      -0.263972000000000     -2.165450000000000      0.858855000000000
P       1.752347000000000     -0.304278000000000     -0.233877000000000
P      -1.980761000000000     -0.344695000000000     -0.583382000000000
C      -0.724743000000000     -3.966666000000000      4.659560000000000
H      -0.921089000000000     -3.067192000000000      5.251798000000000
H      -1.568061000000000     -4.653262000000000      4.775442000000000
H       0.153237000000000     -4.472540000000000      5.070925000000000
C      -0.232724000000000     -4.937341000000000      2.403110000000000
H       0.662546000000000     -5.428885000000000      2.797567000000000
H      -1.084008000000000     -5.618849000000000      2.501404000000000
H      -0.075573000000000     -4.731488000000000      1.340407000000000
C      -1.078078000000000      4.927156000000000      2.469800000000000
C       2.426155000000000      5.691819000000000      1.019180000000000
C      -7.378991000000000      0.504796000000000     -3.423076000000000
C       7.394106000000000     -1.782077000000000     -2.237905000000000
Rh      0.017832000000000     -0.811200000000000     -1.916284000000000
H      -1.021668000000000     -1.143001000000000     -3.052618000000000
C       1.151141000000000     -0.932262000000000     -3.345502000000000
O       1.805178000000000     -0.973810000000000     -4.292622000000000
H      -0.672652000000000      4.740764000000000      3.471504000000000
H      -0.329342000000000      5.516414000000000      1.927295000000000
C      -2.379635000000000      5.728820000000000      2.583093000000000
H      -3.133451000000000      5.162038000000000      3.138169000000000
H      -2.216176000000000      6.680080000000000      3.097827000000000
H      -2.786885000000000      5.940269000000000      1.589657000000000
H       1.822962000000000      6.291581000000000      0.325963000000000
H       2.083208000000000      5.935926000000000      2.031039000000000
C       3.902678000000000      6.076561000000000      0.872685000000000
H       4.261764000000000      5.857477000000000     -0.137513000000000
H       4.054408000000000      7.142354000000000      1.065950000000000
H       4.517779000000000      5.506922000000000      1.575608000000000
H      -7.701316000000000      1.550093000000000     -3.360756000000000
H      -7.290262000000000      0.261314000000000     -4.487489000000000
C      -8.436947000000000     -0.397572000000000     -2.777118000000000
H      -8.140449000000000     -1.448614000000000     -2.847079000000000
H      -8.553998000000000     -0.154438000000000     -1.716484000000000
H      -9.408353999999999     -0.280650000000000     -3.266141000000000
H       8.171455000000000     -1.364650000000000     -1.588109000000000
H       7.516222000000000     -2.870892000000000     -2.222794000000000
C       7.587465000000000     -1.264576000000000     -3.668203000000000
H       8.573907000000000     -1.534554000000000     -4.056337000000000
H       6.827471000000000     -1.683570000000000     -4.334562000000000
H       7.490864000000000     -0.175030000000000     -3.698696000000000
