94

H       1.887585000000000      4.758011000000000     -0.727501000000000
H       1.833810000000000      2.447233000000000     -1.549725000000000
H       4.311156000000000      1.447751000000000      0.083782000000000
H       6.583398000000000      1.135636000000000     -0.783676000000000
H       5.257416000000000     -2.247596000000000     -3.069281000000000
H       2.967420000000000     -1.936696000000000     -2.201158000000000
H      -4.317304000000000      1.199069000000000      0.312955000000000
H      -6.507405000000000      1.648773000000000     -0.690700000000000
H      -5.382924000000000     -0.604103000000000     -4.168505000000000
H      -3.158450000000000     -1.021643000000000     -3.177023000000000
H      -1.830672000000000      1.378441000000000      4.070729000000000
H      -2.074093000000000     -0.418958000000000      2.411705000000000
C       1.826066000000000      3.942346000000000     -0.013534000000000
C       1.805114000000000      2.638537000000000     -0.478772000000000
C       3.476195000000000     -0.226683000000000     -0.993608000000000
C       4.510265000000000      0.634839000000000     -0.609307000000000
C       5.795304000000000      0.462686000000000     -1.107769000000000
C       6.087515000000000     -0.572268000000000     -2.004999000000000
C       5.051463000000000     -1.438289000000000     -2.373719000000000
C       3.762637000000000     -1.264996000000000     -1.884761000000000
C      -3.586291000000000      0.040976000000000     -1.356959000000000
C      -4.546419000000000      0.796328000000000     -0.669839000000000
C      -5.789524000000000      1.043835000000000     -1.235975000000000
C      -6.118083000000000      0.536636000000000     -2.500388000000000
C      -5.152068000000000     -0.212429000000000     -3.181278000000000
C      -3.902115000000000     -0.456108000000000     -2.623273000000000
C      -1.802899000000000      0.883156000000000      0.709832000000000
C      -1.549233000000000      2.941195000000000      2.624556000000000
C      -1.760261000000000      1.616682000000000      3.012225000000000
C      -1.891559000000000      0.596237000000000      2.071785000000000
H       1.631605000000000      1.002044000000000      2.495971000000000
H       1.643619000000000      3.325769000000000      3.312975000000000
H      -1.462743000000000      2.441567000000000     -0.745319000000000
H      -1.265489000000000      4.237468000000000      0.916193000000000
C       1.758481000000000      1.555373000000000      0.415323000000000
C       1.696309000000000      1.817760000000000      1.782517000000000
C       1.707459000000000      3.132987000000000      2.244840000000000
C       1.776312000000000      4.214123000000000      1.363008000000000
C      -1.563166000000000      2.209688000000000      0.313377000000000
C      -1.452196000000000      3.221669000000000      1.251799000000000
H       3.755054000000000     -0.472929000000000      1.884446000000000
H       2.055041000000000     -3.721731000000000      4.110185000000000
H       3.820606000000000     -2.030940000000000      3.806182000000000
H      -2.860829000000000     -4.568906000000000      3.133657000000000
H      -4.515920000000000     -1.638515000000000      0.473112000000000
H      -4.811631000000000     -3.412107000000000      2.174491000000000
C       2.965883000000000     -1.208859000000000      2.016403000000000
C       1.909535000000000     -1.254532000000000      1.098533000000000
C       0.945351000000000     -2.241072000000000      1.289166000000000
C       0.958209000000000     -3.152469000000000      2.349954000000000
C       2.002760000000000     -3.045677000000000      3.262837000000000
C       3.003927000000000     -2.085560000000000      3.094053000000000
C      -1.308217000000000     -2.605836000000000      0.876079000000000
C      -1.425679000000000     -3.562143000000000      1.883505000000000
C      -2.711480000000000     -3.835126000000000      2.348175000000000
C      -3.817014000000000     -3.173052000000000      1.812827000000000
C      -3.654016000000000     -2.184642000000000      0.844938000000000
C      -2.377141000000000     -1.864353000000000      0.377599000000000
C      -0.134167000000000     -4.224519000000000      2.361400000000000
O      -0.068087000000000     -2.313779000000000      0.371713000000000
P       1.755694000000000     -0.113034000000000     -0.347069000000000
P      -1.954705000000000     -0.374259000000000     -0.625710000000000
C      -0.297032000000000     -4.861122000000000      3.740939000000000
H       0.632359000000000     -5.347575000000000      4.050065000000000
H      -0.573153000000000     -4.119165000000000      4.497016000000000
H      -1.066560000000000     -5.637738000000000      3.714855000000000
C       0.256901000000000     -5.316863000000000      1.340367000000000
H      -0.521680000000000     -6.085468000000000      1.297955000000000
H       0.378135000000000     -4.892185000000000      0.339682000000000
H       1.201478000000000     -5.785075000000000      1.635674000000000
C      -1.414040000000000      3.974299000000000      3.664576000000000
C       1.781215000000000      5.584170000000000      1.904074000000000
C      -7.426857000000000      0.765308000000000     -3.137608000000000
C       7.431876000000000     -0.779767000000000     -2.571201000000000
Rh      0.020849000000000     -0.427895000000000     -2.061353000000000
H      -1.030680000000000     -0.613513000000000     -3.220677000000000
C       1.118368000000000     -0.226566000000000     -3.511986000000000
O       1.747665000000000     -0.064674000000000     -4.462249000000000
C      -1.150977000000000      5.268665000000000      3.472939000000000
H      -1.541215000000000      3.613423000000000      4.684671000000000
H      -1.003350000000000      5.698626000000000      2.487301000000000
H      -1.070424000000000      5.948972000000000      4.314354000000000
C       1.683658000000000      6.716810000000000      1.204457000000000
H       1.857480000000000      5.645662000000000      2.988952000000000
H       1.585503000000000      6.730645000000000      0.123099000000000
H       1.697408000000000      7.680607000000000      1.701500000000000
C      -8.502739999999999      1.311491000000000     -2.569469000000000
H      -7.495207000000000      0.434438000000000     -4.172825000000000
H      -8.511865999999999      1.647869000000000     -1.537065000000000
H      -9.424491000000000      1.435021000000000     -3.127138000000000
C       8.453044999999999      0.076438000000000     -2.519453000000000
H       7.569972000000000     -1.727136000000000     -3.090209000000000
H       8.374290999999999      1.049458000000000     -2.043765000000000
H       9.409031000000001     -0.168035000000000     -2.969168000000000
