78

H       4.881958000000000     -2.111722000000000     -3.938313000000000
H       2.700105000000000     -1.230832000000000     -3.090867000000000
H       2.335731000000000      0.352738000000000      2.429281000000000
H       2.139242000000000     -1.108718000000000      4.440027000000000
H       0.823566000000000     -4.352410000000000      1.987095000000000
H       0.973378000000000     -2.895704000000000     -0.037713000000000
H      -1.431589000000000      0.172902000000000      2.428988000000000
H      -1.458299000000000     -1.500695000000000      4.266265000000000
H      -2.416770000000000     -4.596366000000000      1.478708000000000
H      -2.379954000000000     -2.943119000000000     -0.384300000000000
H      -6.747126000000000     -1.200615000000000     -0.380080000000000
H      -4.537013000000000     -0.608188000000000      0.614776000000000
C       4.772034000000000     -1.768470000000000     -2.915979000000000
C       3.563412000000000     -1.270048000000000     -2.433783000000000
C       1.679520000000000     -1.175591000000000      1.053961000000000
C       2.001614000000000     -0.675177000000000      2.317801000000000
C       1.901764000000000     -1.481264000000000      3.449673000000000
C       1.483131000000000     -2.792693000000000      3.296006000000000
C       1.161846000000000     -3.324421000000000      2.054945000000000
C       1.249550000000000     -2.502992000000000      0.938920000000000
C      -1.902204000000000     -1.264636000000000      0.887102000000000
C      -1.644226000000000     -0.866085000000000      2.200940000000000
C      -1.664372000000000     -1.790996000000000      3.241875000000000
C      -1.941483000000000     -3.117103000000000      2.953482000000000
C      -2.201997000000000     -3.549121000000000      1.660846000000000
C      -2.172284000000000     -2.616169000000000      0.631853000000000
C      -3.512216000000000     -0.546902000000000     -1.286031000000000
C      -5.967764000000000     -1.228607000000000     -2.376404000000000
C      -5.868658000000000     -1.061243000000000     -0.999939000000000
C      -4.633734000000000     -0.727859000000000     -0.461524000000000
H       4.471930000000000     -0.609894000000000      0.773692000000000
H       6.644613000000000     -1.485767000000000     -0.091980000000000
H      -2.781982000000000     -0.600979000000000     -3.304521000000000
H      -5.003557000000000     -1.222155000000000     -4.285295000000000
C       3.444878000000000     -0.834125000000000     -1.112074000000000
C       4.558322000000000     -0.922856000000000     -0.264154000000000
C       5.771206000000000     -1.411008000000000     -0.729951000000000
C       5.854607000000000     -1.824437000000000     -2.054607000000000
C      -3.648663000000000     -0.728978000000000     -2.663935000000000
C      -4.880243000000000     -1.072883000000000     -3.218613000000000
H       4.239519000000000      1.686516000000000     -0.644798000000000
H       2.610273000000000      5.180167000000000      1.235495000000000
H       4.462318000000000      4.038469000000000      0.082247000000000
H      -2.413494000000000      5.240802000000000      1.393485000000000
H      -4.211643000000000      1.838502000000000     -0.489130000000000
H      -4.349210000000000      4.165312000000000      0.314297000000000
C       3.420342000000000      2.171570000000000     -0.123535000000000
C       2.236317000000000      1.470918000000000      0.112984000000000
C       1.208285000000000      2.151550000000000      0.765944000000000
C       1.299645000000000      3.472023000000000      1.196782000000000
C       2.493268000000000      4.144592000000000      0.933781000000000
C       3.541977000000000      3.499680000000000      0.281441000000000
C      -1.117553000000000      2.181429000000000      0.815072000000000
C      -1.153838000000000      3.500141000000000      1.265146000000000
C      -2.339210000000000      4.207441000000000      1.071475000000000
C      -3.434144000000000      3.600991000000000      0.459811000000000
C      -3.361330000000000      2.283234000000000      0.016488000000000
C      -2.187334000000000      1.543870000000000      0.184826000000000
C       0.099803000000000      4.035900000000000      1.954289000000000
O       0.039904000000000      1.451233000000000      0.974828000000000
P       1.828943000000000     -0.211600000000000     -0.504969000000000
P      -1.882712000000000     -0.116667000000000     -0.556587000000000
C       0.118835000000000      5.562378000000000      2.007720000000000
H       1.019264000000000      5.914754000000000      2.518754000000000
H       0.090547000000000      5.999988000000000      1.004874000000000
H      -0.736252000000000      5.936135000000000      2.577993000000000
C       0.137497000000000      3.477351000000000      3.395234000000000
H       0.136260000000000      2.382502000000000      3.390975000000000
H       1.043455000000000      3.818900000000000      3.906627000000000
H      -0.736769000000000      3.822911000000000      3.956386000000000
F      -7.155198000000000     -1.557443000000000     -2.899544000000000
F       7.021409000000000     -2.300035000000000     -2.506505000000000
F      -1.945201000000000     -4.012078000000000      3.950138000000000
F       1.362031000000000     -3.568513000000000      4.381461000000000
Rh      0.003057000000000      0.148209000000000     -2.042195000000000
H      -1.152659000000000      0.631632000000000     -3.012192000000000
C       0.998040000000000      0.677075000000000     -3.497250000000000
O       1.549832000000000      1.039178000000000     -4.438867000000000
