98

C       2.570087000000000     -1.520516000000000     -0.748792000000000
C       1.657783000000000     -0.494076000000000     -0.636295000000000
C       0.478531000000000     -0.517640000000000     -1.464999000000000
C       0.336865000000000     -1.522029000000000     -2.394050000000000
H       3.450781000000000     -1.536258000000000     -0.111145000000000
C      -0.607843000000000      0.521778000000000     -1.428482000000000
C      -0.597580000000000      1.458432000000000     -2.435519000000000
C      -1.675340000000000      0.548663000000000     -0.461631000000000
C      -2.626492000000000      1.539691000000000     -0.545487000000000
H      -3.439619000000000      1.574940000000000      0.175079000000000
P       1.836707000000000      0.749810000000000      0.729000000000000
P      -1.706199000000000     -0.658282000000000      0.952139000000000
C      -3.374203000000000     -0.419836000000000      1.677892000000000
C      -4.509325000000000     -1.132607000000000      1.294541000000000
C      -3.503585000000000      0.533576000000000      2.702109000000000
C      -5.748208000000000     -0.902214000000000      1.893533000000000
H      -4.440404000000000     -1.895849000000000      0.526114000000000
C      -4.728892000000000      0.785268000000000      3.293365000000000
H      -2.620535000000000      1.075764000000000      3.032334000000000
C      -5.861740000000000      0.066286000000000      2.891574000000000
H      -6.606148000000000     -1.482480000000000      1.575342000000000
H      -4.838166000000000      1.520985000000000      4.083076000000000
O      -7.015249000000000      0.373995000000000      3.535165000000000
C      -1.822874000000000     -2.227866000000000      0.007194000000000
C      -1.029524000000000     -3.316209000000000      0.359427000000000
C      -2.581141000000000     -2.316206000000000     -1.172451000000000
C      -0.954401000000000     -4.456820000000000     -0.438993000000000
H      -0.425778000000000     -3.270394000000000      1.259468000000000
C      -2.526139000000000     -3.443664000000000     -1.973271000000000
H      -3.189354000000000     -1.470832000000000     -1.487095000000000
C      -1.690493000000000     -4.512894000000000     -1.622139000000000
H      -0.297821000000000     -5.267155000000000     -0.146194000000000
H      -3.093757000000000     -3.514168000000000     -2.895584000000000
O      -1.649920000000000     -5.543091000000000     -2.502062000000000
C       1.609468000000000      2.334862000000000     -0.169759000000000
C       2.225624000000000      2.581564000000000     -1.406981000000000
C       0.723424000000000      3.288772000000000      0.323599000000000
C       1.951841000000000      3.731723000000000     -2.124350000000000
H       2.887982000000000      1.840432000000000     -1.845176000000000
C       0.431337000000000      4.452271000000000     -0.388395000000000
H       0.221169000000000      3.105519000000000      1.268385000000000
C       1.037667000000000      4.669549000000000     -1.624702000000000
H       2.408233000000000      3.921230000000000     -3.090586000000000
H      -0.286518000000000      5.155491000000000      0.016423000000000
O       0.793346000000000      5.737060000000000     -2.422782000000000
C       3.627312000000000      0.714162000000000      1.137584000000000
C       4.669457000000000      0.780617000000000      0.196355000000000
C       3.969716000000000      0.641126000000000      2.486635000000000
C       5.992528000000000      0.780825000000000      0.595851000000000
H       4.446267000000000      0.807160000000000     -0.865541000000000
C       5.299915000000000      0.645844000000000      2.909409000000000
H       3.175854000000000      0.579242000000000      3.227650000000000
C       6.316812000000000      0.717907000000000      1.958909000000000
H       6.803033000000000      0.825929000000000     -0.123782000000000
H       5.522036000000000      0.588367000000000      3.968169000000000
O       7.640693000000000      0.725171000000000      2.247853000000000
H      -0.511478000000000      1.286937000000000      1.920302000000000
C       1.137650000000000     -1.778865000000000      2.494390000000000
O       1.714774000000000     -2.703734000000000      2.852331000000000
Rh      0.213985000000000     -0.122633000000000      2.061706000000000
H       0.197025000000000      1.424691000000000     -3.176648000000000
H      -0.542277000000000     -1.526144000000000     -3.033080000000000
C       2.394550000000000     -2.595439000000000     -1.658700000000000
C       3.313880000000000     -3.674305000000000     -1.742030000000000
C       1.259984000000000     -2.590635000000000     -2.509206000000000
C       3.109226000000000     -4.697193000000000     -2.633151000000000
H       4.180372000000000     -3.674802000000000     -1.085989000000000
C       1.068716000000000     -3.660650000000000     -3.421561000000000
C       1.975549000000000     -4.689043000000000     -3.484699000000000
H       3.817369000000000     -5.517891000000000     -2.691647000000000
H       0.185935000000000     -3.657903000000000     -4.056154000000000
H       1.825869000000000     -5.504079000000000     -4.186754000000000
C      -3.526381000000000      3.608136000000000     -1.590724000000000
C      -3.443998000000000      4.572609000000000     -2.563493000000000
C      -2.409219000000000      4.526461000000000     -3.532437000000000
C      -1.481600000000000      3.516404000000000     -3.505466000000000
C      -1.547426000000000      2.506062000000000     -2.510967000000000
C      -2.578979000000000      2.551749000000000     -1.539369000000000
H      -4.316027000000000      3.638620000000000     -0.844472000000000
H      -4.172793000000000      5.376825000000000     -2.595923000000000
H      -2.350213000000000      5.299867000000000     -4.292401000000000
H      -0.674292000000000      3.484084000000000     -4.232511000000000
C       8.011215000000000      0.657225000000000      3.607449000000000
H       7.655168000000000     -0.270705000000000      4.070674000000000
H       9.100538999999999      0.677274000000000      3.625546000000000
H       7.620734000000000      1.514033000000000      4.169286000000000
C      -0.142222000000000      6.687952000000000     -1.960983000000000
H       0.197849000000000      7.156749000000000     -1.029577000000000
H      -0.213796000000000      7.444919000000000     -2.742322000000000
H      -1.125638000000000      6.229249000000000     -1.803224000000000
C      -8.174647000000000     -0.342895000000000      3.174158000000000
H      -8.426857999999999     -0.187545000000000      2.118184000000000
H      -8.053454000000000     -1.416634000000000      3.361190000000000
H      -8.978125000000000      0.045646000000000      3.799459000000000
C      -0.815325000000000     -6.636360000000000     -2.180784000000000
H      -0.912041000000000     -7.341835000000000     -3.006170000000000
H       0.230031000000000     -6.319725000000000     -2.087586000000000
H      -1.136645000000000     -7.118514000000000     -1.249692000000000
