102

C       2.400571000000000      1.781046000000000      0.566543000000000
C       1.575546000000000      0.642171000000000      0.564515000000000
C       0.476361000000000      0.562568000000000      1.427350000000000
C       0.311985000000000      1.587190000000000      2.391633000000000
C       1.128803000000000      2.707565000000000      2.404134000000000
C       2.156906000000000      2.813209000000000      1.462024000000000
H       3.212103000000000      1.850711000000000     -0.146521000000000
H       0.995449000000000      3.519731000000000      3.107319000000000
O       2.879788000000000      3.963053000000000      1.515862000000000
C      -0.539634000000000     -0.533593000000000      1.403797000000000
C      -0.500002000000000     -1.484799000000000      2.450749000000000
C      -1.545835000000000     -0.654532000000000      0.436600000000000
C      -1.380504000000000     -2.555413000000000      2.489980000000000
C      -2.432840000000000     -1.742768000000000      0.466649000000000
C      -2.325644000000000     -2.695177000000000      1.471581000000000
H      -1.344579000000000     -3.312813000000000      3.263270000000000
H      -3.189832000000000     -1.835335000000000     -0.300560000000000
O      -3.103564000000000     -3.811201000000000      1.552503000000000
P       1.861310000000000     -0.613794000000000     -0.778220000000000
P      -1.672304000000000      0.545341000000000     -0.988447000000000
C      -3.337274000000000      0.176367000000000     -1.676673000000000
C      -4.530441000000000      0.710845000000000     -1.191461000000000
C      -3.405921000000000     -0.721809000000000     -2.754601000000000
C      -5.763064000000000      0.356419000000000     -1.740033000000000
H      -4.515430000000000      1.427895000000000     -0.377150000000000
C      -4.622424000000000     -1.096134000000000     -3.299449000000000
H      -2.482093000000000     -1.125709000000000     -3.161725000000000
C      -5.811640000000000     -0.558452000000000     -2.793059000000000
H      -6.667494000000000      0.799868000000000     -1.340611000000000
H      -4.682851000000000     -1.790436000000000     -4.130910000000000
O      -6.953675000000000     -0.978045000000000     -3.393778000000000
C      -1.896899000000000      2.118319000000000     -0.072231000000000
C      -1.262497000000000      3.279349000000000     -0.507629000000000
C      -2.634243000000000      2.172940000000000      1.121522000000000
C      -1.319406000000000      4.462915000000000      0.226877000000000
H      -0.685765000000000      3.261780000000000     -1.426288000000000
C      -2.725369000000000      3.347010000000000      1.847358000000000
H      -3.105349000000000      1.272919000000000      1.508409000000000
C      -2.038066000000000      4.489912000000000      1.421687000000000
H      -0.782904000000000      5.334561000000000     -0.127927000000000
H      -3.283714000000000      3.395997000000000      2.776851000000000
O      -2.111960000000000      5.563604000000000      2.250975000000000
C       1.683641000000000     -2.218164000000000      0.099876000000000
C       2.386142000000000     -2.494425000000000      1.282135000000000
C       0.780160000000000     -3.171063000000000     -0.366326000000000
C       2.155458000000000     -3.659814000000000      1.991113000000000
H       3.090710000000000     -1.772764000000000      1.682259000000000
C       0.523574000000000     -4.341643000000000      0.344411000000000
H       0.231962000000000     -2.976682000000000     -1.282232000000000
C       1.185767000000000     -4.568156000000000      1.549772000000000
H       2.679249000000000     -3.871090000000000      2.917986000000000
H      -0.221801000000000     -5.035312000000000     -0.026693000000000
O       0.936515000000000     -5.618291000000000      2.375275000000000
C       3.671588000000000     -0.501435000000000     -1.085969000000000
C       4.653774000000000     -0.335633000000000     -0.093199000000000
C       4.094217000000000     -0.614944000000000     -2.409116000000000
C       5.997368000000000     -0.298915000000000     -0.418480000000000
H       4.361722000000000     -0.198210000000000      0.943864000000000
C       5.446317000000000     -0.590109000000000     -2.755151000000000
H       3.346455000000000     -0.721181000000000     -3.191965000000000
C       6.403229000000000     -0.433328000000000     -1.753895000000000
H       6.761618000000000     -0.164817000000000      0.339865000000000
H       5.731135000000000     -0.683260000000000     -3.796279000000000
O       7.741336000000000     -0.385976000000000     -1.968544000000000
H      -0.416312000000000     -1.282870000000000     -2.058405000000000
O      -0.697619000000000      1.402208000000000      3.278079000000000
O       0.461788000000000     -1.286526000000000      3.385155000000000
Rh      0.235943000000000      0.165120000000000     -2.166554000000000
C       1.070987000000000      1.880144000000000     -2.538643000000000
O       1.611698000000000      2.846963000000000     -2.842025000000000
C      -0.827444000000000      2.341018000000000      4.320439000000000
H      -1.657400000000000      1.993323000000000      4.936745000000000
H       0.086628000000000      2.384383000000000      4.925228000000000
H      -1.056674000000000      3.342536000000000      3.935760000000000
C       0.485150000000000     -2.163214000000000      4.487696000000000
H       1.308652000000000     -1.830210000000000      5.120124000000000
H      -0.454996000000000     -2.111254000000000      5.050763000000000
H       0.661990000000000     -3.198990000000000      4.172912000000000
C       8.191834000000000     -0.515997000000000     -3.298799000000000
H       7.891954000000000     -1.479458000000000     -3.727976000000000
H       7.808382000000000      0.294647000000000     -3.930046000000000
H       9.279318000000000     -0.459962000000000     -3.257226000000000
C      -0.176136000000000     -6.429278000000000      2.058343000000000
H      -0.280137000000000     -7.135816000000000      2.881888000000000
H      -1.088985000000000     -5.826602000000000      1.966971000000000
H      -0.013414000000000     -6.983526000000000      1.126181000000000
C      -8.170552000000001     -0.437398000000000     -2.930172000000000
H      -8.340426000000001     -0.683521000000000     -1.874904000000000
H      -8.195458000000000      0.651917000000000     -3.053895000000000
H      -8.954146000000000     -0.889304000000000     -3.537923000000000
C      -1.337345000000000      6.693935000000000      1.912993000000000
H      -1.666970000000000      7.134885000000000      0.964773000000000
H      -1.485489000000000      7.414624000000000      2.716980000000000
H      -0.273635000000000      6.435780000000000      1.840519000000000
C      -4.055592000000000     -4.005788000000000      0.529132000000000
H      -3.574263000000000     -4.073940000000000     -0.454287000000000
H      -4.558413000000000     -4.945757000000000      0.756983000000000
H      -4.791508000000000     -3.193133000000000      0.507947000000000
C       3.900609000000000      4.124237000000000      0.554537000000000
H       3.494321000000000      4.094885000000000     -0.463833000000000
H       4.343974000000000      5.101762000000000      0.744316000000000
H       4.670119000000000      3.348780000000000      0.654998000000000
