78

C      -2.047410000000000     -2.183269000000000      1.450504000000000
C      -1.468500000000000     -0.989904000000000      1.005523000000000
C      -0.403395000000000     -0.409862000000000      1.724997000000000
C       0.020806000000000     -1.039484000000000      2.912758000000000
C      -0.538744000000000     -2.246938000000000      3.331900000000000
C      -1.573864000000000     -2.808723000000000      2.595459000000000
H      -2.870740000000000     -2.629772000000000      0.905064000000000
H      -0.187201000000000     -2.739586000000000      4.229621000000000
H      -2.021745000000000     -3.740520000000000      2.925818000000000
C       0.209364000000000      0.929783000000000      1.422709000000000
C      -0.220714000000000      1.991196000000000      2.251146000000000
C       1.182112000000000      1.202346000000000      0.443714000000000
C       0.241625000000000      3.292301000000000      2.060515000000000
C       1.636497000000000      2.514810000000000      0.254679000000000
C       1.158644000000000      3.547384000000000      1.047752000000000
H      -0.111947000000000      4.104105000000000      2.684043000000000
H       2.363736000000000      2.734775000000000     -0.517982000000000
H       1.509049000000000      4.561342000000000      0.883847000000000
P      -1.968459000000000     -0.280687000000000     -0.637054000000000
P       1.782930000000000     -0.121365000000000     -0.701277000000000
C       3.192868000000000      0.684667000000000     -1.583159000000000
C       4.426497000000000      0.937349000000000     -0.976040000000000
C       2.985301000000000      1.045083000000000     -2.915703000000000
C       5.430980000000000      1.554657000000000     -1.710845000000000
H       4.615133000000000      0.660648000000000      0.055868000000000
C       4.009680000000000      1.667402000000000     -3.622784000000000
H       2.032472000000000      0.838075000000000     -3.394037000000000
C       5.242275000000000      1.929888000000000     -3.037788000000000
Cl      6.968305000000000      1.871150000000000     -0.958931000000000
Cl      3.750641000000000      2.119598000000000     -5.281921000000000
H       6.036342000000000      2.407743000000000     -3.599364000000000
C       2.691674000000000     -1.249543000000000      0.439280000000000
C       2.929689000000000     -2.559409000000000      0.018413000000000
C       3.195138000000000     -0.808103000000000      1.666259000000000
C       3.664352000000000     -3.416613000000000      0.829172000000000
H       2.550325000000000     -2.913267000000000     -0.934761000000000
C       3.941150000000000     -1.686029000000000      2.444843000000000
H       3.005680000000000      0.199666000000000      2.021031000000000
C       4.181770000000000     -2.996942000000000      2.049990000000000
Cl      3.948619000000000     -5.051218000000000      0.309834000000000
Cl      4.623435000000000     -1.125404000000000      3.948429000000000
H       4.761064000000000     -3.669898000000000      2.671076000000000
C      -2.396554000000000      1.440099000000000     -0.133182000000000
C      -3.203033000000000      1.647093000000000      0.991483000000000
C      -1.875447000000000      2.529074000000000     -0.830365000000000
C      -3.505955000000000      2.944981000000000      1.379478000000000
H      -3.582994000000000      0.808845000000000      1.568477000000000
C      -2.159874000000000      3.816306000000000     -0.386726000000000
H      -1.226625000000000      2.374266000000000     -1.686063000000000
C      -2.980856000000000      4.047049000000000      0.711404000000000
Cl     -4.569349000000000      3.205555000000000      2.736305000000000
Cl     -1.455801000000000      5.178238000000000     -1.207963000000000
H      -3.208093000000000      5.056030000000000      1.035598000000000
C      -3.631890000000000     -1.024252000000000     -0.983598000000000
C      -4.840970000000000     -0.334912000000000     -0.868903000000000
C      -3.637281000000000     -2.332005000000000     -1.486249000000000
C      -6.028481000000000     -0.967553000000000     -1.227977000000000
H      -4.880845000000000      0.689214000000000     -0.519228000000000
C      -4.839547000000000     -2.942985000000000     -1.814918000000000
H      -2.708055000000000     -2.874934000000000     -1.630160000000000
C      -6.054001000000000     -2.274527000000000     -1.694739000000000
Cl     -7.528009000000000     -0.095763000000000     -1.085075000000000
Cl     -4.832950000000000     -4.575447000000000     -2.415053000000000
H      -6.986053000000000     -2.753929000000000     -1.968991000000000
H       0.000440000000000      0.763443000000000     -2.126123000000000
O       0.984357000000000     -0.388272000000000      3.612026000000000
O      -1.116976000000000      1.659673000000000      3.213561000000000
Rh     -0.060556000000000     -0.789251000000000     -1.769440000000000
C      -0.051437000000000     -2.726287000000000     -1.505099000000000
O      -0.029821000000000     -3.865786000000000     -1.402302000000000
C       1.318051000000000     -0.889238000000000      4.889425000000000
H       1.792795000000000     -1.875324000000000      4.820723000000000
H       2.030412000000000     -0.182288000000000      5.312894000000000
H       0.429391000000000     -0.952062000000000      5.528647000000000
C      -1.427066000000000      2.639168000000000      4.181732000000000
H      -1.923392000000000      3.506600000000000      3.731797000000000
H      -2.113017000000000      2.163020000000000      4.881927000000000
H      -0.522573000000000      2.967604000000000      4.707778000000000
