40
K:1,35;
 P                 -3.69624000   -1.31287500   -0.05250400
 Rh                -1.51204000   -0.53359700   -0.48519500
 C                 -1.90393400    1.37618500   -0.24007800
 H                 -1.23532800   -2.08029900   -0.66233900
 P                 -0.10733600   -0.67528800    1.43847700
 O                 -2.13845600    2.48119900   -0.06909500
 Cl                -4.97942553   -0.05127211    0.90842944
 Cl                -3.78592262   -3.00323607    1.08601982
 Cl                -0.99679127   -0.02765573    3.15633665
 Cl                 0.63931115   -2.49480495    1.98021135
 N                  1.32031323    0.33566621    1.39063069
 N                 -4.61950095   -1.79418318   -1.45907133
 C                 -5.75175358   -0.87435988   -1.64025930
 H                 -6.23361516   -1.08122803   -2.57295163
 H                 -6.45040682   -1.00687447   -0.84074473
 C                 -5.12456168   -3.16158766   -1.26928547
 H                 -4.29971440   -3.83704213   -1.17824585
 H                 -5.71861778   -3.20220726   -0.38027063
 C                  1.57379559    0.88923534    2.72861721
 H                  2.55136997    1.32342238    2.75563476
 H                  1.51069999    0.10707080    3.45603563
 C                  2.47567614   -0.46781145    0.96582464
 H                  3.26543755    0.18179883    0.65089070
 H                  2.81293589   -1.06832640    1.78468827
 C                 -5.98583948   -3.56349472   -2.48100792
 H                 -6.00323554   -4.62978898   -2.56826564
 H                 -6.98322099   -3.20037950   -2.34581375
 H                 -5.56948192   -3.13956264   -3.37085508
 C                 -5.23886375    0.57772158   -1.63839877
 H                 -5.36372080    0.99883348   -0.66270646
 H                 -4.20196201    0.59007667   -1.90218304
 H                 -5.79455009    1.15316791   -2.34901414
 C                  0.52318272    1.96999204    3.04449305
 H                 -0.01672415    1.69555621    3.92658463
 H                  1.01300704    2.90791576    3.20346236
 H                 -0.15670571    2.05741919    2.22290422
 C                  2.06398794   -1.38021021   -0.20449212
 H                  1.41319397   -2.14970280    0.15501917
 H                  1.55547356   -0.80089253   -0.94658655
 H                  2.93725336   -1.82397447   -0.63505083
