72
K:1,35;
 P                 -3.69624000   -1.31287500   -0.05250400
 C                 -4.85649500   -0.17213500    0.81637100
 C                 -3.77723900   -2.83956500    0.97578100
 C                 -4.66746600   -1.81918800   -1.53214500
 C                 -4.35837500    0.55301600    1.90671300
 C                 -5.17908800    1.42585100    2.61436700
 C                 -6.50430200    1.60603300    2.22552500
 C                 -7.00292900    0.90448200    1.13156800
 C                 -6.18781300    0.01691200    0.43216300
 C                 -4.00193700   -2.79434200    2.35360800
 C                 -3.88504000   -3.95066300    3.12527100
 C                 -3.56002100   -5.16471700    2.52845900
 C                 -3.34966800   -5.22080900    1.15016300
 C                 -3.44810500   -4.06588200    0.38166500
 C                 -4.35097600   -1.25517500   -2.76973700
 C                 -5.09445400   -1.57533500   -3.90443600
 C                 -6.15672200   -2.46905700   -3.81230300
 C                 -6.47926100   -3.03995200   -2.58164800
 C                 -5.74111300   -2.71582900   -1.44783700
 Rh                -1.51204000   -0.53359700   -0.48519500
 C                 -1.90393400    1.37618500   -0.24007800
 H                 -1.23532800   -2.08029900   -0.66233900
 P                 -0.10733600   -0.67528800    1.43847700
 C                  1.39519800    0.38869400    1.38812100
 C                  0.56626600   -2.31680000    1.92721300
 C                 -0.91175300   -0.08957400    2.99209700
 C                  1.92743900    0.73949500    0.14515800
 C                  3.08645500    1.50953400    0.06270000
 C                  3.71906100    1.94333500    1.22333600
 C                  3.19393100    1.60221000    2.46927400
 C                  2.04054800    0.82882800    2.55192000
 C                  1.87974200   -2.50659400    2.36716200
 C                  2.31983100   -3.77499400    2.73964300
 C                  1.45384600   -4.86341800    2.68779500
 C                  0.14427300   -4.68268600    2.24905100
 C                 -0.29236600   -3.42032100    1.85901700
 C                 -1.08915300    1.28853200    3.18291800
 C                 -1.84705200    1.76536200    4.24774000
 C                 -2.45277900    0.87207200    5.13166000
 C                 -2.28024900   -0.49697500    4.94999600
 C                 -1.50967500   -0.97695700    3.89131700
 O                 -2.13845600    2.48119900   -0.06909500
 F                 -6.06033533   -3.27055651   -0.25919303
 F                 -7.50745268   -3.90958069   -2.48642291
 F                 -6.87134199   -2.78776226   -4.91241446
 F                 -4.77216278   -1.02339260   -5.09354825
 F                 -3.30557193   -0.40529683   -2.85539575
 F                 -8.28253800    1.08191744    0.73962737
 F                 -6.69140480   -0.64967145   -0.62829059
 F                 -7.29902800    2.46427162    2.89957030
 F                 -4.67266695    2.10292879    3.66679438
 F                 -3.06951316    0.40335940    2.27945698
 F                 -4.32134282   -1.62687228    2.95151633
 F                 -4.09655884   -3.88569874    4.45701400
 F                 -3.45137561   -6.28251499    3.27760774
 F                 -3.03703443   -6.39308231    0.55810257
 F                 -3.21093918   -4.12305302   -0.94610902
 F                  2.73786149   -1.46582430    2.42128560
 F                  3.59476335   -3.94256635    3.15069899
 F                  1.88477772   -6.08988431    3.05190794
 F                 -0.70865932   -5.72701850    2.18289890
 F                 -1.55433180   -3.25854383    1.40760758
 F                  1.29976251    0.33022926   -0.97779515
 F                  3.58592654    1.83945834   -1.14733228
 F                  4.83640748    2.69691797    1.14491697
 F                  3.80187476    2.02210507    3.59913793
 F                  1.53805180    0.50206525    3.76155783
 F                 -0.52510262    2.16374286    2.32364324
 F                 -2.00056199    3.09616482    4.41476852
 F                 -3.19773458    1.33309890    6.15878968
 F                 -2.85540936   -1.37082202    5.80327317
 F                 -1.35661473   -2.30871517    3.73165257
