74

P       1.989300000000000     -1.114610000000000      0.357170000000000
C       2.771960000000000     -2.032620000000000      1.737680000000000
C       3.418950000000000     -0.146810000000000     -0.213860000000000
C       3.886190000000000     -2.819300000000000      1.462320000000000
C       4.497840000000000     -3.530510000000000      2.476430000000000
C       4.004080000000000     -3.457100000000000      3.770360000000000
C       2.896280000000000     -2.674480000000000      4.046940000000000
C       2.278610000000000     -1.964350000000000      3.031160000000000
C       4.240010000000000      0.475930000000000      0.719790000000000
C       5.267650000000000      1.300380000000000      0.299430000000000
C       5.473910000000000      1.516240000000000     -1.053920000000000
C       4.647290000000000      0.910590000000000     -1.986210000000000
C       3.617290000000000      0.088170000000000     -1.568700000000000
H       4.262790000000000     -2.867100000000000      0.449610000000000
H       5.362420000000000     -4.141980000000000      2.261840000000000
H       4.484970000000000     -4.012500000000000      4.562460000000000
H       2.511180000000000     -2.618150000000000      5.054780000000000
H       1.411030000000000     -1.351510000000000      3.232890000000000
H       4.067570000000000      0.307200000000000      1.774580000000000
H       5.908110000000000      1.778160000000000      1.027000000000000
H       6.277540000000000      2.159860000000000     -1.381130000000000
H       4.803770000000000      1.084060000000000     -3.041000000000000
H       2.966160000000000     -0.381240000000000     -2.291910000000000
P      -1.894850000000000      1.151960000000000      0.355850000000000
C      -2.985900000000000      1.457150000000000      1.778000000000000
C      -3.170590000000000      0.610100000000000     -0.835300000000000
C      -3.269370000000000      2.717750000000000      2.281590000000000
C      -4.113640000000000      2.846940000000000      3.371700000000000
C      -4.670410000000000      1.723880000000000      3.959060000000000
C      -4.380610000000000      0.461800000000000      3.461650000000000
C      -3.538160000000000      0.329630000000000      2.375930000000000
C      -4.442719770000000      0.319300740000000     -0.365143780000000
C      -5.428322820000000     -0.094285720000000     -1.243315890000000
C      -5.139357990000000     -0.221330010000000     -2.592005820000000
C      -3.868579130000000      0.071036540000000     -3.064275110000000
C      -2.884514310000000      0.492266440000000     -2.189623450000000
H      -2.829060000000000      3.591010000000000      1.822550000000000
H      -4.336190000000000      3.828430000000000      3.765310000000000
H      -5.327920000000000      1.829750000000000      4.809640000000000
H      -4.810740000000000     -0.413920000000000      3.925680000000000
H      -3.285690000000000     -0.646000000000000      1.978570000000000
H      -4.646767760000000      0.415193210000000      0.696519800000000
H      -6.416913920000000     -0.324408590000000     -0.873477060000000
H      -5.905018390000000     -0.550982750000000     -3.279206550000000
H      -3.648641340000000     -0.029060660000000     -4.117468210000000
H      -1.889701920000000      0.725335580000000     -2.543140400000000
Rh      0.037680000000000     -0.000460000000000      0.374440000000000
C       0.096720000000000      0.108980000000000     -1.466910000000000
O       0.110380000000000      0.188710000000000     -2.617410000000000
H      -0.060800000000000     -0.102580000000000      1.915880000000000
O       2.023550000000000     -2.278570000000000     -0.792700000000000
O      -1.639480000000000      2.688020000000000     -0.134340000000000
C       1.761169280000000     -3.585607410000000     -0.467363770000000
C       1.211416650000000     -4.396418120000000     -1.452961520000000
C       2.035926920000000     -4.109146900000000      0.791610660000000
C       0.929448720000000     -5.721506430000000     -1.175944610000000
H       1.006657050000000     -3.974377150000000     -2.425013140000000
C       1.750641430000000     -5.439395650000000      1.056702600000000
H       2.504750430000000     -3.481148500000000      1.545608640000000
C       1.192164090000000     -6.244789850000000      0.079276020000000
H       0.497055580000000     -6.345296210000000     -1.943795610000000
H       1.968541100000000     -5.844612880000000      2.033964220000000
H       0.968135070000000     -7.279193260000000      0.292609500000000
C      -0.381170000000000      3.013350000000000     -0.603280000000000
C       0.750430000000000      2.769420000000000      0.175240000000000
C      -0.260540000000000      3.577020000000000     -1.862810000000000
C       2.001340000000000      3.091600000000000     -0.329600000000000
H       0.634350000000000      2.409850000000000      1.196940000000000
C       0.996270000000000      3.887770000000000     -2.356510000000000
H      -1.150180000000000      3.750780000000000     -2.449280000000000
C       2.125610000000000      3.634250000000000     -1.598220000000000
H       2.880660000000000      2.916150000000000      0.271460000000000
H       1.088040000000000      4.316780000000000     -3.342970000000000
H       3.104990000000000      3.863430000000000     -1.990300000000000
