76
K:1,35;
 P                 -3.69624000   -1.31287500   -0.05250400
 Rh                -1.51219214   -0.53127010   -0.48175225
 C                 -1.90654586    1.37810733   -0.23742967
 H                 -1.23352231   -2.07768666   -0.65831824
 P                 -0.11042834   -0.67127845    1.44418637
 O                 -2.14253791    2.48288129   -0.06691885
 C                 -3.77625096   -2.82094223    0.96323784
 C                 -4.58038262   -3.88029407    0.23734880
 C                 -2.37239486   -3.30665408    1.26292968
 H                 -4.29139729   -2.55416366    1.92324972
 C                 -4.60296254   -5.18272965    1.01110452
 H                 -4.13412190   -4.05699097   -0.77655132
 H                 -5.62956052   -3.51619917    0.08472908
 C                 -2.39500596   -4.60868594    2.03740125
 H                 -1.81571883   -3.45477983    0.30037192
 H                 -1.82339805   -2.52795343    1.85341194
 C                 -3.19996279   -5.66820827    1.31290277
 H                 -5.15075562   -5.96154863    0.41962404
 H                 -5.16130417   -5.03525696    1.97281398
 H                 -1.34590312   -4.97304278    2.18962879
 H                 -2.84051358   -4.43106302    3.05152315
 H                 -3.25047048   -6.59581983    1.94026359
 H                 -2.68427073   -5.93750051    0.35379417
 C                 -4.84363609   -0.18849463    0.80286200
 C                 -5.33092685    0.87180249   -0.16361960
 C                 -6.00033633   -0.98243224    1.37579374
 H                 -4.27688920    0.30039950    1.63829592
 C                 -6.35405525    1.78165434    0.48516702
 H                 -5.78823226    0.37655016   -1.06025820
 H                 -4.46097893    1.48096550   -0.52242763
 C                 -7.02306541   -0.07261193    2.02529866
 H                 -6.49120926   -1.57033380    0.55618261
 H                 -5.61537045   -1.71488412    2.13193989
 C                 -7.50995583    0.98876206    1.05996758
 H                 -6.73984494    2.51297340   -0.27168446
 H                 -5.86286570    2.37105822    1.30352791
 H                 -7.89321544   -0.68166122    2.38368922
 H                 -6.56538804    0.42157828    2.92239266
 H                 -8.21484326    1.68200086    1.58831361
 H                 -8.07903887    0.50101427    0.22534641
 C                  0.55667682   -2.29381033    1.92870780
 C                  1.79777880   -2.59666134    1.11402007
 C                  0.86057785   -2.29534695    3.41335757
 H                 -0.23069713   -3.06173771    1.70848256
 C                  2.43462049   -3.90270183    1.54324857
 H                  2.53769040   -1.76276167    1.23854338
 H                  1.52955012   -2.64937568    0.02686474
 C                  1.49668171   -3.60172533    3.84271969
 H                  1.55368596   -1.44648455    3.65290018
 H                 -0.08594781   -2.13088182    3.99083649
 C                  2.73709835   -3.90601887    3.02772696
 H                  3.38186808   -4.06604835    0.96659847
 H                  1.74244310   -4.75185426    1.30198260
 H                  1.76534348   -3.54888025    4.92972206
 H                  0.75592035   -4.43502771    3.71882487
 H                  3.14591521   -4.90645770    3.32536225
 H                  3.52606416   -3.13995565    3.24914516
 C                  1.37326629    0.38171600    1.39672125
 C                  2.05060227    0.24461694    0.04831895
 C                  0.98426767    1.82027332    1.67199577
 H                  2.06761912    0.02273829    2.20119530
 C                  3.24602564    1.16852225   -0.06529496
 H                  1.31531413    0.48516023   -0.76399513
 H                  2.38086429   -0.81634807   -0.09970950
 C                  2.17988124    2.74406102    1.55917331
 H                  0.19575250    2.13969134    0.94085773
 H                  0.54348064    1.90031388    2.69948873
 C                  2.85858918    2.60671480    0.21160785
 H                  3.68560166    1.08927603   -1.09338950
 H                  4.03542946    0.84803225    0.66443542
 H                  1.84959326    3.80504367    1.70672524
 H                  2.91431506    2.50359072    2.37234683
 H                  3.77343072    3.25394673    0.18419221
 H                  2.16586035    2.96780875   -0.59342871
 Cl                -1.00334296   -0.02446424    3.16055895
 Cl                -4.76925477   -1.87524563   -1.69383839
 