74

P      -3.564767000000000     -2.157790000000000      1.089214000000000
C      -3.915523000000000     -1.785985000000000      2.852432000000000
C      -3.086322000000000     -3.936110000000000      1.109974000000000
C      -2.905049000000000     -2.000552000000000      3.801830000000000
C      -3.069301000000000     -1.589384000000000      5.119626000000000
C      -4.239472000000000     -0.936633000000000      5.509538000000000
C      -5.241702000000000     -0.705338000000000      4.573409000000000
C      -5.083211000000000     -1.131443000000000      3.253757000000000
C      -2.477623000000000     -4.459750000000000     -0.036981000000000
C      -2.133630000000000     -5.806756000000000     -0.104776000000000
C      -2.385118000000000     -6.647063000000000      0.977941000000000
C      -2.994766000000000     -6.136506000000000      2.121054000000000
C      -3.350764000000000     -4.790850000000000      2.185202000000000
H      -1.979481000000000     -2.490922000000000      3.503053000000000
H      -2.278571000000000     -1.769619000000000      5.841784000000000
H      -4.364489000000000     -0.608115000000000      6.536490000000000
H      -6.156208000000000     -0.198784000000000      4.866964000000000
H      -5.877794000000000     -0.939907000000000      2.538072000000000
H      -2.255583000000000     -3.798577000000000     -0.870983000000000
H      -1.660582000000000     -6.196841000000000     -1.000533000000000
H      -2.108166000000000     -7.695624000000000      0.930093000000000
H      -3.199157000000000     -6.786433000000000      2.966313000000000
H      -3.836056000000000     -4.407273000000000      3.077707000000000
P      -0.257145000000000     -0.167924000000000      1.350868000000000
C       1.011910000000000      0.809731000000000      0.448483000000000
C       0.761761000000000     -1.602472000000000      1.901144000000000
C       1.369398000000000      2.113302000000000      0.799937000000000
C       2.309507000000000      2.816241000000000      0.045019000000000
C       2.906870000000000      2.221388000000000     -1.060306000000000
C       2.560764000000000      0.916799000000000     -1.414588000000000
C       1.617007000000000      0.220509000000000     -0.670087000000000
C       2.039370000000000     -1.408303000000000      2.441521000000000
C       2.774506000000000     -2.488542000000000      2.917696000000000
C       2.243537000000000     -3.777659000000000      2.860679000000000
C       0.979830000000000     -3.981807000000000      2.316550000000000
C       0.246980000000000     -2.897397000000000      1.834911000000000
H       0.919886000000000      2.594551000000000      1.663604000000000
H       2.575362000000000      3.829890000000000      0.328949000000000
H       3.640190000000000      2.768400000000000     -1.644431000000000
H       3.026683000000000      0.443807000000000     -2.273613000000000
H       1.344662000000000     -0.795720000000000     -0.948402000000000
H       2.467686000000000     -0.408965000000000      2.473284000000000
H       3.765690000000000     -2.326456000000000      3.330093000000000
H       2.820558000000000     -4.618745000000000      3.232703000000000
H       0.557603000000000     -4.980633000000000      2.254257000000000
H      -0.727859000000000     -3.060398000000000      1.389847000000000
C      -0.370469000000000      0.731387000000000      2.972217000000000
H      -0.759289000000000     -0.011536000000000      3.680507000000000
H       0.648523000000000      0.967179000000000      3.298658000000000
C      -1.274774000000000      1.976059000000000      2.978192000000000
H      -1.464626000000000      2.331072000000000      1.955102000000000
H      -0.786236000000000      2.805691000000000      3.501215000000000
C      -2.604462000000000      1.690696000000000      3.667635000000000
H      -3.068180000000000      0.807005000000000      3.196760000000000
H      -2.401503000000000      1.409165000000000      4.708393000000000
C      -5.236643000000000     -2.271179000000000      0.300361000000000
H      -5.680117000000000     -1.266078000000000      0.354522000000000
H      -5.024101000000000     -2.442039000000000     -0.763487000000000
C      -6.210434000000000     -3.323020000000000      0.825481000000000
H      -6.397883000000000     -3.171765000000000      1.896839000000000
H      -5.759724000000000     -4.318596000000000      0.724670000000000
C      -7.542059000000000     -3.299576000000000      0.058208000000000
H      -8.235616000000000     -4.002644000000000      0.534048000000000
H      -7.997378000000000     -2.305181000000000      0.153969000000000
N      -7.475616000000000     -3.624026000000000     -1.360080000000000
H      -6.895913000000000     -2.958490000000000     -1.868197000000000
H      -7.033710000000000     -4.532871000000000     -1.484174000000000
N      -3.445998000000000      2.882248000000000      3.676562000000000
H      -4.308360000000000      2.677884000000000      4.176864000000000
H      -3.723136000000000      3.097517000000000      2.720460000000000
Rh     -2.158036000000000     -0.589681000000000      0.036526000000000
C      -3.259058000000000      0.941288000000000      0.519522000000000
O      -3.962251000000000      1.815863000000000      0.762898000000000
H      -1.279115000000000     -1.820854000000000     -0.409456000000000
