132
K:1,35;
 P                 -3.69624000   -1.31287500   -0.05250400
 C                 -4.85649500   -0.17213500    0.81637100
 C                 -4.35837500    0.55301600    1.90671300
 C                 -5.17908800    1.42585100    2.61436700
 C                 -6.50430200    1.60603300    2.22552500
 C                 -7.00292900    0.90448200    1.13156800
 C                 -6.18781300    0.01691200    0.43216300
 H                 -3.32038100    0.43248900    2.20690500
 H                 -4.77179200    1.97040000    3.46079600
 H                 -8.03200800    1.04717800    0.81636400
 H                 -6.59253000   -0.51879500   -0.42008200
 Rh                -1.51204000   -0.53359700   -0.48519500
 C                 -1.90393400    1.37618500   -0.24007800
 H                 -1.23532800   -2.08029900   -0.66233900
 P                 -0.10733600   -0.67528800    1.43847700
 C                 -0.91175300   -0.08957400    2.99209700
 C                 -1.08915300    1.28853200    3.18291800
 C                 -1.84705200    1.76536200    4.24774000
 C                 -2.45277900    0.87207200    5.13166000
 C                 -2.28024900   -0.49697500    4.94999600
 C                 -1.50967500   -0.97695700    3.89131700
 H                 -0.63472300    1.99365000    2.49063900
 H                 -1.97053200    2.83583000    4.38209400
 H                 -2.74300900   -1.20005100    5.63652200
 H                 -1.38651600   -2.04854800    3.76284400
 O                 -2.13845600    2.48119900   -0.06909500
 C                  1.37741919    0.37610438    1.38871684
 C                  1.16173620    1.51384442    0.41157949
 C                  1.67813121    0.89666076    2.77980868
 H                  2.23056619   -0.26134808    1.03663175
 C                  2.34288665    2.46268178    0.39985363
 H                  0.23403861    2.07729325    0.69489288
 H                  1.00294860    1.09951710   -0.61786284
 C                  2.85980807    1.84487441    2.76818421
 H                  0.77634964    1.42933419    3.18154978
 H                  1.89404784    0.03590725    3.46458958
 C                  2.64556568    2.98220096    1.79041653
 H                  2.12595579    3.32403042   -0.28388969
 H                  3.24428699    1.93070480   -0.00370130
 H                  3.01833144    2.25957032    3.79747695
 H                  3.78730514    1.28057745    2.48571599
 H                  3.56137253    3.62787910    1.75889835
 H                  1.79408709    3.62175646    2.14297701
 C                  0.55879038   -2.29858253    1.92178902
 C                  1.68342262   -2.68609363    0.98327613
 C                  1.03703040   -2.24406554    3.35875023
 H                 -0.27410840   -3.04474158    1.83406416
 C                  2.32337980   -3.99481885    1.39949637
 H                  2.46000820   -1.87661572    0.97835423
 H                  1.28610503   -2.77799045   -0.06091057
 C                  1.67626017   -3.55309342    3.77520642
 H                  1.78135534   -1.41258883    3.47265253
 H                  0.17191723   -2.01691751    4.03434218
 C                  2.80012840   -3.94203188    2.83654344
 H                  3.18934494   -4.22084035    0.72458595
 H                  1.57976375   -4.82669978    1.28379007
 H                  2.07399363   -3.46108983    4.81918407
 H                  0.89892584   -4.36191354    3.78082156
 H                  3.20822813   -4.94289471    3.13373707
 H                  3.63468733   -3.19774074    2.92535785
 C                 -4.65643139   -1.81343551   -1.51533402
 C                 -5.95370423   -1.03205466   -1.56325174
 C                 -3.83197432   -1.58600403   -2.76636904
 H                 -4.88326645   -2.90706704   -1.41196435
 C                 -6.74817075   -1.35741014   -2.81165590
 H                 -5.72782149    0.06651403   -1.54116785
 H                 -6.56774296   -1.26794819   -0.65553877
 C                 -4.62620537   -1.91214685   -4.01474092
 H                 -3.50005861   -0.51515362   -2.80455615
 H                 -2.91062448   -2.22338180   -2.73023695
 C                 -5.92420824   -1.13220273   -4.06287426
 H                 -7.66865790   -0.71877321   -2.84814814
 H                 -7.08182256   -2.42770780   -2.77269370
 H                 -4.01239355   -1.67583314   -4.92245055
 H                 -4.85092272   -3.01100642   -4.03664836
 H                 -6.51579484   -1.44279611   -4.96295920
 H                 -5.69845095   -0.03850694   -4.16874724
 C                 -3.77625096   -2.82094223    0.96323784
 C                 -5.08766427   -2.85378027    1.72145005
 C                 -3.62453029   -4.03987150    0.07569324
 H                 -2.92469710   -2.78223021    1.69229665
 C                 -5.23301657   -4.13470458    2.51747255
 H                 -5.93929037   -2.76700495    0.99649011
 H                 -5.14336049   -1.97356531    2.41336890
 C                 -3.76907874   -5.32080151    0.87188951
 H                 -4.40301160   -4.01251795   -0.73150284
 H                 -2.62092414   -4.01894865   -0.42308370
 C                 -5.07959494   -5.35394872    1.63142204
 H                 -6.23732204   -4.15589991    3.01487249
 H                 -4.45582738   -4.16129119    3.32595803
 H                 -3.71385958   -6.20099505    0.17996750
 H                 -2.91662929   -5.40739174    1.59597669
 H                 -5.12692847   -6.28202646    2.25834077
 H                 -5.93181889   -5.39517919    0.90316363
 C                 -7.41087832    2.58506075    2.99443594
 C                 -7.50410336    3.91585749    2.58720472
 C                 -8.13939602    2.14063150    4.09813630
 C                 -8.32564994    4.80258100    3.28380651
 H                 -6.93019254    4.26614097    1.71710663
 C                 -8.96039961    3.02719854    4.79490671
 H                 -8.06601178    1.09120235    4.41874108
 C                 -9.05324976    4.35868247    4.38778765
 H                 -8.39833502    5.85187631    2.96296695
 H                 -9.53422556    2.67741602    5.66535046
 C                 -3.30258018    1.39798417    6.30334867
 C                 -4.06549209    0.51236636    7.06439705
 C                 -3.30888247    2.76034882    6.60390271
 C                 -4.83511864    0.98900126    8.12598340
 H                 -4.06031808   -0.56147147    6.82777841
 C                 -4.07867023    3.23700531    7.66492222
 H                 -2.70694004    3.45832912    6.00393351
 C                 -4.84229861    2.35105299    8.42595884
 H                 -5.43707482    0.29064329    8.72530526
 H                 -4.08444426    4.31088370    7.90166722
 N                 -5.65383169    2.85346753    9.54394528
 N                 -9.91824624    5.29309466    5.12233168
 C                -11.27192563    4.72942254    5.22589736
 H                -11.27819627    3.94877894    5.95764612
 H                -11.95682291    5.49778352    5.51819364
 H                -11.56608854    4.33141336    4.27723680
 C                 -9.97484207    6.57515641    4.40538357
 H                 -8.99832725    7.01167260    4.37759148
 H                -10.32031430    6.41011384    3.40622898
 H                -10.64708030    7.23688380    4.91047031
 C                 -5.71187309    1.83600773   10.60333508
 H                 -6.09755136    2.27565704   11.49936006
 H                 -6.35164664    1.03581198   10.29466606
 H                 -4.72866901    1.45595448   10.78709928
 C                 -5.04686731    4.08167131   10.07687089
 H                 -4.00941662    3.91002267   10.27469104
 H                 -5.14766180    4.86947976    9.35986440
 H                 -5.54171971    4.35950979   10.98396894
