66
K:1,35;
 P                 -3.70217701   -1.25734893   -0.08256388
 C                 -4.86243201   -0.11660893    0.78631112
 C                 -4.67340301   -1.76366193   -1.56220488
 C                 -4.36431201    0.60854207    1.87665312
 C                 -5.18502501    1.48137707    2.58430712
 C                 -6.51023901    1.66155907    2.19546512
 C                 -7.00886601    0.96000807    1.10150812
 C                 -6.19375001    0.07243807    0.40210312
 C                 -4.35691301   -1.19964893   -2.79979688
 C                 -5.10039101   -1.51980893   -3.93449588
 C                 -6.16265901   -2.41353093   -3.84236288
 C                 -6.48519801   -2.98442593   -2.61170788
 C                 -5.74705001   -2.66030293   -1.47789688
 H                 -3.32631801    0.48801507    2.17684512
 H                 -4.77772901    2.02592607    3.43073612
 H                 -8.03794501    1.10270407    0.78630412
 H                 -6.59846701   -0.46326893   -0.45014188
 H                 -3.51552501   -0.51562893   -2.86873888
 H                 -4.84125701   -1.07602693   -4.89058588
 H                 -7.31204801   -3.68376293   -2.53512988
 H                 -6.00408001   -3.10695593   -0.52082988
 Rh                -1.51797701   -0.47807093   -0.51525488
 C                 -1.90987101    1.43171107   -0.27013788
 H                 -1.24126501   -2.02477293   -0.69239888
 P                 -0.11327301   -0.61976193    1.40841712
 C                  1.38926099    0.44422007    1.35806112
 C                 -0.91769001   -0.03404793    2.96203712
 C                  1.92150199    0.79502107    0.11509812
 C                  3.08051799    1.56506007    0.03264012
 C                  3.71312399    1.99886107    1.19327612
 C                  3.18799399    1.65773607    2.43921412
 C                  2.03461099    0.88435407    2.52186012
 C                 -1.09509001    1.34405807    3.15285812
 C                 -1.85298901    1.82088807    4.21768012
 C                 -2.45871601    0.92759807    5.10160012
 C                 -2.28618601   -0.44144893    4.91993612
 C                 -1.51561201   -0.92143093    3.86125712
 H                  1.41634499    0.46564207   -0.78865988
 H                  3.48210799    1.83032907   -0.94026188
 H                  3.67688699    1.99540507    3.34782212
 H                  1.63001699    0.62125507    3.49582212
 H                 -0.64066001    2.04917607    2.46057912
 H                 -1.97646901    2.89135607    4.35203412
 H                 -2.74894601   -1.14452493    5.60646212
 H                 -1.39245301   -1.99302193    3.73278412
 O                 -2.14439301    2.53672507   -0.09915488
 O                 -3.77735214   -2.67426924    0.87178697
 O                  0.51259299   -2.14494525    1.86251797
 H                 -3.82002942   -0.14009180   -0.77898513
 H                 -0.24825384    0.59009584    1.07347964
 C                  4.98772665    2.85850387    1.10382034
 H                  4.71866600    3.89383051    1.07922157
 H                  5.60524831    2.67064940    1.95721222
 H                  5.52486582    2.60831569    0.21287288
 C                 -3.30851719    1.45351024    6.27328879
 H                 -4.16379954    0.82404140    6.40428908
 H                 -2.72259608    1.45000267    7.16860111
 H                 -3.62960198    2.45189306    6.06107119
 C                 -6.97785515   -2.77709101   -5.09730484
 H                 -7.13129478   -1.89929519   -5.68961454
 H                 -6.44375934   -3.50553692   -5.67089723
 H                 -7.92491362   -3.17904426   -4.80334255
 C                 -7.41681533    2.64058682    2.96437606
 H                 -7.67852546    2.21585177    3.91095302
 H                 -6.89610377    3.56248839    3.11883312
 H                 -8.30571046    2.82365360    2.39758509
