36
K:1,35;
 P                 -3.66729205   -1.33590248   -0.11131502
 Rh                -1.48353609   -0.55605484   -0.54521927
 C                 -1.87505234    1.35335744   -0.29664273
 H                 -1.20710606   -2.10248910   -0.72511957
 P                 -0.07668585   -0.70086197    1.37665141
 O                 -2.10932311    2.45811180   -0.12364936
 Cl                 0.67046957   -2.52127254    1.91467013
 Cl                -0.96418143   -0.05590165    3.09652867
 Cl                -3.41081816   -3.10315388    0.07249652
 Cl                -4.94933240   -0.07575440    0.85304973
 C                  1.40806934    0.35053041    1.32689125
 C                  2.17568115    0.02996802    0.06181664
 C                  0.96595907    1.79856369    1.32978849
 C                  2.24681445    0.04715392    2.55032485
 H                  2.47776012   -1.04479608    0.05242368
 H                  1.54450759    0.23043862   -0.83700383
 H                  3.09735196    0.65663870   -0.00676338
 H                  0.37837780    2.02367486    2.25203993
 H                  1.85118078    2.47858556    1.30005028
 H                  0.32679931    2.01160476    0.43953325
 H                  3.17104528    0.67382603    2.55701003
 H                  1.66819708    0.26094055    3.48089088
 H                  2.54875487   -1.02767425    2.55765187
 C                 -4.62914838   -1.83409824   -1.57385848
 C                 -5.04330040   -0.58312683   -2.31947939
 C                 -3.75203201   -2.70821149   -2.44498601
 C                 -5.84653168   -2.60163275   -1.10355103
 H                 -5.66884615    0.07015186   -1.66497404
 H                 -4.14301218   -0.00689178   -2.64178522
 H                 -5.63775315   -0.84667856   -3.22725847
 H                 -3.42795542   -3.61661739   -1.88262707
 H                 -4.30774859   -3.03634492   -3.35627033
 H                 -2.84297919   -2.14668721   -2.76868268
 H                 -6.46581631   -2.92590923   -1.97435328
 H                 -5.53673424   -3.50965557   -0.53260792
 H                 -6.47698299   -1.96184321   -0.44046900
