61

Rh     -1.596300000000000      4.802990000000000     -0.272780000000000
H      -2.840420000000000      4.190290000000000     -0.914380000000000
C      -0.884010000000000      4.709930000000000     -1.959640000000000
O      -0.467430000000000      4.751430000000000     -3.031090000000000
P       0.343980000000000      5.554390000000000      0.646980000000000
P      -2.826880000000000      5.230530000000000      1.582470000000000
O      -0.758700000000000      3.040890000000000      1.790430000000000
C       0.697860000000000      4.950950000000000      2.366630000000000
C      -2.485810000000000      4.207320000000000      3.108610000000000
C       0.452170000000000      3.439740000000000      2.404510000000000
C      -1.863510000000000      2.883920000000000      2.652780000000000
C       1.855190000000000      4.894890000000000     -0.143840000000000
C       0.745240000000000      7.327210000000000      0.752330000000000
C      -2.559950000000000      6.957830000000000      2.086460000000000
C      -4.655350000000000      5.118650000000000      1.600780000000000
C       3.069430000000000      5.570840000000000     -0.156450000000000
C       1.017920000000000      8.034140000000001      1.915750000000000
C      -3.452618000000000      7.837988000000000      1.478818000000000
C      -5.207200000000000      3.918130000000000      1.167690000000000
C       1.768180000000000      3.627780000000000     -0.712990000000000
C       0.703070000000000      8.005830000000000     -0.464820000000000
C      -1.607004000000000      7.428837000000000      2.978479000000000
C      -5.478250000000000      6.145890000000000      2.039680000000000
C       4.177780000000000      4.988140000000000     -0.745470000000000
C       1.256140000000000      9.396910000000000      1.856600000000000
C      -3.412820000000000      9.195201000000001      1.770720000000000
C      -6.585190000000000      3.731880000000000      1.190080000000000
C       2.879840000000000      3.044840000000000     -1.292370000000000
C       0.951600000000000      9.362200000000000     -0.522090000000000
C      -1.538220000000000      8.795520000000000      3.239524000000000
C      -6.860690000000000      5.967010000000000      2.053630000000000
C       4.085480000000000      3.727710000000000     -1.312470000000000
C       1.227620000000000     10.061210000000001      0.643290000000000
C      -2.443176000000000      9.625897999999999      2.635460000000000
C      -7.358760000000000      4.767910000000000      1.632730000000000
H       1.736390000000000      5.159510000000000      2.639450000000000
H       0.033360000000000      5.478850000000000      3.054280000000000
H      -1.798110000000000      4.736620000000000      3.770350000000000
H      -3.411870000000000      4.010250000000000      3.654090000000000
H       0.486270000000000      3.068290000000000      3.438670000000000
H       1.246620000000000      2.943290000000000      1.835010000000000
H      -2.594040000000000      2.318620000000000      2.066980000000000
H      -1.570110000000000      2.280820000000000      3.526590000000000
H       3.144410000000000      6.555730000000000      0.283820000000000
H       1.042810000000000      7.534550000000000      2.872580000000000
H      -4.184418000000000      7.431086000000000      0.770388000000000
H      -4.560270000000000      3.135020000000000      0.791840000000000
H       0.813210000000000      3.110060000000000     -0.701430000000000
H       0.468790000000000      7.447920000000000     -1.364390000000000
H      -0.924321000000000      6.750888000000000      3.474485000000000
H      -5.061480000000000      7.089930000000000      2.361770000000000
H       5.117510000000000      5.520980000000000     -0.763120000000000
H       1.462740000000000      9.942530000000000      2.765610000000000
H      -4.117972000000000      9.875081000000000      1.316648000000000
H      -7.014100000000000      2.798620000000000      0.856340000000000
H       2.806370000000000      2.062110000000000     -1.734620000000000
H       0.923120000000000      9.878690000000001     -1.470430000000000
H      -0.786241000000000      9.177334999999999      3.915709000000000
H      -7.503870000000000      6.768170000000000      2.386780000000000
H       4.953030000000000      3.279010000000000     -1.773440000000000
H       1.413460000000000     11.124240000000000      0.605550000000000
