76
K:1,35;
 P                 -3.69624000   -1.31287500   -0.05250400
 C                 -4.85649500   -0.17213500    0.81637100
 C                 -4.66746600   -1.81918800   -1.53214500
 C                 -4.35837500    0.55301600    1.90671300
 C                 -5.17908800    1.42585100    2.61436700
 C                 -6.50430200    1.60603300    2.22552500
 C                 -7.00292900    0.90448200    1.13156800
 C                 -6.18781300    0.01691200    0.43216300
 C                 -4.35097600   -1.25517500   -2.76973700
 C                 -5.09445400   -1.57533500   -3.90443600
 C                 -6.15672200   -2.46905700   -3.81230300
 C                 -6.47926100   -3.03995200   -2.58164800
 C                 -5.74111300   -2.71582900   -1.44783700
 H                 -3.32038100    0.43248900    2.20690500
 H                 -4.77179200    1.97040000    3.46079600
 H                 -7.14338500    2.29619000    2.76756200
 H                 -8.03200800    1.04717800    0.81636400
 H                 -6.59253000   -0.51879500   -0.42008200
 H                 -3.50958800   -0.57115500   -2.83867900
 H                 -4.83532000   -1.13155300   -4.86052600
 H                 -6.73139300   -2.72534800   -4.69697200
 H                 -7.30611100   -3.73928900   -2.50507000
 H                 -5.99814300   -3.16248200   -0.49077000
 Rh                -1.51204000   -0.53359700   -0.48519500
 C                 -1.90393400    1.37618500   -0.24007800
 H                 -1.23532800   -2.08029900   -0.66233900
 P                 -0.10733600   -0.67528800    1.43847700
 C                  0.56626600   -2.31680000    1.92721300
 C                 -0.91175300   -0.08957400    2.99209700
 C                  1.87974200   -2.50659400    2.36716200
 C                  2.31983100   -3.77499400    2.73964300
 C                  1.45384600   -4.86341800    2.68779500
 C                  0.14427300   -4.68268600    2.24905100
 C                 -0.29236600   -3.42032100    1.85901700
 C                 -1.08915300    1.28853200    3.18291800
 C                 -1.84705200    1.76536200    4.24774000
 C                 -2.45277900    0.87207200    5.13166000
 C                 -2.28024900   -0.49697500    4.94999600
 C                 -1.50967500   -0.97695700    3.89131700
 H                  2.56934700   -1.67020700    2.41065700
 H                  3.34513400   -3.90975600    3.07021500
 H                  1.80039700   -5.84973000    2.98061100
 H                 -0.54171300   -5.52260900    2.19584700
 H                 -1.30764300   -3.29016800    1.49584900
 H                 -0.63472300    1.99365000    2.49063900
 H                 -1.97053200    2.83583000    4.38209400
 H                 -3.05185800    1.24282100    5.95765800
 H                 -2.74300900   -1.20005100    5.63652200
 H                 -1.38651600   -2.04854800    3.76284400
 O                 -2.13845600    2.48119900   -0.06909500
 C                 -3.77625096   -2.82094223    0.96323784
 C                 -2.72887316   -3.79066146    0.45821680
 C                 -3.50060550   -2.44034367    2.40248577
 C                 -5.16232718   -3.41428586    0.82519271
 H                 -2.92163964   -4.04882844   -0.61073067
 H                 -1.71087933   -3.33918750    0.53763092
 H                 -2.74538971   -4.73259433    1.05770501
 H                 -4.26020026   -1.70557627    2.76249572
 H                 -3.54098663   -3.34147912    3.06070749
 H                 -2.48777372   -1.97995410    2.49564851
 H                 -5.25258932   -4.34521734    1.43526205
 H                 -5.93320292   -2.68641037    1.17505527
 H                 -5.37135535   -3.66931125   -0.24145933
 C                  1.37741919    0.37610438    1.38871684
 C                  2.34473671   -0.21412951    0.38456412
 C                  0.95954200    1.76999662    0.97072956
 C                  1.99217455    0.39661567    2.77218189
 H                  2.63044123   -1.25117743    0.68349943
 H                  1.87805815   -0.25138503   -0.62897914
 H                  3.27248466    0.40433139    0.32384931
 H                  0.22667443    2.19115045    1.70011907
 H                  1.84544628    2.44845254    0.92827067
 H                  0.48369707    1.74675463   -0.03897212
 H                  2.90965529    1.03305706    2.78387351
 H                  1.26658407    0.80900934    3.51373826
 H                  2.27490052   -0.63652068    3.08709872
