64

P       1.951620000000000     -0.672260000000000      1.195000000000000
C       3.138830000000000     -0.564860000000000     -0.184860000000000
C       1.953500000000000     -2.491930000000000      1.381930000000000
C       2.752610000000000      0.126380000000000     -1.325870000000000
C       3.606160000000000      0.212220000000000     -2.411080000000000
C       4.850840000000000     -0.392880000000000     -2.357420000000000
C       5.238380000000000     -1.088390000000000     -1.222310000000000
C       4.384170000000000     -1.181790000000000     -0.139480000000000
C       1.447590000000000     -3.193190000000000      0.289280000000000
C       1.371450000000000     -4.570680000000000      0.308070000000000
C       1.791960000000000     -5.267960000000000      1.430530000000000
C       2.283430000000000     -4.579230000000000      2.524930000000000
C       2.364790000000000     -3.196420000000000      2.504440000000000
H       1.776390000000000      0.603000000000000     -1.337920000000000
H       3.302990000000000      0.749600000000000     -3.298080000000000
H       5.521310000000000     -0.326340000000000     -3.201960000000000
H       6.208890000000000     -1.562190000000000     -1.185440000000000
H       4.678370000000000     -1.738690000000000      0.739710000000000
H       1.111350000000000     -2.634100000000000     -0.577320000000000
H       0.980720000000000     -5.104250000000000     -0.546240000000000
H       1.730540000000000     -6.346150000000000      1.452800000000000
H       2.604890000000000     -5.120320000000000      3.403690000000000
H       2.748620000000000     -2.678690000000000      3.371070000000000
P      -1.780650000000000      1.761030000000000      0.731660000000000
C      -3.409020000000000      1.162470000000000      1.309850000000000
C      -2.050600000000000      2.114920000000000     -1.035110000000000
C      -4.054279970000000      0.035223670000000      0.819833940000000
C      -5.292928410000000     -0.324670560000000      1.322464330000000
C      -5.896081660000000      0.437635700000000      2.308464410000000
C      -5.254150790000000      1.561012800000000      2.805197690000000
C      -4.013333620000000      1.915361920000000      2.312342280000000
C      -1.428550000000000      1.233540000000000     -1.915760000000000
C      -1.543480000000000      1.403680000000000     -3.282230000000000
C      -2.281680000000000      2.464990000000000     -3.781760000000000
C      -2.894400000000000      3.353030000000000     -2.913010000000000
C      -2.780560000000000      3.183610000000000     -1.543900000000000
H      -3.585316960000000     -0.569635840000000      0.056760930000000
H      -5.788302240000000     -1.207530430000000      0.944228140000000
H      -6.862242090000000      0.151048190000000      2.697395390000000
H      -5.717891600000000      2.151467580000000      3.582163170000000
H      -3.484700330000000      2.775230680000000      2.711599310000000
H      -0.841100000000000      0.413130000000000     -1.494710000000000
H      -1.057540000000000      0.716000000000000     -3.959200000000000
H      -2.374380000000000      2.605150000000000     -4.848850000000000
H      -3.462660000000000      4.184670000000000     -3.304770000000000
H      -3.256500000000000      3.888160000000000     -0.876810000000000
Rh     -0.000200000000000      0.416450000000000      0.985420000000000
C      -1.005350000000000     -1.118140000000000      1.178180000000000
O      -1.604740000000000     -2.095620000000000      1.305610000000000
H       0.866700000000000      1.692690000000000      0.837510000000000
C      -1.792490000000000      3.450990000000000      1.489050000000000
H      -2.316411220000000      3.436361070000000      2.449229850000000
H      -2.333263020000000      4.098735340000000      0.792506670000000
C      -0.363184270000000      3.946024310000000      1.661984830000000
H       0.174045400000000      3.832844210000000      0.717434880000000
H      -0.346307530000000      4.996036630000000      1.948875420000000
H       0.154736760000000      3.370581760000000      2.427692050000000
C       2.932260000000000     -0.057890000000000      2.632850000000000
H       2.514169030000000     -0.383713200000000      3.588689120000000
H       3.928665900000000     -0.497103570000000      2.523352200000000
C       3.022985860000000      1.461364490000000      2.529062990000000
H       3.323456800000000      1.725145720000000      1.505093530000000
H       2.058582860000000      1.928270120000000      2.724012860000000
H       3.754374160000000      1.865838900000000      3.226873270000000
