44

P       1.470206770000000      0.333199800000000      0.453145310000000
C       2.859198290000000     -0.781829480000000      0.854530560000000
C       3.479558240000000     -0.851000770000000      2.095806420000000
C       4.516427770000000     -1.743175360000000      2.302987860000000
C       4.942569690000000     -2.569288360000000      1.275599680000000
C       4.331487750000000     -2.502890900000000      0.033876650000000
C       3.294012730000000     -1.613147530000000     -0.173159680000000
H       3.157096720000000     -0.211695380000000      2.905747000000000
H       4.994938780000000     -1.796388710000000      3.270609150000000
H       5.751856870000000     -3.264734210000000      1.444165500000000
H       4.664626200000000     -3.145982540000000     -0.767845090000000
H       2.793531870000000     -1.536165550000000     -1.146339010000000
P      -2.111212010000000     -1.162844150000000     -1.005245600000000
C      -2.844149450000000      0.500319570000000     -1.180694890000000
C      -2.066348110000000      1.562880490000000     -0.730771320000000
C      -2.536673130000000      2.860417860000000     -0.807693750000000
C      -3.794201100000000      3.105454820000000     -1.335200890000000
C      -4.573430060000000      2.052851970000000     -1.787226690000000
C      -4.102291390000000      0.754182690000000     -1.712686650000000
H      -1.073799810000000      1.338791640000000     -0.320662440000000
H      -1.928147560000000      3.681191200000000     -0.456519450000000
H      -4.168421770000000      4.117111570000000     -1.394843150000000
H      -5.553862950000000      2.246528710000000     -2.198740190000000
H      -4.720326200000000     -0.057882490000000     -2.069457040000000
Rh     -0.158430000000000     -1.074230000000000     -0.009160000000000
C      -0.808030000000000     -1.182000000000000      1.713310000000000
O      -1.215410000000000     -1.248430000000000      2.792340000000000
H       0.387030000000000     -0.981750000000000     -1.455040000000000
C       1.471847840000000      1.471892530000000      1.900395260000000
H       1.229704560000000      0.906237840000000      2.798721890000000
H       2.436681920000000      1.960764730000000      2.026375160000000
H       0.701944730000000      2.228802760000000      1.747575710000000
C      -3.490761690000000     -2.102840370000000     -0.228036040000000
H      -3.689461520000000     -1.691200810000000      0.760252640000000
H      -4.396874820000000     -2.058958430000000     -0.830383000000000
H      -3.182648410000000     -3.142832460000000     -0.116453860000000
C      -2.229454930000000     -1.812139140000000     -2.720592210000000
H      -1.871698100000000     -2.841816370000000     -2.726069420000000
H      -3.252894770000000     -1.778061640000000     -3.092999770000000
H      -1.581876020000000     -1.216824160000000     -3.361693580000000
C       2.223525120000000      1.441207890000000     -0.804954080000000
H       1.490983770000000      2.200233300000000     -1.079803810000000
H       3.125436300000000      1.922561340000000     -0.427980240000000
H       2.459936780000000      0.851650750000000     -1.688847640000000
