120
K:1,35;
 P                 -3.69624000   -1.31287500   -0.05250400
 C                 -4.85649500   -0.17213500    0.81637100
 C                 -3.77723900   -2.83956500    0.97578100
 C                 -4.66746600   -1.81918800   -1.53214500
 C                 -5.83687876   -0.74524300    1.63686359
 C                 -6.75109288    0.05398481    2.31629894
 C                 -6.68185363    1.44063646    2.20557884
 C                 -5.69913451    2.02002293    1.40800812
 C                 -4.79355035    1.22110529    0.71301900
 C                 -3.67432999   -2.80187088    2.36823583
 C                 -3.56588521   -3.98502855    3.09938876
 C                 -3.57610602   -5.21600313    2.45104769
 C                 -3.69459643   -5.26224451    1.06147354
 C                 -3.78478729   -4.08335990    0.32919485
 C                 -4.35097600   -1.25517500   -2.76973700
 C                 -5.09445400   -1.57533500   -3.90443600
 C                 -6.15672200   -2.46905700   -3.81230300
 C                 -6.47926100   -3.03995200   -2.58164800
 C                 -5.74111300   -2.71582900   -1.44783700
 H                 -7.50665208   -0.41435486    2.93972010
 H                 -7.38545598    2.06727816    2.74484852
 H                 -5.63259975    3.10046205    1.32467898
 H                 -3.47883734   -3.93951532    4.18103881
 H                 -3.49458798   -6.13534808    3.02275490
 H                 -3.70633906   -6.21782162    0.54576184
 H                 -4.83532000   -1.13155300   -4.86052600
 H                 -6.73139300   -2.72534800   -4.69697200
 H                 -7.30611100   -3.73928900   -2.50507000
 Rh                -1.51204000   -0.53359700   -0.48519500
 C                 -1.90393400    1.37618500   -0.24007800
 H                 -1.23532800   -2.08029900   -0.66233900
 P                 -0.10733600   -0.67528800    1.43847700
 C                  1.39519800    0.38869400    1.38812100
 C                  0.56626600   -2.31680000    1.92721300
 C                 -0.91175300   -0.08957400    2.99209700
 C                  1.92743900    0.73949500    0.14515800
 C                  3.08645500    1.50953400    0.06270000
 C                  3.71906100    1.94333500    1.22333600
 C                  3.19393100    1.60221000    2.46927400
 C                  2.04054800    0.82882800    2.55192000
 C                  0.50901243   -3.44524747    1.10372989
 C                  1.05556567   -4.65420664    1.52911944
 C                  1.67319869   -4.74806506    2.77290603
 C                  1.73279788   -3.62869108    3.59970202
 C                  1.17146564   -2.42487659    3.18487394
 C                 -1.08915300    1.28853200    3.18291800
 C                 -1.84705200    1.76536200    4.24774000
 C                 -2.45277900    0.87207200    5.13166000
 C                 -2.28024900   -0.49697500    4.94999600
 C                 -1.50967500   -0.97695700    3.89131700
 H                  3.48804500    1.77480300   -0.91020200
 H                  4.61758000    2.54933200    1.16027500
 H                  3.68282400    1.93987900    3.37788200
 H                  0.99555182   -5.52498207    0.88349309
 H                  2.09932107   -5.69160151    3.09972228
 H                  2.20463957   -3.68702344    4.57583770
 H                 -1.97053200    2.83583000    4.38209400
 H                 -3.05185800    1.24282100    5.95765800
 H                 -2.74300900   -1.20005100    5.63652200
 O                 -2.13845600    2.48119900   -0.06909500
 O                  1.50827424    0.48270153    3.83324007
 O                  1.26256687    0.30597648   -1.04434052
 O                 -6.07925221   -3.30342925   -0.18875487
 O                 -3.24362206   -0.35493368   -2.86047183
 O                 -3.78998835    1.83939186   -0.09660130
 O                 -5.90383640   -2.16674782    1.77736529
 O                 -0.49167742    2.21560721    2.27272325
 O                 -1.34754450   -2.38763417    3.72219097
 O                 -0.12447624   -3.37394103   -0.17631210
 O                  1.20987263   -1.28860335    4.05223086
 O                 -3.87104393   -4.13937668   -1.09710173
 O                 -3.66514905   -1.54763771    3.05505084
 C                  2.11069291    0.52959054   -2.17375584
 H                  2.21389860    1.58161715   -2.33955269
 H                  3.07351606    0.10180447   -1.98701894
 H                  1.67927558    0.07266953   -3.03978256
 C                 -3.17961276    0.19154055   -4.18038422
 H                 -2.95640845   -0.58786939   -4.87866782
 H                 -4.12139053    0.63434506   -4.42913873
 H                 -2.41314423    0.93704613   -4.22097245
 C                 -7.27592250   -4.07389276   -0.32755761
 H                 -7.09209581   -4.90446196   -0.97660504
 H                 -7.58251220   -4.43268703    0.63273892
 H                 -8.04856978   -3.46102969   -0.74266608
 C                 -3.90402403    3.26122971    0.00475451
 H                 -4.86505223    3.56827487   -0.35168353
 H                 -3.79194297    3.55604676    1.02721269
 H                 -3.14040423    3.72325970   -0.58542604
 C                 -0.30682798    3.47415930    2.92600522
 H                  0.35541531    4.08291721    2.34656789
 H                 -1.25128295    3.96750998    3.02352408
 H                  0.11369755    3.31376409    3.89674290
 C                  2.42367874    0.88593498    4.85516834
 H                  2.49288899    1.95357706    4.87098991
 H                  2.07465827    0.53703617    5.80456517
 H                  3.38844172    0.46891168    4.65460923
 C                 -4.29559370   -5.44449518   -1.49875233
 H                 -4.62465621   -5.41504368   -2.51647060
 H                 -3.47833342   -6.12912459   -1.40782262
 H                 -5.10146146   -5.76587405   -0.87249938
 C                 -4.40256511   -1.66579166    4.27454139
 H                 -4.50997385   -0.69954074    4.72144465
 H                 -5.37033853   -2.07286554    4.06813047
 H                 -3.87915554   -2.31337758    4.94653462
 C                 -0.18720103   -4.68170854   -0.75138577
 H                  0.80497426   -5.04618369   -0.91765684
 H                 -0.70200553   -5.34060275   -0.08375207
 H                 -0.71150577   -4.63687809   -1.68304814
 C                  1.27925613   -1.72769632    5.41137887
 H                  1.78897903   -0.99234417    5.99818359
 H                  0.28902914   -1.86474439    5.79291306
 H                  1.81167653   -2.65455236    5.46002438
 C                 -1.22379031   -3.01088104    5.00326406
 H                 -0.98451452   -4.04583803    4.87476850
 H                 -0.44567440   -2.53130641    5.55954080
 H                 -2.14858281   -2.92184401    5.53404767
 C                 -6.95999441   -2.50807927    2.67898777
 H                 -7.31161711   -3.49449708    2.45934854
 H                 -6.59529899   -2.47505484    3.68437657
 H                 -7.76333891   -1.81008761    2.56787851
