96
K:1,35;
 P                 -3.69624000   -1.31287500   -0.05250400
 C                 -4.85649500   -0.17213500    0.81637100
 C                 -4.35837500    0.55301600    1.90671300
 C                 -5.17908800    1.42585100    2.61436700
 C                 -6.50430200    1.60603300    2.22552500
 C                 -7.00292900    0.90448200    1.13156800
 C                 -6.18781300    0.01691200    0.43216300
 H                 -3.32038100    0.43248900    2.20690500
 H                 -4.77179200    1.97040000    3.46079600
 H                 -8.03200800    1.04717800    0.81636400
 H                 -6.59253000   -0.51879500   -0.42008200
 Rh                -1.51204000   -0.53359700   -0.48519500
 C                 -1.90393400    1.37618500   -0.24007800
 H                 -1.23532800   -2.08029900   -0.66233900
 P                 -0.10733600   -0.67528800    1.43847700
 C                  0.56626600   -2.31680000    1.92721300
 C                  1.39695917   -2.50561159    3.03585863
 C                  1.85729376   -3.78002215    3.36024850
 C                  1.48644156   -4.87893790    2.59074356
 C                  0.66045465   -4.69872222    1.48376130
 C                  0.21428518   -3.42443942    1.14689086
 H                  1.69881807   -1.65998868    3.64478652
 H                  2.50955668   -3.91083557    4.21822624
 H                  0.36782363   -5.54444269    0.86894257
 H                 -0.41052639   -3.28726050    0.26916048
 O                 -2.13845600    2.48119900   -0.06909500
 C                 -0.90086963   -0.09749843    2.97107727
 C                 -2.35575546    0.19610700    2.67190344
 C                 -0.78060946   -1.19151102    4.01076195
 C                 -0.18821708    1.15625003    3.43212126
 H                 -2.43936996    0.98536636    1.88670533
 H                 -2.87105478   -0.72484297    2.30753475
 H                 -2.88013317    0.55446570    3.59032790
 H                  0.29347021   -1.42264080    4.20927239
 H                 -1.25696749   -0.87476008    4.96976323
 H                 -1.28539170   -2.12201633    3.65604963
 H                 -0.64719524    1.54423322    4.37327659
 H                  0.88975155    0.94098143    3.62731089
 H                 -0.25697235    1.95157908    2.65160751
 C                  1.37741919    0.37610438    1.38871684
 C                  2.18721501   -0.00199828    0.16655850
 C                  0.93431253    1.82160659    1.30840413
 C                  2.17496774    0.13281259    2.65245963
 H                  2.49029066   -1.07528752    0.21806719
 H                  1.58633350    0.15431938   -0.76131702
 H                  3.11016849    0.62292215    0.09926983
 H                  0.31600123    2.08860833    2.19883980
 H                  1.81949448    2.50156568    1.27615302
 H                  0.32515254    1.99086605    0.38821859
 H                  3.09795957    0.76129359    2.66039546
 H                  1.56534586    0.38891624    3.55203064
 H                  2.47734511   -0.93975168    2.72065868
 C                 -4.65643139   -1.81343551   -1.51533402
 C                 -4.67256748   -0.65682737   -2.49226756
 C                 -3.98732486   -3.02327886   -2.13246108
 C                 -6.06254009   -2.15260987   -1.06796448
 H                 -5.14403226    0.24049630   -2.02430499
 H                 -3.63211564   -0.39313672   -2.79947107
 H                 -5.25394333   -0.92473507   -3.40721238
 H                 -3.95455649   -3.86517347   -1.39992153
 H                 -4.54838297   -3.36292042   -3.03622487
 H                 -2.94226222   -2.77602174   -2.43770538
 H                 -6.68640021   -2.46527714   -1.93974599
 H                 -6.04397340   -2.98899796   -0.32866335
 H                 -6.54287917   -1.26531527   -0.58998964
 C                 -3.77625096   -2.82094223    0.96323784
 C                 -2.81559991   -3.83700592    0.38257784
 C                 -3.38056384   -2.46194991    2.37986288
 C                 -5.19565904   -3.34631855    0.92347788
 H                 -3.09638456   -4.07972815   -0.67037215
 H                 -1.77393608   -3.43534725    0.38989593
 H                 -2.83473402   -4.78035171    0.97976210
 H                 -4.07618742   -1.69357421    2.79480999
 H                 -3.41731401   -3.36372451    3.03742167
 H                 -2.34263156   -2.05121413    2.40128205
 H                 -5.28697868   -4.27519529    1.53651457
 H                 -5.90357833   -2.58422943    1.32909639
 H                 -5.49232952   -3.58513516   -0.12601273
 N                  1.97330316   -6.22149108    2.93919258
 N                 -7.36967031    2.54055949    2.95948544
 C                  3.44154063   -6.24336030    2.87063253
 H                  3.84503276   -5.67631779    3.68337904
 H                  3.78658469   -7.25415342    2.93498987
 H                  3.76172106   -5.81552809    1.94362439
 C                  1.54133114   -6.56076390    4.30271527
 H                  1.78301741   -7.58237289    4.50960371
 H                  2.04257597   -5.92663950    5.00381431
 H                  0.48397150   -6.42023288    4.38722347
 C                 -7.96641275    3.49849008    2.01758978
 H                 -8.69585959    2.99885594    1.41495140
 H                 -8.43621658    4.28984899    2.56342440
 H                 -7.20152539    3.90403425    1.38879628
 C                 -8.43676247    1.79063101    3.63758690
 H                 -9.01405236    2.45908286    4.24158071
 H                 -9.07037062    1.33255555    2.90710242
 H                 -8.00259101    1.03438853    4.25766145
