78
e
 Rh                -1.90429000   -0.56448000    0.89517000
 C                 -1.33295292    0.92604655   -0.03292724
 O                 -0.97602101    1.86201358   -0.60201778
 H                 -2.38307855   -1.81024193    1.68063011
 P                  0.20012982   -1.06269095    1.67824284
 C                  0.87946433    0.07651029    2.94611876
 C                  0.37427668   -2.67246966    2.52455696
 C                  1.52468129   -1.16328574    0.42048682
 C                 -0.30086134    0.45596944    3.77546079
 H                  1.29695344    0.98154098    2.48930954
 H                  1.66929193   -0.36472772    3.56402754
 C                  1.62265893   -3.28237220    2.60031409
 C                 -0.74361977   -3.28018127    3.08747643
 C                  1.24569207   -1.69543705   -0.83329416
 C                  2.80139312   -0.70765640    0.72905109
 C                 -0.64154829   -0.30534845    4.89348993
 C                 -1.06439391    1.57187299    3.43269454
 C                  1.75425936   -4.51225920    3.24544011
 H                  2.53010076   -2.84519548    2.20337134
 C                 -0.61204893   -4.50980003    3.73273348
 H                 -1.72669098   -2.81874962    3.03503996
 C                  2.25677743   -1.77295902   -1.79115194
 H                  0.25235873   -2.05616392   -1.08830826
 C                  3.81247847   -0.78517838   -0.22880669
 H                  3.07121532   -0.29917748    1.69682306
 C                 -1.74555361    0.04914796    5.66883126
 H                 -0.04760361   -1.16676095    5.18639845
 C                 -2.16831407    1.92648031    4.20805700
 H                 -0.81125191    2.17587653    2.56520062
 C                  0.63700313   -5.12579066    3.81171809
 H                  2.72750514   -4.98982071    3.31234650
 H                 -1.48190925   -4.98782817    4.17371079
 C                  3.54003079   -1.31781545   -1.48889261
 H                  2.04501206   -2.18815764   -2.77212542
 H                  4.81296172   -0.43441206    0.00707795
 C                 -2.50894635    1.16503727    5.32604941
 H                 -2.00839510   -0.54137323    6.54156411
 H                 -2.76260297    2.79566821    3.94150895
 H                  0.73972543   -6.08248761    4.31530829
 H                  4.32761072   -1.37906585   -2.23426528
 H                 -3.36793367    1.44172812    5.93021240
 P                 -4.10166043   -0.29766731    0.27037070
 C                 -4.52860907   -0.84173426   -1.42918518
 C                 -5.32782957   -1.22835021    1.25439347
 C                 -4.76616952    1.40387009    0.36888100
 C                 -5.57521327   -1.88631318   -1.23312224
 H                 -3.66672273   -1.29429948   -1.93355510
 H                 -4.89269894   -0.03626556   -2.07647849
 C                 -6.64937152   -0.79530529    1.30105687
 C                 -4.93224560   -2.36470384    1.95303354
 C                 -4.36530794    2.24158158    1.40354818
 C                 -5.66871105    1.84583908   -0.59178819
 C                 -6.92228282   -1.52602783   -1.19762907
 C                 -5.20688619   -3.22347831   -1.08467699
 C                 -7.58450684   -1.50581095    2.05393928
 H                 -7.01908787    0.06567037    0.75868390
 C                 -5.86727156   -3.07528700    2.70564756
 H                 -3.90335258   -2.71531246    1.92957077
 C                 -4.87370127    3.53838993    1.47850897
 H                 -3.66091383    1.90933427    2.16203871
 C                 -6.17710438    3.14264743   -0.51682739
 H                 -6.02268783    1.22537170   -1.40785333
 C                 -7.90103766   -2.50271015   -1.01383506
 H                 -7.22897410   -0.49210671   -1.33008571
 C                 -6.18558775   -4.20019840   -0.90100843
 H                 -4.16160992   -3.52037168   -1.11111003
 C                 -7.19346913   -2.64577926    2.75601820
 H                 -8.61856033   -1.17528422    2.08907157
 H                 -5.56302679   -3.96297216    3.25252875
 C                 -5.77948646    3.98884394    0.51835277
 H                 -4.56468966    4.19721603    2.28473686
 H                 -6.88538229    3.49290290   -1.26201784
 C                 -7.53264672   -3.83977902   -0.86547139
 H                 -8.95005701   -2.22260065   -0.99015720
 H                 -5.89889442   -5.24148320   -0.78591001
 H                 -7.92178702   -3.19979641    3.34086182
 H                 -6.17618331    4.99819204    0.57719320
 H                 -8.29465223   -4.60042655   -0.72336965
