52
e
 Rh                -1.90429000   -0.56448000    0.89517000
 C                 -1.33178704    0.92199139   -0.03869461
 O                 -0.97411415    1.85546388   -0.61140565
 H                 -2.38404666   -1.80681575    1.68545115
 P                 -4.10174651   -0.29732472    0.27082000
 C                 -4.88405496   -0.49090386    1.90291103
 C                 -4.41276665   -1.97141426   -0.38584653
 C                 -4.09874592   -0.73800987    3.02895712
 C                 -6.26990620   -0.39311689    2.02680170
 C                 -3.39789118   -2.92450195   -0.36419269
 C                 -5.66426583   -2.28815948   -0.90755733
 C                 -4.69947023   -0.88773629    4.27899818
 H                 -3.01681419   -0.81942086    2.95815551
 C                 -6.87053145   -0.54275040    3.27680331
 H                 -6.90361669   -0.19306496    1.16639991
 C                 -3.63623590   -4.20342770   -0.86767873
 H                 -2.41387092   -2.69807960    0.03888107
 C                 -5.90272564   -3.56695655   -1.41102936
 H                 -6.46804337   -1.55711109   -0.94228653
 C                 -6.08532147   -0.78994932    4.40288884
 H                 -4.08825424   -1.08039920    5.15583193
 H                 -7.94957022   -0.46496480    3.37396962
 C                 -4.88861161   -4.52449776   -1.39112950
 H                 -2.84693686   -4.94928965   -0.85223325
 H                 -6.87712792   -3.81681828   -1.82030958
 H                 -6.55304072   -0.90598072    5.37620528
 H                 -5.07413756   -5.52004948   -1.78359246
 P                  0.20004409   -1.06234748    1.67869154
 C                  0.64163123    0.56828558    2.35636193
 C                  1.11657988   -0.96524676    0.10355541
 C                 -0.25693589    1.63093036    2.26089130
 C                  1.88001532    0.75500334    2.97039465
 C                  0.44272852   -0.64612159   -1.07241259
 C                  2.48671840   -1.21245102    0.08431005
 C                  0.08314762    2.88056621    2.77919988
 H                 -1.22773825    1.51084428    1.78619244
 C                  2.21998767    2.00455790    3.48873539
 H                  2.59473653   -0.05871805    3.06490438
 C                  1.14399436   -0.57354510   -2.27612199
 H                 -0.62647724   -0.44919219   -1.07943223
 C                  3.18805118   -1.13990395   -1.11924234
 H                  3.03104997   -1.47170196    0.98884767
 C                  1.32153171    3.06728398    3.39323260
 H                 -0.61620860    3.70815253    2.70474734
 H                  3.18357835    2.14992014    3.96850552
 C                  2.51657800   -0.82053228   -2.29942619
 H                  0.62155963   -0.32477458   -3.19520673
 H                  4.25642170   -1.33388531   -1.13812716
 H                  1.58615014    4.04006285    3.79727199
 H                  3.06256837   -0.76452585   -3.23661779
 H                  0.07761190   -2.40292741    2.03960084
 H                 -3.87560698    0.83373016   -0.49622291
