90
K:5,48;
 H                  4.28890327    5.18056482    4.80601553
 Rh                 5.71930900    5.56277300    5.41000100
 C                  7.51194718    6.03950791    6.16532686
 O                  8.52856988    6.30866588    6.59346521
 P                  5.45599205    7.31376345    3.94211251
 C                  4.03697514    7.24804443    2.77482792
 C                  5.21218064    8.99437344    4.64716019
 C                  6.82086999    7.65657602    2.76625959
 C                  4.07756117    8.34170153    1.70773639
 C                  3.94205137    5.92919883    1.99417245
 H                  3.11075161    7.34946994    3.35409724
 C                  3.86671664    9.16821063    5.35108098
 C                  6.26608455    9.38205119    5.69445714
 H                  5.26516637    9.73558391    3.83935368
 C                  8.18550428    7.77489756    3.43580291
 C                  7.05020954    6.53642825    1.75789957
 H                  6.68126708    8.60831435    2.24550497
 C                  3.22510733    7.76686415    0.58830935
 H                  5.04685708    8.56394851    1.26765121
 H                  3.66009864    9.28678444    2.07084557
 C                  3.66332143    6.31246862    0.53978661
 H                  3.08609298    5.35859733    2.37937894
 H                  4.79499324    5.25244312    2.07725807
 C                  4.11975664   10.32503300    6.30385914
 H                  3.58248995    8.27440212    5.92107790
 H                  3.05288188    9.39632683    4.65546642
 C                  5.49993306   10.01341247    6.85823028
 H                  6.95973013   10.11721012    5.26907301
 H                  6.86810879    8.54268173    6.05984373
 C                  9.17962269    7.60256037    2.29050593
 H                  8.34262186    6.98136000    4.17783920
 H                  8.33881622    8.73337032    3.93953231
 C                  8.44338068    6.81870312    1.20379660
 H                  6.34369079    6.53412452    0.93305954
 H                  7.04721027    5.54752618    2.23265676
 H                  3.38019360    8.28050717   -0.36488902
 H                  2.16135206    7.83562699    0.84536658
 H                  2.89251735    5.67454802    0.09524009
 H                  4.55898380    6.20540698   -0.07864583
 H                  3.36161792   10.39282371    7.08922683
 H                  4.13479683   11.27460685    5.75604226
 H                  6.00061763   10.90404595    7.24955067
 H                  5.41644910    9.28985029    7.67819805
 H                 10.08364934    7.08342760    2.62463298
 H                  9.48742425    8.57932481    1.89986230
 H                  8.37730682    7.42430299    0.29221461
 H                  8.96561221    5.89225517    0.94438012
 P                  5.32169294    3.63175865    6.59451991
 C                  3.65934455    2.86070179    6.44435191
 C                  6.38364067    2.17349759    6.23853132
 C                  5.47754019    3.70113588    8.42042812
 C                  3.43010516    1.71537163    7.43029590
 C                  2.50189036    3.83931529    6.69012131
 H                  3.54921068    2.47827484    5.42192819
 C                  6.14152875    1.56911820    4.85574263
 C                  7.88746962    2.48043290    6.28465736
 H                  6.18579328    1.39261397    6.98407071
 C                  6.79178784    4.31013837    8.89622646
 C                  4.44294254    4.60229504    9.08498623
 H                  5.45204271    2.70435935    8.87016873
 C                  1.91550304    1.64731202    7.53790974
 H                  3.80034954    1.85646932    8.44302183
 H                  3.83867517    0.76803682    7.06296467
 C                  1.51308158    3.11139967    7.60238244
 H                  2.01078457    4.04450579    5.72921192
 H                  2.77060642    4.82051658    7.08691728
 C                  7.43961992    0.83368356    4.56565875
 H                  5.97476431    2.34078464    4.09331527
 H                  5.28525120    0.88743818    4.83717542
 C                  8.49884096    1.80758279    5.05442531
 H                  8.32632477    2.05243639    7.19393159
 H                  8.12947864    3.54902833    6.28052226
 C                  6.52632483    4.67971768   10.35314692
 H                  7.04659740    5.21579923    8.33066820
 H                  7.63958888    3.62358337    8.82011131
 C                  5.01239570    4.85241402   10.47811171
 H                  3.46263790    4.14644225    9.18860180
 H                  4.33669071    5.56175813    8.56395666
 H                  1.58077586    1.08449242    8.41407174
 H                  1.49063220    1.17466256    6.64433866
 H                  0.47870920    3.25921265    7.27538345
 H                  1.57604765    3.47835035    8.63073765
 H                  7.55464053    0.59170490    3.50528670
 H                  7.48628663   -0.09938689    5.13943727
 H                  9.44639727    1.31016393    5.28192522
 H                  8.69454417    2.56196464    4.28276010
 H                  7.06421718    5.59032380   10.63576362
 H                  6.86493191    3.87820972   11.01973769
 H                  4.61486099    4.12058958   11.19120204
 H                  4.74443199    5.84775280   10.84665569
