68
K:5,37;
 H                  4.29164339    5.17730295    4.80162132
 Rh                 5.71930900    5.56277300    5.41000100
 C                  7.50852322    6.04359564    6.17083413
 O                  8.52320751    6.31507178    6.60209584
 P                  5.45663921    7.31301063    3.94109909
 C                  6.58849057    7.45258075    2.50699460
 C                  4.03837433    7.29984574    2.78136409
 C                  5.41629326    9.04246469    4.53347905
 C                  5.89989692    7.42096313    1.27126649
 C                  7.97411682    7.55801055    2.55877234
 C                  4.44823318    7.33416066    1.42742318
 C                  2.69275554    7.24124885    3.12686661
 C                  5.58359462   10.11948451    3.64017657
 C                  5.21721010    9.33853679    5.89690220
 C                  6.62301014    7.49752637    0.08320469
 C                  8.68614803    7.63506980    1.36217806
 H                  8.50390052    7.57857797    3.50624093
 C                  3.48596458    7.31018978    0.42071506
 C                  1.73912383    7.21846848    2.10958320
 H                  2.37726478    7.21086835    4.16527496
 C                  5.55323383   11.43887044    4.09166185
 H                  5.72651189    9.97132641    2.57412253
 C                  5.18673896   10.65805249    6.34841882
 H                  5.08322969    8.53693195    6.62064491
 C                  8.01599254    7.60389208    0.13371707
 H                  6.12880804    7.48107601   -0.88333611
 H                  9.76942280    7.71807412    1.38246979
 C                  2.13270213    7.25176461    0.76667024
 H                  3.76245717    7.34018914   -0.62868084
 H                  0.68287633    7.17309263    2.35992876
 C                  5.35480383   11.70809492    5.44570264
 H                  5.68061662   12.25713273    3.38899355
 H                  5.03187427   10.86800279    7.40275651
 H                  8.58487745    7.66492077   -0.79021842
 H                  1.37774500    7.23367205   -0.01485603
 H                  5.33011831   12.73541004    5.79721445
 P                  5.32233285    3.63100384    6.59350336
 C                  5.63081727    2.01294557    5.79103977
 C                  6.47644807    3.15190570    7.93332309
 C                  3.70508149    3.33066427    7.39215683
 C                  6.58821596    1.23880293    6.48837454
 C                  5.04158360    1.54888351    4.62005447
 C                  7.06950405    1.88707045    7.70794750
 C                  6.79331562    3.90779771    9.05658518
 C                  3.34066173    2.04196818    7.83080402
 C                  2.78551565    4.38066267    7.58739395
 C                  6.94757375   -0.01267436    5.99348863
 C                  5.40921221    0.29382075    4.13587360
 H                  4.30964538    2.14354179    4.08205958
 C                  7.98742323    1.38816489    8.62909587
 C                  7.71328769    3.39678969    9.97163716
 H                  6.34191823    4.88012700    9.22853121
 C                  2.10697423    1.81234437    8.43976053
 H                  4.00152896    1.18659840    7.72860603
 C                  1.55175144    4.15104100    8.19650574
 H                  3.02693511    5.39136086    7.26408237
 C                  6.35579530   -0.48064102    4.81659840
 H                  7.67479116   -0.63668121    6.50385881
 H                  4.95946547   -0.08585197    3.22243932
 C                  8.30656071    2.14687519    9.75910812
 H                  8.45882035    0.41986095    8.49215752
 H                  7.97327311    3.97268829   10.85545786
 C                  1.21260967    2.86684299    8.62259227
 H                  1.84349408    0.81344475    8.77487251
 H                  0.85523147    4.97210817    8.33933010
 H                  6.63187825   -1.45674038    4.42670153
 H                  9.02152349    1.76194652   10.48141628
 H                  0.25240116    2.68837258    9.09766512
