54
K:5,30;
 H                  4.28890327    5.18056482    4.80601553
 Rh                 5.71930900    5.56277300    5.41000100
 C                  7.51194718    6.03950791    6.16532686
 O                  8.52856988    6.30866588    6.59346521
 P                  5.45599205    7.31376345    3.94211251
 C                  6.39440190    7.25808209    2.36679437
 C                  3.77071019    7.64374260    3.29774764
 C                  5.90910249    8.99334718    4.52393140
 C                  7.87842089    6.98968495    2.59942413
 H                  6.01566004    6.44773837    1.73604743
 H                  6.25491199    8.18909203    1.80440156
 C                  3.29655220    6.53964900    2.35699007
 H                  3.07595021    7.73984238    4.14047340
 H                  3.75390551    8.60372379    2.76704241
 C                  5.25179532    9.32768969    5.85990916
 H                  6.99722510    9.04927981    4.64510061
 H                  5.64401045    9.74480576    3.77042536
 C                  8.61383141    6.97036141    1.32683644
 H                  8.31967895    7.75695927    3.24575733
 H                  8.01740333    6.02909425    3.11118641
 C                  1.95403755    6.83488884    1.83637685
 H                  3.95672887    6.42836625    1.49232229
 H                  3.28161943    5.57316617    2.87538790
 C                  5.61106818   10.68448599    6.29624210
 H                  4.15994029    9.26001976    5.78330087
 H                  5.55955274    8.60766827    6.62819055
 N                  9.19594860    6.95457475    0.32325220
 N                  0.89406998    7.06607863    1.42447817
 N                  5.89401037   11.75522495    6.64261410
 P                  5.32169294    3.63175865    6.59451991
 C                  5.13969243    3.76687110    8.41494874
 C                  3.80724104    2.67823761    6.19264890
 C                  6.57456878    2.29543986    6.49767971
 C                  6.29581526    4.53799512    9.04519770
 H                  4.22053323    4.30902102    8.65818505
 H                  5.04933974    2.77146296    8.86608244
 C                  2.54151334    3.41904623    6.61456036
 H                  3.78217935    2.48075040    5.11446338
 H                  3.83728489    1.70059073    6.68943685
 C                  6.93421193    1.95826120    5.05350466
 H                  7.48349344    2.61782238    7.01897303
 H                  6.22063933    1.39913561    7.02123275
 C                  6.14065351    4.61574471   10.50484194
 H                  7.25574930    4.05881293    8.82142053
 H                  6.34740486    5.55362392    8.63314441
 C                  1.34238633    2.62818923    6.30280746
 H                  2.52297991    3.61621960    7.69003544
 H                  2.47839785    4.39058427    6.10940828
 C                  7.92256981    0.87173187    4.99907739
 H                  6.04300974    1.65197708    4.49266231
 H                  7.33957427    2.84133311    4.54432183
 N                  6.01973065    4.67828007   11.65712574
 N                  0.39448567    2.00544149    6.05722634
 N                  8.70323245    0.01437720    4.95412630
