116
K:5,61;
 H                  4.29027050    5.17892982    4.80381994
 Rh                 5.71930900    5.56277300    5.41000100
 C                  7.51023889    6.04155732    6.16807797
 O                  8.52589461    6.31187758    6.59777623
 P                  5.45599205    7.31376345    3.94211251
 O                  6.16413752    8.73360850    4.31372553
 O                  3.94000095    7.79560045    3.58764632
 N                  6.07417602    7.12620772    2.36983471
 C                  5.59832719    9.53312328    5.28106842
 C                  3.63859971    8.99285112    2.97406002
 C                  5.63999739    5.90913249    1.68172177
 C                  7.52667699    7.27163429    2.26074866
 C                  4.41775364   10.25034413    4.99348560
 C                  6.21488303    9.58899572    6.52629307
 C                  3.90409727   10.23480841    3.59285149
 C                  3.04819884    8.91289431    1.71531018
 C                  6.01823238    5.97299213    0.20451924
 C                  4.13425286    5.73764268    1.85484563
 H                  6.07790577    5.00105148    2.11445656
 C                  8.22750784    6.07256618    2.89307246
 C                  7.95817897    8.57340751    2.92851986
 H                  7.83872369    7.36670126    1.21514362
 C                  3.75997690   10.92268775    6.06946427
 C                  5.61705679   10.31718269    7.54634208
 H                  7.14116393    9.05353659    6.71263058
 C                  3.71080133   11.42686648    2.82345527
 C                  2.77995058   10.07707678    1.00813647
 H                  2.69533217    7.99373791    1.28202267
 H                  5.49692404    5.18763487   -0.35573538
 H                  5.73391079    6.93054520   -0.24694479
 H                  7.08605231    5.80653922    0.03305953
 H                  3.73278593    5.62615803    2.86293970
 H                  3.88849186    4.75678458    1.41551765
 H                  3.56715967    6.40955271    1.23025084
 H                  9.30532314    6.27268111    2.94820480
 H                  7.90901663    5.85253894    3.91697018
 H                  8.13453357    5.16072424    2.29541105
 H                  7.36457178    9.45131092    2.64362344
 H                  8.93875195    8.82003177    2.48752784
 H                  8.22904257    8.49616960    3.98849182
 C                  4.38938166   10.96379538    7.34420749
 C                  2.49159631   11.54351413    5.95741914
 H                  6.10505692   10.34636573    8.51877635
 C                  3.12410473   11.32941656    1.53217545
 C                  4.09155556   12.72161850    3.25693148
 H                  2.30466467    9.99607535    0.03226666
 C                  3.77918213   11.64185878    8.41252438
 C                  1.89532936   12.20730457    7.03165176
 H                  1.93482934   11.51211618    5.02362691
 C                  2.89633914   12.48529801    0.76645819
 C                  3.86539203   13.86059800    2.48088719
 H                  4.58737748   12.86704792    4.21403414
 C                  2.54288103   12.26314414    8.25681283
 H                  4.26119400   11.68444801    9.38775765
 H                  0.92390851   12.67662920    6.90683679
 C                  3.26044199   13.74309285    1.23894194
 H                  2.43844719   12.41461152   -0.21863076
 H                  4.16670577   14.83647154    2.85020062
 H                  2.08319031   12.77890080    9.09441717
 H                  3.08186659   14.62567109    0.63228155
 P                  5.32233526    3.63100414    6.59350466
 O                  6.52395283    3.04803653    7.52720172
 O                  4.88799475    2.29821970    5.76219478
 N                  4.08614017    3.65916289    7.75987289
 C                  7.58210695    2.39912808    6.93193273
 C                  4.90794608    1.02430041    6.28895054
 C                  2.79474010    4.14710867    7.27255637
 C                  4.43753430    4.33580118    9.00946902
 C                  7.40660080    1.09448124    6.42403733
 C                  8.79490119    3.07335059    6.84027360
 C                  6.11186919    0.40133139    6.68685567
 C                  3.67848113    0.37939898    6.39820035
 C                  1.70287415    3.87422638    8.30339636
 C                  2.46960395    3.47941163    5.94022220
 H                  2.80570264    5.22196406    7.05301138
 C                  4.53340174    5.84241747    8.78658252
 C                  5.75412103    3.77510266    9.53761900
 H                  3.70103540    4.12930172    9.79345125
 C                  8.46709652    0.52368764    5.65462861
 C                  9.85253603    2.47687757    6.16664093
 H                  8.91388652    4.06434012    7.26831180
 C                  6.02793816   -0.85363501    7.37121756
 C                  3.61289259   -0.87803760    6.98294302
 H                  2.76820519    0.75937722    5.96911330
 H                  0.71244006    4.01838080    7.85540811
 H                  1.74030059    2.84253553    8.67187927
 H                  1.74813692    4.55512006    9.15877902
 H                  3.14418608    3.63690502    5.09761140
 H                  1.55041179    3.96564358    5.57395123
 H                  2.14848340    2.45657020    6.05792286
 H                  4.95297289    6.31381735    9.68464353
 H                  5.18739530    6.13506264    7.95901595
 H                  3.55695096    6.31496870    8.64327068
 H                  5.81057548    2.67926913    9.55216679
 H                  5.76275258    4.00880235   10.61564072
 H                  6.65924024    4.30157642    9.21134010
 C                  9.70008816    1.22528273    5.55310808
 C                  8.36573897   -0.70437761    4.95580731
 H                 10.79401695    3.01820529    6.09451499
 C                  4.76373637   -1.49260748    7.49213484
 C                  7.13463480   -1.50699655    7.96921377
 H                  2.64569573   -1.37329794    7.04640367
 C                 10.76919911    0.67470548    4.82696697
 C                  9.43607782   -1.23433863    4.23217493
 H                  7.43762093   -1.27142128    4.95453630
 C                  4.65588217   -2.73811058    8.13350176
 C                  7.01014451   -2.74163845    8.61017438
 H                  8.12399295   -1.05529589    7.95611511
 C                 10.64014418   -0.54851463    4.17446457
 H                 11.71822641    1.20315523    4.75404741
 H                  9.32314295   -2.18169784    3.71327311
 C                  5.77195508   -3.36087455    8.68523172
 H                  3.69067728   -3.23421283    8.21908172
 H                  7.88308891   -3.21337046    9.05170415
 H                 11.47512407   -0.95738182    3.61362794
 H                  5.67025708   -4.32103332    9.18184325
