122
K:5,64;
 H                  4.28890327    5.18056482    4.80601553
 Rh                 5.71930900    5.56277300    5.41000100
 C                  7.51194718    6.03950791    6.16532686
 O                  8.52856988    6.30866588    6.59346521
 P                  5.45599205    7.31376345    3.94211251
 O                  6.76887298    7.81329390    3.11269969
 O                  4.35434447    7.15184548    2.75031653
 N                  4.97626352    8.81167113    4.58522050
 C                  7.23017173    7.04468770    2.06685016
 C                  4.31426587    7.94315774    1.62163123
 C                  5.98428243    9.45511203    5.44351589
 C                  3.65156928    8.81918828    5.22729931
 C                  6.50384568    7.01271334    0.85836357
 C                  8.38686946    6.29563983    2.25923764
 C                  5.37579405    7.96263500    0.69236360
 C                  3.17857337    8.73324506    1.45358723
 C                  5.59601311   10.89401028    5.79176420
 H                  6.12659130    8.88293461    6.37103871
 H                  6.96184489    9.50608252    4.94701996
 C                  3.19664235   10.23990986    5.56936358
 H                  2.88667306    8.38375908    4.57257017
 H                  3.66421410    8.21307082    6.14421614
 C                  6.86973297    6.04277832   -0.10900526
 C                  8.80014278    5.42577416    1.25985470
 H                  8.94982245    6.36789678    3.18477579
 C                  5.35597319    8.96335499   -0.31840033
 C                  3.11973271    9.62951329    0.39519952
 H                  2.35211978    8.67600964    2.15587565
 C                  4.21966238   10.95689245    6.43961033
 H                  6.34231239   11.32450770    6.46913228
 H                  5.60042332   11.50554806    4.88046483
 H                  3.04073996   10.80729350    4.64292519
 H                  2.23195219   10.20391716    6.08797239
 C                  5.95211284    5.70826356   -1.27168962
 C                  8.03362114    5.25951384    0.09535765
 H                  9.70454710    4.84075139    1.40846375
 C                  6.56412008    9.19213959   -1.21168896
 C                  4.20356718    9.76850988   -0.48428169
 H                  2.23802251   10.25570414    0.28068541
 H                  4.25659567   10.48485481    7.42899316
 H                  3.92132146   12.00010271    6.59027457
 C                  6.65905455    5.00559490   -2.42742924
 H                  5.16265688    5.05086572   -0.88341488
 H                  5.45056940    6.59050829   -1.67277866
 C                  8.52399574    4.27132591   -0.93740017
 C                  6.55812580   10.54104910   -1.92844239
 H                  7.48357949    9.13490176   -0.61732196
 H                  6.60577440    8.40485099   -1.97056202
 C                  4.11547183   10.84610468   -1.53951087
 C                  7.44323457    3.81140005   -1.90851297
 H                  5.91847602    4.67536350   -3.16461819
 H                  7.33478724    5.70405606   -2.93664331
 H                  9.33634256    4.74936999   -1.49945661
 H                  8.94412154    3.38810501   -0.44106473
 C                  5.21136537   10.76580446   -2.59573410
 H                  6.76043922   11.34922504   -1.21411898
 H                  7.35923031   10.56354017   -2.67582332
 H                  3.14062001   10.79626100   -2.03940709
 H                  4.17786951   11.81833751   -1.03389072
 H                  7.90223033    3.26749255   -2.74158814
 H                  6.76177693    3.11347835   -1.40572260
 H                  5.00183203    9.94440393   -3.29266576
 H                  5.22627526   11.69011992   -3.18369050
 P                  5.32169294    3.63175865    6.59451991
 O                  6.51654513    3.06842149    7.55164692
 O                  4.04594333    3.60828371    7.61046003
 N                  5.01751687    2.21507515    5.70686031
 C                  6.77675700    3.71010526    8.74239667
 C                  3.87378881    2.67844880    8.61419393
 C                  6.17358821    1.71587262    4.94457090
 C                  3.80710328    2.25146008    4.86977512
 C                  5.87530756    3.56649216    9.81746686
 C                  7.91178500    4.51062022    8.82559844
 C                  4.78223509    2.57102982    9.68841285
 C                  2.76515976    1.84096300    8.50541263
 C                  5.91226763    0.32266034    4.36739743
 H                  6.42681068    2.40570942    4.12729434
 H                  7.06611156    1.63009500    5.57764186
 C                  3.47815896    0.87355659    4.29047049
 H                  2.93188791    2.57745440    5.44515398
 H                  3.92906598    2.96985227    4.04678514
 C                  6.04348541    4.41504615   10.94090900
 C                  8.12672856    5.25724294    9.97563373
 H                  8.61107646    4.57344371    7.99746640
 C                  4.65801064    1.44923811   10.55422389
 C                  2.59017267    0.81551521    9.42453168
 H                  2.05265481    1.96359587    7.69497550
 C                  4.65439337    0.30340479    3.50985345
 H                  6.77230852    0.00391125    3.76752507
 H                  5.80825461   -0.39989629    5.18688366
 H                  3.21144835    0.18821898    5.10514568
 H                  2.60241130    0.94768122    3.63591013
 C                  4.94551436    4.57170501   11.97805861
 C                  7.18577493    5.25122010   11.01766122
 H                  9.01394615    5.88228064   10.04238907
 C                  5.72674628    1.14313659   11.59057899
 C                  3.53393335    0.59660900   10.43887889
 H                  1.73250269    0.15467349    9.32288636
 H                  4.81775975    0.89882895    2.60329763
 H                  4.43290391   -0.72017492    3.18857217
 C                  5.43481031    5.14106194   13.30684227
 H                  4.19311517    5.25028520   11.55427295
 H                  4.43218427    3.63136464   12.18548624
 C                  7.46609112    6.11310513   12.22685450
 C                  5.67742595   -0.28588974   12.12796110
 H                  6.72168976    1.30231100   11.15848538
 H                  5.61514239    1.82790507   12.43679612
 C                  3.33927960   -0.60904362   11.32825600
 C                  6.22998021    6.41386455   13.06602682
 H                  4.57620171    5.35293165   13.95403575
 H                  6.05861447    4.40304483   13.82641974
 H                  8.20616082    5.59079453   12.84639418
 H                  7.91339577    7.06423350   11.91347443
 C                  4.25764349   -0.63277152   12.54443158
 H                  6.02417196   -0.99002431   11.36095477
 H                  6.35640813   -0.38056841   12.98287144
 H                  2.29877467   -0.65158733   11.67214001
 H                  3.52422311   -1.50651574   10.72400309
 H                  6.53093175    6.85989878   14.02049440
 H                  5.59957807    7.15036125   12.55178649
 H                  3.90576239    0.08648732   13.29487357
 H                  4.22797991   -1.62380476   13.01052952
