132

H       4.163342800000000      5.078579420000000      4.985439540000000
Rh      5.389409250000000      5.586262500000000      5.769669220000000
C       6.833108180000000      6.182502630000000      6.750118260000000
O       7.696306040000000      6.544242620000000      7.429645860000000
P       5.731605860000000      6.768428230000000      3.900446050000000
O       7.084431580000000      7.683255790000000      3.738875830000000
O       4.574139480000000      7.896252520000000      3.666636170000000
N       5.776247770000000      6.011617320000000      2.389304010000000
C       7.077581290000000      8.757246220000001      4.614679780000000
C       4.791631850000000      8.852430310000001      2.692400780000000
C       4.571234900000000      5.198169710000000      2.214362050000000
C       7.013861170000000      5.489324380000000      1.814632980000000
C       6.360465740000000      9.897519429999999      4.256203670000000
C       7.735556950000000      8.684547660000000      5.829425830000000
C       5.713337090000000      9.873122900000000      2.923384220000000
C       4.103084460000000      8.785344580000000      1.493528910000000
C       4.188564320000000      5.095239500000000      0.736634540000000
C       4.661432930000000      3.817288700000000      2.862885060000000
H       3.780172900000000      5.751948730000000      2.735109440000000
C       7.686340480000000      6.578639260000000      0.977637520000000
C       7.979990870000000      4.914889180000000      2.848231470000000
H       6.727099400000000      4.679177580000000      1.135899380000000
C       6.202712100000000     10.934849399999999      5.179729160000000
C       7.633822600000000      9.745791300000000      6.707204180000000
H       8.309757440000000      7.806148180000000      6.076244340000000
C       6.051843700000000     10.748559710000000      1.886530560000000
C       4.386510410000000      9.702211119999999      0.502249860000000
H       3.364733950000000      8.012422510000000      1.352711340000000
H       3.159558300000000      4.755347610000000      0.648596570000000
H       4.281506700000000      6.065682470000000      0.256242330000000
H       4.823054450000000      4.386950500000000      0.208460270000000
H       5.446178870000000      3.214796950000000      2.411842510000000
H       4.867374630000000      3.932327940000000      3.939153160000000
H       3.715373470000000      3.293259580000000      2.751358350000000
H       6.977763860000000      6.986185780000000      0.260423670000000
H       8.030554190000000      7.385625520000000      1.615977550000000
H       8.536881800000000      6.165246990000000      0.439713320000000
H       8.798745439999999      4.400286890000000      2.347826610000000
H       8.394449910000001      5.712136560000000      3.458004790000000
H       7.462392060000000      4.209259390000000      3.496377940000000
C       5.283699950000000     12.084023830000000      4.868517930000000
C       6.848422280000000     10.853725069999999      6.412769220000000
H       8.139294789999999      9.697214560000001      7.660796630000000
C       7.182504970000000     11.724034100000001      2.068375100000000
C       5.380437380000000     10.659884350000000      0.668846060000000
H       3.856756430000000      9.651728000000000     -0.438530160000000
C       4.768990180000000     12.750725559999999      6.138686100000000
H       5.822110790000000     12.836711820000000      4.285838960000000
H       4.455276270000000     11.726272770000000      4.253440650000000
C       6.678499600000000     11.902277910000000      7.481712360000000
C       7.794483810000000     12.127065829999999      0.731996460000000
H       6.812189620000000     12.629143819999999      2.557537880000000
H       7.936410500000000     11.284806840000000      2.725486540000000
C       5.727212860000000     11.531351330000000     -0.510648010000000
C       5.962725330000000     13.155829560000001      6.992985420000000
H       4.166432210000000     13.623276450000001      5.879294050000000
H       4.138257910000000     12.054758659999999      6.694920260000000
H       6.098914180000000     11.454970540000000      8.296233870000000
H       7.657805690000000     12.161563760000000      7.891977100000000
C       6.687998300000000     12.663275310000000     -0.166315610000000
H       8.563335940000000     12.885462530000000      0.891547570000000
H       8.263346550000000     11.261356810000001      0.259961880000000
H       6.186058500000000     10.893011090000000     -1.273323990000000
H       4.807994720000000     11.934800850000000     -0.943157710000000
H       5.643781660000000     13.754888540000000      7.848134650000000
H       6.644007530000000     13.763980260000000      6.393643500000000
H       7.102421310000000     13.086482480000001     -1.083360970000000
H       6.153655640000000     13.458707810000000      0.357972780000000
P       5.585545850000000      3.547560470000000      6.652793580000000
O       6.698346600000000      3.150768320000000      7.784632230000000
O       5.905968140000000      2.403649850000000      5.515550890000000
N       4.200478350000000      2.999698240000000      7.436960390000000
C       7.985850180000000      3.282089660000000      7.283947380000000
C       6.387481960000000      1.161306670000000      5.846239040000000
C       3.756780770000000      3.398315400000000      8.771539590000000
C       3.169658160000000      2.479004710000000      6.532349250000000
C       8.497418750000000      2.257438840000000      6.492604900000000
C       8.732839280000000      4.417687180000000      7.547209600000000
C       7.677496310000000      1.031939520000000      6.360032870000000
C       5.598395160000000      0.038123300000000      5.651192320000000
C       4.677831630000000      2.839468610000000      9.856889640000000
C       3.557862460000000      4.905484730000000      8.934267970000001
H       2.776306880000000      2.922338240000000      8.910636719999999
C       2.583820420000000      3.532013540000000      5.588405310000000
C       3.713153360000000      1.303809730000000      5.725832380000000
H       2.357357260000000      2.102083250000000      7.169966020000000
C       9.720677110000000      2.435766310000000      5.837845160000000
C       9.991932690000001      4.531319880000000      6.990034530000000
H       8.334125940000000      5.183588130000000      8.193500560000000
C       8.130289070000000     -0.216851710000000      6.801087080000000
C       6.092245750000000     -1.203785740000000      5.993476510000000
H       4.610557410000000      0.153869540000000      5.233819170000000
H       5.635094930000000      3.349309970000000      9.859249399999999
H       4.212131230000000      2.968963230000000     10.831670550000000
H       4.852521390000000      1.779218700000000      9.689412210000000
H       3.097141720000000      5.112028620000000      9.898260779999999
H       4.508332180000000      5.425372050000000      8.883623090000000
H       2.909834900000000      5.290589730000000      8.150794660000001
H       2.197265940000000      4.382331860000000      6.146077610000000
H       3.369786310000000      3.883462450000000      4.885810640000000
H       1.770459170000000      3.100852950000000      5.008790200000000
H       4.127143250000000      0.549968140000000      6.390335400000000
H       2.913358250000000      0.854811170000000      5.140698270000000
H       4.494276220000000      1.646701470000000      5.050851090000000
C      10.140628540000000      1.465533850000000      4.765215550000000
C      10.477430710000000      3.574775640000000      6.106180410000000
H      10.594564119999999      5.400517100000000      7.211295400000000
C       9.407175580000001     -0.315930760000000      7.595570310000000
C       7.337603860000000     -1.343760440000000      6.595249920000000
H       5.487000480000000     -2.083162300000000      5.825198240000000
C      11.637143379999999      1.518304460000000      4.483750990000000
H       9.831847809999999      0.450616330000000      5.012850940000000
H       9.597471820000001      1.744327560000000      3.855069570000000
C      11.838385369999999      3.780876680000000      5.495057790000000
C      10.000349280000000     -1.719030690000000      7.567285780000000
H      10.138839380000000      0.415592330000000      7.255672530000000
H       9.163408580000000     -0.056004430000000      8.632429150000000
C       7.808177580000000     -2.726434460000000      6.963914110000000
C      12.048434710000000      2.961880110000000      4.227427590000000
H      12.191311570000000      1.127426180000000      5.340478910000000
H      11.870928299999999      0.894370550000000      3.618988780000000
H      11.987198790000001      4.842595010000000      5.286975510000000
H      12.590233910000000      3.489978410000000      6.237360860000000
C       8.934502589999999     -2.720596940000000      7.990440260000000
H      10.345426679999999     -1.956243060000000      6.558163350000000
H      10.860403290000001     -1.768729500000000      8.237977130000001
H       6.963410040000000     -3.311134010000000      7.335053770000000
H       8.161031899999999     -3.216322480000000      6.049302230000000
H      11.439405760000000      3.372128040000000      3.419353470000000
H      13.095303980000001      3.016372580000000      3.922026070000000
H       8.540921790000001     -2.435422200000000      8.968400940000000
H       9.359221180000000     -3.722675980000000      8.077633700000000
