104

H       2.580787200000000      5.961821830000000      5.444507080000000
Rh      3.698403390000000      5.268793290000000      4.629550330000000
C       5.034166680000000      4.440492760000000      3.655522470000000
O       5.866359770000000      3.924453740000000      3.048693950000000
P       3.476396300000000      6.952587450000000      3.172774120000000
O       4.224389460000000      8.270853040000000      3.779756100000000
O       4.365034260000000      6.784647310000000      1.779676850000000
N       2.050748460000000      7.635806250000000      2.686760680000000
C       5.457512210000000      7.827571980000000      4.253177740000000
C       5.242521060000000      7.702475270000000      1.263671780000000
C       2.013328420000000      8.889065380000000      1.959689790000000
C       0.859105750000000      6.818094150000000      2.723221130000000
C       6.517486660000000      7.772678600000000      3.378506610000000
C       5.536541710000000      7.335408180000000      5.571758170000000
C       6.297766590000000      8.223698799999999      1.990662530000000
C       5.056237200000000      8.048399050000000     -0.089157300000000
C       1.514399190000000     10.029866750000000      2.841856040000000
H       3.026120950000000      9.121650030000000      1.618598800000000
H       1.372136810000000      8.785990269999999      1.077117570000000
C       0.729408630000000      5.926946000000000      1.490453570000000
H       0.928760550000000      6.185518600000000      3.614750150000000
H      -0.015017800000000      7.467865710000000      2.820995100000000
C       7.749826420000000      7.215084900000000      3.827921590000000
C       6.733435550000000      6.855086080000000      6.031047240000000
H       4.667348570000000      7.421490190000000      6.214010180000000
C       7.129427580000000      9.208384460000000      1.386041170000000
C       5.898185540000000      8.926377000000000     -0.703014400000000
H       4.235121580000000      7.586441530000000     -0.616471130000000
H       1.519991540000000     10.964008820000000      2.285504100000000
H       0.502303120000000      9.833646640000000      3.187473310000000
H       2.163433830000000     10.126715580000001      3.707648480000000
H       1.610145230000000      5.290381920000000      1.418651150000000
H      -0.156691740000000      5.301571340000000      1.565196400000000
H       0.657138690000000      6.523877380000000      0.583607190000000
C       7.857441030000000      6.787416460000000      5.178819720000000
C       8.849146010000000      7.014254850000000      2.969026670000000
H       6.827977600000000      6.498918060000000      7.046530370000000
C       6.938413160000000      9.546615620000001      0.020718600000000
C       8.120850600000001      9.901374270000000      2.114157100000000
H       5.764591970000000      9.175801290000001     -1.745515930000000
C       9.090006000000001      6.283257570000000      5.639911890000000
C      10.022113620000001      6.492118460000000      3.441376450000000
H       8.754814160000000      7.272480960000000      1.925468390000000
C       7.779891810000000     10.506910240000000     -0.577078030000000
C       8.911246220000001     10.838703580000001      1.509239490000000
H       8.242629989999999      9.689326370000000      3.165397730000000
C      10.154532710000000      6.149067710000000      4.793620260000000
H       9.172261420000000      6.001321570000000      6.679141550000000
H      10.855802850000000      6.345141270000000      2.770275260000000
C       8.752786120000000     11.135389860000000      0.147832910000000
H       7.631438060000000     10.742511660000000     -1.621416050000000
H       9.663368000000000     11.361097969999999      2.081994100000000
H      11.096037680000000      5.766653310000000      5.159186860000000
H       9.392991710000000     11.871021050000000     -0.316352530000000
P       4.554539070000000      4.393552040000000      6.510792130000000
O       5.580214560000000      3.109014240000000      6.557699970000000
O       4.962261690000000      5.112041090000000      7.928572120000000
N       3.155394780000000      3.533981010000000      6.797013880000000
C       6.924226700000000      3.364114840000000      6.719064780000000
C       5.320767220000000      4.416243330000000      9.058373230000001
C       1.855940360000000      4.164410210000000      6.928773690000000
C       3.263182690000000      2.143093490000000      7.210149920000000
C       7.418147830000000      3.699054440000000      7.963130460000000
C       7.774589910000000      3.197731750000000      5.614132300000000
C       6.505850240000000      3.710286110000000      9.122060299999999
C       4.456928410000000      4.494549950000000     10.166425060000000
C       1.431013660000000      4.396346200000000      8.377088870000000
H       1.890283980000000      5.124668570000000      6.410090710000000
H       1.111947810000000      3.537886120000000      6.420874680000000
C       4.005049630000000      1.955572460000000      8.531682569999999
H       2.249858490000000      1.739658830000000      7.285111300000000
H       3.794289200000000      1.587434030000000      6.430602370000000
C       8.803751450000000      3.997062570000000      8.093813750000001
C       9.119159540000000      3.382144250000000      5.750333600000000
H       7.337422710000000      2.894627140000000      4.675705920000000
C       6.789852110000000      2.946925710000000     10.292152110000000
C       4.762052750000000      3.841669640000000     11.323449249999999
H       3.559870300000000      5.085382470000000     10.063523990000000
H       1.309026820000000      3.452168700000000      8.902126010000000
H       2.183095150000000      4.990922120000000      8.888370370000001
H       0.484007080000000      4.930367340000000      8.401047900000000
H       5.059065820000000      2.261983390000000      8.398507860000000
H       3.559760680000000      2.561032900000000      9.316711150000000
H       3.979430770000000      0.909598450000000      8.829665640000000
C       9.664190120000001      3.799464700000000      6.981988300000000
C       9.353693520000000      4.517651480000000      9.285455140000000
H       9.780200160000000      3.230796070000000      4.910311190000000
C       5.915868570000000      3.033290690000000     11.408355510000000
C       7.882714040000000      2.056505760000000     10.368512640000001
H       4.109873640000000      3.911861970000000     12.181548820000000
C      11.047245000000000      4.031094940000000      7.135011170000000
C      10.694235900000001      4.764881490000000      9.390350500000000
H       8.697664359999999      4.729991660000000     10.116182650000001
C       6.205053040000000      2.289645250000000     12.570937620000000
C       8.126848020000001      1.336522310000000     11.504961560000000
H       8.522831110000000      1.933669860000000      9.508717680000000
C      11.554827339999999      4.496161670000000      8.315206160000001
H      11.694333340000000      3.843783760000000      6.290509850000000
H      11.099199680000000      5.169642120000000     10.306218360000001
C       7.292765770000000      1.464515980000000     12.624603349999999
H       5.538423470000000      2.377919430000000     13.416950490000000
H       8.965757370000000      0.657282910000000     11.542568510000001
H      12.614349810000000      4.675294780000000      8.424561560000001
H       7.506563260000000      0.896128050000000     13.517644110000001
