100
K:5,53;
 H                  4.28890327    5.18056482    4.80601553
 Rh                 5.71930900    5.56277300    5.41000100
 C                  7.51194718    6.03950791    6.16532686
 O                  8.52856988    6.30866588    6.59346521
 P                  5.45599205    7.31376345    3.94211251
 O                  6.75923558    7.79281431    3.08976295
 O                  4.33990146    7.16248994    2.76514248
 N                  5.00444115    8.81997065    4.58632899
 C                  7.19014499    7.01796981    2.03673840
 C                  4.28747773    7.95700582    1.63974361
 C                  5.97510784    9.51518593    5.43162202
 C                  3.74201743    8.87937440    5.32331506
 C                  6.45989879    7.01078979    0.82973997
 C                  8.33442881    6.24821617    2.21553301
 C                  5.32649353    7.96972137    0.68282200
 C                  3.14639012    8.74172197    1.49172427
 C                  5.19394315   10.71330610    5.94957229
 H                  6.86437539    9.84308402    4.88192912
 H                  6.29884632    8.89150097    6.27566384
 C                  3.73373204   10.28173008    5.91612918
 H                  3.71263418    8.14028882    6.13553509
 H                  2.86478278    8.72229549    4.68677984
 C                  6.82594803    6.05972456   -0.17213045
 C                  8.73796195    5.38854545    1.20248712
 H                  8.89769023    6.29594740    3.14293038
 C                  5.26526147    8.94229590   -0.36683137
 C                  3.05116687    9.62047819    0.42114114
 H                  2.33793634    8.68754960    2.21505129
 H                  5.33778399   11.58092300    5.29469992
 H                  5.51165784   10.99779036    6.95763699
 H                  3.28745302   10.28916711    6.91581282
 H                  3.15756419   10.96894616    5.28567712
 C                  7.98911517    5.26506248    0.02355882
 C                  6.08475601    5.83470196   -1.35844579
 H                  9.63018844    4.78492236    1.35780765
 C                  4.10223748    9.74981100   -0.49518188
 C                  6.31261925    9.17809975   -1.29229345
 H                  2.15535908   10.23159457    0.32835712
 C                  8.38844504    4.34214284   -0.95748289
 C                  6.49168255    4.90783185   -2.32047976
 H                  5.16147227    6.37635634   -1.55145751
 C                  4.00248091   10.69177220   -1.53281959
 C                  6.20173193   10.12375953   -2.31416929
 H                  7.24994773    8.63036201   -1.22681423
 C                  7.64765981    4.16744863   -2.12332073
 H                  9.28309016    3.73823760   -0.81679420
 H                  5.90068425    4.76607803   -3.22050232
 C                  5.04286789   10.87482440   -2.43920995
 H                  3.10887384   11.30441801   -1.63941041
 H                  7.02449651   10.27161524   -3.00749328
 H                  7.96806967    3.44632114   -2.86914966
 H                  4.95141113   11.61060736   -3.23227968
 P                  5.32169294    3.63175865    6.59451991
 O                  6.34794107    3.25729654    7.80324904
 O                  3.87996125    3.47396552    7.33634968
 N                  5.38003046    2.16110550    5.74519709
 C                  6.27194399    3.95885870    8.98518076
 C                  3.61504904    2.55382872    8.32816424
 C                  6.67881408    1.72408369    5.23313120
 C                  4.45222747    1.99959054    4.62560545
 C                  5.20553921    3.71412478    9.87571005
 C                  7.25421732    4.90758690    9.24772132
 C                  4.27778285    2.58508372    9.57524945
 C                  2.64829362    1.59451329    8.03684322
 C                  6.33450016    0.49142464    4.41094980
 H                  7.38945959    1.47132286    6.02784569
 H                  7.13700830    2.48425083    4.58629265
 C                  4.88763197    0.69150334    3.97951761
 H                  4.55094329    2.81618126    3.89742481
 H                  3.40439537    1.94697890    4.93972548
 C                  5.05370689    4.58492653   10.99861375
 C                  7.15020154    5.69299894   10.38809116
 H                  8.08324729    5.05451771    8.56162495
 C                  4.06109224    1.49774693   10.48198352
 C                  2.37633194    0.59169504    8.95761496
 H                  2.11782282    1.61115878    7.08918411
 H                  6.41578988   -0.41561307    5.02167203
 H                  7.00374876    0.37851266    3.55221493
 H                  4.79351697    0.73464690    2.88962374
 H                  4.27443141   -0.14387415    4.33705732
 C                  6.05444123    5.56293202   11.25312493
 C                  3.94434407    4.55481394   11.87938171
 H                  7.92057154    6.43798096   10.57805236
 C                  3.08434496    0.51506571   10.16342166
 C                  4.78198206    1.31497194   11.68861230
 H                  1.62398035   -0.15382652    8.70719853
 C                  5.94531185    6.41356110   12.36587324
 C                  3.84764323    5.41269881   12.97704709
 H                  3.12183185    3.86155681   11.71824800
 C                  2.83012901   -0.54660213   11.04782537
 C                  4.52312166    0.24985307   12.55424024
 H                  5.57568202    2.00131458   11.97472939
 C                  4.85197490    6.33651537   13.22444004
 H                  6.71320224    7.15746311   12.57041885
 H                  2.98456653    5.35710856   13.63387436
 C                  3.54109445   -0.67640141   12.23742066
 H                  2.07568649   -1.29491773   10.81103360
 H                  5.09343540    0.14692852   13.47274435
 H                  4.78113348    7.00485634   14.07722957
 H                  3.33551132   -1.50567323   12.90730448
