116
K:5,61;
 H                  4.28890327    5.18056482    4.80601553
 Rh                 5.71930900    5.56277300    5.41000100
 C                  7.51194718    6.03950791    6.16532686
 O                  8.52856988    6.30866588    6.59346521
 P                  5.45599205    7.31376345    3.94211251
 O                  6.69925781    7.66674953    2.95001273
 O                  4.21382718    7.24833103    2.88997946
 N                  5.20616100    8.86090228    4.59889282
 C                  6.94896037    6.84526057    1.87398152
 C                  4.11269574    8.03175802    1.76016923
 C                  6.35755699    9.41738599    5.31164185
 C                  3.99975456    8.99202075    5.41736431
 C                  6.09840294    6.88902645    0.74930935
 C                  8.03486666    5.97977888    1.94918823
 C                  5.04298423    7.94235005    0.70103740
 C                  3.03455346    8.91227741    1.71507094
 C                  6.12831936   10.89569062    5.61608066
 H                  6.64464060    8.85848098    6.21009926
 H                  7.24647420    9.38222599    4.66560836
 C                  4.17040812    8.24271337    6.73646167
 H                  3.71336677   10.03582664    5.58015297
 H                  3.12891723    8.58070960    4.88783691
 C                  6.27404195    5.89829242   -0.26559356
 C                  8.25422146    5.07666377    0.91742037
 H                  8.69397288    5.98796971    2.81226162
 C                  4.95654200    8.90485224   -0.35620731
 C                  2.90401838    9.78406032    0.64254735
 H                  2.30469313    8.93806000    2.51911546
 C                  7.32075745   11.50374094    6.33825513
 H                  5.94368247   11.45327675    4.68983783
 H                  5.27368491   11.05903613    6.27816955
 C                  2.92094127    8.34551101    7.59741601
 H                  4.38130435    7.17859399    6.58535532
 H                  4.98060163    8.65509980    7.34528214
 C                  7.37810383    5.00660026   -0.17506738
 C                  5.39587505    5.72631805   -1.36409108
 H                  9.10236519    4.39866378    0.99182166
 C                  3.86053034    9.81010486   -0.37992961
 C                  5.91759537    9.03711009   -1.38955610
 H                  2.05958300   10.47052577    0.63043783
 H                  7.13888048   12.56275117    6.54747024
 H                  7.50417430   10.99621213    7.29073299
 H                  8.22755718   11.43045859    5.72932394
 H                  3.06361363    7.80963808    8.54126610
 H                  2.05644327    7.90845087    7.08739534
 H                  2.69022882    9.38962854    7.83204400
 C                  7.59121433    4.04122222   -1.17327415
 C                  5.61823184    4.75658891   -2.34407962
 H                  4.50779963    6.34500299   -1.47159033
 C                  3.73446545   10.74559490   -1.42058490
 C                  5.78246635    9.97749480   -2.41337292
 H                  6.80575968    8.40977222   -1.41018740
 C                  6.72010859    3.91945862   -2.25255504
 H                  8.44018156    3.36238336   -1.11364677
 H                  4.92619769    4.65738888   -3.17518117
 C                  4.68616819   10.82625370   -2.43308174
 H                  2.89095393   11.43339245   -1.44660994
 H                  6.53782915   10.04455815   -3.19089732
 H                  6.89711766    3.16471979   -3.01279745
 H                  4.57616455   11.55840870   -3.22732560
 P                  5.32169294    3.63175865    6.59451991
 O                  6.45024744    2.45813700    6.53495590
 O                  5.07342109    3.75770644    8.19974175
 N                  3.96617350    2.70500418    6.15736127
 C                  7.61678281    2.61661697    7.24848093
 C                  5.14691534    2.70009509    9.08094173
 C                  4.05504810    2.07274771    4.83988221
 C                  2.68200486    3.39352783    6.29646630
 C                  7.60314593    2.46944432    8.65147954
 C                  8.77411447    2.93860051    6.54789751
 C                  6.34818263    1.99017571    9.30040032
 C                  3.97107369    2.37448483    9.75259148
 C                  2.93029170    1.05571174    4.66330837
 H                  4.09738765    2.77942420    4.00272438
 H                  4.98905387    1.49740826    4.76648558
 C                  2.53926775    4.47037381    5.22379166
 H                  1.83222162    2.70367789    6.29152904
 H                  2.60463052    3.86754905    7.28502630
 C                  8.78352205    2.82170666    9.37608588
 C                  9.94335679    3.19427725    7.25201408
 H                  8.76565139    3.01434478    5.46458086
 C                  6.29529387    0.80680827   10.10569119
 C                  3.94712230    1.27771258   10.60339620
 H                  3.06685990    2.95764982    9.60371416
 C                  3.01287921    0.36825172    3.30914893
 H                  2.97036487    0.29891598    5.45613445
 H                  1.93973093    1.51750644    4.69458930
 C                  1.22080000    5.21612175    5.35973254
 H                  3.34458078    5.21135201    5.26942771
 H                  2.53575755    4.05063135    4.21337472
 C                  9.95956060    3.16438302    8.65375024
 C                  8.85787925    2.87485772   10.78997946
 H                 10.84044625    3.45363119    6.69296723
 C                  5.08310445    0.47613223   10.77092555
 C                  7.38096183   -0.08904485   10.27211755
 H                  3.01613377    1.03450970   11.11188936
 H                  2.20000430   -0.35689690    3.20076662
 H                  2.93094139    1.09433931    2.49396532
 H                  3.96094043   -0.16778214    3.19823970
 H                  1.13207671    5.97832965    4.57900501
 H                  1.15195638    5.71674828    6.33088293
 H                  0.37105389    4.53256441    5.26412482
 C                 11.14211870    3.48748225    9.34000880
 C                 10.03968719    3.20514440   11.45663935
 H                  7.98413117    2.66734255   11.40358098
 C                  5.01061735   -0.66268805   11.59057874
 C                  7.29122882   -1.22171070   11.08439841
 H                  8.32467505    0.07494506    9.75701857
 C                 11.18355420    3.50377041   10.73159660
 H                 12.04772372    3.74136637    8.79178859
 H                 10.06059942    3.23053960   12.54218045
 C                  6.10810406   -1.50377970   11.75020819
 H                  4.08657182   -0.91286327   12.10904443
 H                  8.14735458   -1.88149137   11.19094798
 H                 12.10469708    3.76026281   11.24602725
 H                  6.03361968   -2.38262111   12.38350505
