102
K:5,54;
 H                  4.28890327    5.18056482    4.80601553
 Rh                 5.71930900    5.56277300    5.41000100
 C                  7.51194718    6.03950791    6.16532686
 O                  8.52856988    6.30866588    6.59346521
 P                  5.45599205    7.31376345    3.94211251
 O                  5.92930476    8.79495632    4.42910904
 O                  3.95791718    7.62507224    3.38103558
 N                  6.30650262    7.24669442    2.47188922
 C                  5.14156269    9.49374190    5.31591069
 C                  3.60382338    8.79662708    2.74607849
 C                  7.76962843    7.36206401    2.58198421
 C                  5.95624989    6.10767717    1.60818295
 C                  3.93554326   10.07606515    4.87198969
 C                  5.56629560    9.58434900    6.63705247
 C                  3.62888815   10.04211058    3.41228148
 C                  3.20969691    8.68550284    1.41502495
 C                  8.40182113    7.46173207    1.19564406
 H                  8.17979279    6.48642366    3.10370213
 H                  8.06469590    8.25568813    3.14540522
 C                  6.63747757    6.24066414    0.24815765
 H                  4.87551056    6.03900187    1.43831276
 H                  6.27688657    5.16740913    2.07830993
 C                  3.05751667   10.63446923    5.85154278
 C                  4.74824617   10.20685029    7.57057190
 H                  6.51465630    9.15569703    6.94713256
 C                  3.40368266   11.22575412    2.63854043
 C                  2.90544353    9.83075809    0.69176370
 H                  3.15337616    7.71504137    0.93072690
 O                  8.05260619    6.32587774    0.40630485
 H                  8.09490461    8.37830646    0.67711814
 H                  9.49274364    7.48187766    1.28481438
 H                  6.42394717    5.35755894   -0.36273114
 H                  6.27463625    7.11847705   -0.30036533
 C                  3.49233500   10.71105536    7.20356087
 C                  1.75202003   11.10556777    5.56764480
 H                  5.08787460   10.26409609    8.60308748
 C                  3.01975876   11.09862504    1.27559123
 C                  3.56154024   12.54266586    3.13847850
 H                  2.60784235    9.72416569   -0.34967002
 C                  2.66143129   11.28092311    8.18245935
 C                  0.93571929   11.66277698    6.55407488
 H                  1.33948529   11.03691527    4.56359142
 C                  2.76445142   12.24218743    0.50002818
 C                  3.31135012   13.66986714    2.35272583
 H                  3.89705699   12.71663916    4.15842329
 C                  1.39364954   11.75755744    7.85981344
 H                  2.99329334   11.35057592    9.21689308
 H                 -0.05792908   12.01859576    6.29797964
 C                  2.90493995   13.51928637    1.03574190
 H                  2.46080776   12.14766399   -0.54109173
 H                  3.43846982   14.66285299    2.77372412
 H                  0.76244687   12.19087043    8.62975116
 H                  2.70847028   14.39258882    0.42114339
 P                  5.32169294    3.63175865    6.59451991
 O                  6.37892303    3.22397368    7.76545920
 O                  5.20782687    2.23343926    5.76525144
 N                  3.88902694    3.54455170    7.50517137
 C                  7.59792744    2.68993915    7.41319312
 C                  5.26912564    0.98646955    6.35040326
 C                  3.82082253    4.44845443    8.66468687
 C                  2.65018211    3.64465231    6.71696509
 C                  7.67111040    1.35980761    6.94838837
 C                  8.72216000    3.50198079    7.51669587
 C                  6.43620497    0.52407227    6.99832179
 C                  4.12195425    0.20216450    6.25956707
 C                  2.57291813    4.15660589    9.49480697
 H                  3.79410648    5.49398292    8.32804635
 H                  4.69080294    4.33089030    9.32224664
 C                  1.43363127    3.37490770    7.59938644
 H                  2.63173830    2.92640068    5.88910997
 H                  2.56134088    4.65059215    6.28323302
 C                  8.91703460    0.89874598    6.42173373
 C                  9.94979980    3.01779938    7.08467719
 H                  8.64477532    4.51188259    7.90834644
 C                  6.36378472   -0.71190883    7.71770399
 C                  4.08677395   -1.03686762    6.88474568
 H                  3.24822447    0.55496925    5.71953265
 O                  1.39984939    4.28915273    8.69386153
 H                  2.60648790    3.15222607    9.93443153
 H                  2.49679800    4.87507967   10.31728508
 H                  0.51536353    3.51593803    7.02011972
 H                  1.43109250    2.34580215    7.97888887
 C                 10.05982483    1.73998386    6.51783090
 C                  9.09068581   -0.35196089    5.77952585
 H                 10.82080927    3.66580703    7.16304539
 C                  5.17982910   -1.49420626    7.63139216
 C                  7.40104132   -1.21052616    8.54510543
 H                  3.17823783   -1.63138403    6.80974600
 C                 11.30360687    1.30126940    6.03416957
 C                 10.33277681   -0.77007487    5.29758816
 H                  8.24978681   -1.02604545    5.63282834
 C                  5.09122138   -2.72494350    8.30358955
 C                  7.29504295   -2.43239439    9.21322774
 H                  8.31741690   -0.64400775    8.69489952
 C                 11.44069581    0.05337100    5.43208366
 H                 12.18335241    1.93745356    6.11388533
 H                 10.42897522   -1.73847019    4.81542093
 C                  6.14308677   -3.19335056    9.08581838
 H                  4.18961283   -3.33070874    8.23137238
 H                  8.11409723   -2.78324678    9.83409210
 H                 12.40853127   -0.26821004    5.05944280
 H                  6.05630349   -4.14431360    9.60266147
