84

P       2.353574000000000      0.027437000000000      0.022589000000000
C       3.549449000000000      0.568997000000000      1.317272000000000
C       3.094421000000000      0.805452000000000     -1.470244000000000
C       2.749159000000000     -1.771638000000000     -0.224822000000000
C       3.380695000000000      1.863717000000000      1.823761000000000
C       4.249659000000000      2.373522000000000      2.781605000000000
C       5.296783000000000      1.588637000000000      3.261184000000000
C       5.471299000000000      0.298490000000000      2.771399000000000
C       4.606338000000000     -0.207541000000000      1.801872000000000
C       4.469771000000000      0.716912000000000     -1.716545000000000
C       5.016933000000000      1.277352000000000     -2.865415000000000
C       4.195928000000000      1.942845000000000     -3.775389000000000
C       2.830088000000000      2.045723000000000     -3.531365000000000
C       2.278570000000000      1.477644000000000     -2.383533000000000
H       3.843301000000000     -1.865248000000000     -0.300735000000000
H       2.523044000000000     -1.731857000000000     -2.385587000000000
H       3.564982000000000     -3.923195000000000     -1.802818000000000
H       2.031699000000000     -4.166276000000000     -2.636309000000000
C       2.150684000000000     -2.310314000000000     -1.532268000000000
H       2.555926000000000      2.473707000000000      1.460686000000000
H       4.103426000000000      3.379970000000000      3.160878000000000
H       5.970550000000000      1.980515000000000      4.016646000000000
H       6.282576000000000     -0.320374000000000      3.142426000000000
H       4.764771000000000     -1.217118000000000      1.434192000000000
H       5.118229000000000      0.219054000000000     -0.998926000000000
H       6.084384000000000      1.201717000000000     -3.048446000000000
H       4.624348000000000      2.384530000000000     -4.669935000000000
H       2.188606000000000      2.569930000000000     -4.233055000000000
H       1.211993000000000      1.548434000000000     -2.187169000000000
H       1.061784000000000     -2.174420000000000     -1.506227000000000
C       1.978037000000000     -4.613890000000000     -0.513376000000000
H       0.881098000000000     -4.548173000000000     -0.469500000000000
H       2.229321000000000     -5.672533000000000     -0.640917000000000
C       2.477441000000000     -3.796234000000000     -1.706400000000000
P      -2.150013000000000      0.311911000000000      0.005921000000000
C      -2.685967000000000     -1.198722000000000     -0.940345000000000
C      -2.704601000000000      1.733059000000000     -1.012722000000000
C      -3.326236000000000      0.325701000000000      1.420914000000000
H      -2.145870000000000     -1.111233000000000     -1.894415000000000
H      -4.572762000000000     -0.420195000000000     -1.702474000000000
H      -4.000384000000000     -2.451055000000000     -3.042174000000000
C      -4.481026000000000     -2.563366000000000     -2.060051000000000
C      -4.188872000000000     -1.321712000000000     -1.209984000000000
C      -2.869505000000000      1.641378000000000     -2.397357000000000
C      -3.190043000000000      2.771167000000000     -3.147902000000000
C      -3.345556000000000      4.005268000000000     -2.524520000000000
C      -3.173319000000000      4.108525000000000     -1.145031000000000
C      -2.850367000000000      2.982441000000000     -0.395994000000000
C      -2.914848000000000     -0.263190000000000      2.621152000000000
C      -3.782856000000000     -0.340152000000000      3.708287000000000
C      -5.069389000000000      0.181203000000000      3.609451000000000
C      -5.488847000000000      0.772734000000000      2.419159000000000
C      -4.625283000000000      0.841018000000000      1.330017000000000
H      -4.718111000000000     -1.410377000000000     -0.251807000000000
C      -3.954025000000000     -3.829605000000000     -1.380680000000000
H      -4.502075000000000     -3.983850000000000     -0.440835000000000
H      -4.144760000000000     -4.707164000000000     -2.008031000000000
H      -5.558120000000000     -2.647520000000000     -2.241418000000000
H      -2.743249000000000      0.688209000000000     -2.902500000000000
H      -3.318344000000000      2.682873000000000     -4.222316000000000
H      -3.595737000000000      4.884345000000000     -3.109988000000000
H      -3.285511000000000      5.068946000000000     -0.651646000000000
H      -2.709263000000000      3.069944000000000      0.678954000000000
H      -1.904422000000000     -0.657636000000000      2.702104000000000
H      -3.448016000000000     -0.797398000000000      4.634024000000000
H      -5.743781000000000      0.131588000000000      4.458719000000000
H      -6.491236000000000      1.181785000000000      2.338214000000000
H      -4.959755000000000      1.303177000000000      0.405038000000000
Rh      0.111616000000000      0.382545000000000      0.379254000000000
C       0.175319000000000      1.046456000000000      2.156442000000000
O       0.212852000000000      1.466531000000000      3.225093000000000
H       0.048654000000000     -0.163687000000000     -1.167647000000000
C       2.561151000000000     -4.079973000000000      0.796541000000000
H       3.651561000000000     -4.221340000000000      0.791211000000000
H       2.172353000000000     -4.646971000000000      1.649481000000000
C       2.244837000000000     -2.592278000000000      0.972440000000000
H       1.156539000000000     -2.451320000000000      1.046445000000000
H       2.669524000000000     -2.216497000000000      1.910900000000000
C      -2.459668000000000     -3.709192000000000     -1.072238000000000
H      -1.897139000000000     -3.650529000000000     -2.015153000000000
H      -2.105272000000000     -4.603165000000000     -0.546745000000000
C      -2.158725000000000     -2.459705000000000     -0.239740000000000
H      -2.638577000000000     -2.551057000000000      0.746105000000000
H      -1.079798000000000     -2.359880000000000     -0.067518000000000
