70

P       2.258607000000000     -0.114944000000000      0.582699000000000
C       3.039138000000000      1.412726000000000     -0.087962000000000
C       3.465195000000000     -1.439518000000000      0.130609000000000
C       2.547161000000000     -0.075308000000000      2.390011000000000
C       4.422491000000000      1.657627000000000      0.012987000000000
C       4.954518000000000      2.897371000000000     -0.393651000000000
C       4.115692000000000      3.907699000000000     -0.911252000000000
C       2.748191000000000      3.670586000000000     -1.022006000000000
C       2.208195000000000      2.431694000000000     -0.611001000000000
C       3.581481000000000     -2.553550000000000      0.994990000000000
C       4.451568000000000     -3.598954000000000      0.683464000000000
C       5.246092000000000     -3.525395000000000     -0.470984000000000
C       5.143943000000000     -2.418660000000000     -1.325692000000000
C       4.259715000000000     -1.374614000000000     -1.025987000000000
C       1.903549000000000      3.052173000000000      1.062038000000000
C       1.437062000000000      2.880243000000000     -2.224453000000000
C       2.077286000000000      0.162248000000000     -2.870472000000000
C       4.332850000000000     -0.765622000000000      2.670051000000000
H       5.090550000000000      0.870118000000000      0.399846000000000
H       6.022496000000000      3.076838000000000     -0.306860000000000
H       4.532179000000000      4.875366000000000     -1.227424000000000
H       2.091204000000000      4.451474000000000     -1.428568000000000
H       1.138799000000000      2.248807000000000     -0.690343000000000
H       2.923284000000000     -2.631915000000000      1.869620000000000
H       4.519300000000000     -4.467324000000000      1.345416000000000
H       5.751614000000000     -2.361883000000000     -2.231171000000000
H       4.179780000000000     -0.515178000000000     -1.699785000000000
H       1.349385000000000      5.106746000000000      1.721489000000000
H       0.632681000000000      4.874761000000000     -3.893867000000000
H       2.020988000000000     -1.119711000000000     -4.890134000000000
H       5.043029000000000     -1.030504000000000      2.801046000000000
P      -2.149536000000000     -0.151717000000000      0.293822000000000
C      -2.581477000000000      1.018514000000000     -1.291328000000000
C      -3.035878000000000      0.695362000000000      1.642314000000000
C      -3.311386000000000     -1.500373000000000     -0.238169000000000
C      -4.119172000000000      1.005801000000000     -1.891373000000000
C      -3.361124000000000      2.693153000000000     -2.859782000000000
C      -2.059725000000000      2.372512000000000     -3.141104000000000
C      -1.592656000000000      1.325447000000000     -2.300979000000000
C      -4.422785000000000      0.941312000000000      1.585982000000000
C      -5.043976000000000      1.711031000000000      2.570899000000000
C      -4.294735000000000      2.242794000000000      3.628088000000000
C      -2.923980000000000      1.999570000000000      3.694772000000000
C      -2.293994000000000      1.233109000000000      2.709430000000000
C      -4.247688000000000     -2.114004000000000      0.616472000000000
C      -5.129194000000000     -3.099026000000000      0.119805000000000
C      -5.093853000000000     -3.466312000000000     -1.236824000000000
C      -4.159013000000000     -2.860866000000000     -2.099867000000000
C      -3.280248000000000     -1.883471000000000     -1.608806000000000
H      -4.734157000000000      1.006236000000000     -2.136469000000000
H      -4.072653000000000      3.439854000000000     -3.187590000000000
H      -1.427624000000000      2.806334000000000     -3.921908000000000
H      -0.650518000000000      0.790740000000000     -2.399043000000000
H      -5.028993000000000      0.520454000000000      0.779880000000000
H      -6.113668000000000      1.896150000000000      2.515262000000000
H      -2.334982000000000      2.405483000000000      4.517937000000000
H      -1.222638000000000      1.048169000000000      2.761602000000000
H      -4.285251000000000     -1.827221000000000      1.675947000000000
H      -5.846299000000000     -3.573794000000000      0.798443000000000
H      -5.784911000000000     -4.226231000000000     -1.622209000000000
H      -4.115417000000000     -3.154554000000000     -3.156940000000000
H      -2.517777000000000     -1.445140000000000     -2.272109000000000
Rh      0.075101000000000     -0.495036000000000      0.342735000000000
C       0.119887000000000     -2.346841000000000     -0.297701000000000
O       0.154604000000000     -3.437101000000000     -0.675868000000000
H       0.050156000000000      1.040992000000000      0.875041000000000
H       5.936280000000000     -4.335300000000000     -0.704738000000000
H      -4.781713000000000      2.842530000000000      4.396739000000000
N       3.605331000000000     -0.496556000000000      2.568461000000000
N      -3.496237000000000      0.986598000000000     -1.635346000000000
