72

P      -1.949756000000000     -0.340698000000000     -1.268004000000000
C      -2.150407000000000     -1.185105000000000      0.354816000000000
C      -2.751291000000000     -1.481973000000000     -2.462732000000000
C      -3.181009000000000      1.024490000000000     -1.172176000000000
C      -1.315752000000000     -0.757698000000000      1.395161000000000
C      -1.419403000000000     -1.352715000000000      2.644181000000000
C      -2.331581000000000     -2.376551000000000      2.883775000000000
C      -3.154401000000000     -2.799962000000000      1.845832000000000
C      -3.069807000000000     -2.209792000000000      0.585011000000000
C      -4.137145000000000     -1.490483000000000     -2.663595000000000
C      -4.712343000000000     -2.393313000000000     -3.553482000000000
C      -3.910337000000000     -3.292097000000000     -4.253449000000000
C      -2.531047000000000     -3.283884000000000     -4.064218000000000
C      -1.951585000000000     -2.380686000000000     -3.176524000000000
C      -4.126649000000000      1.131016000000000     -0.150496000000000
C      -5.022642000000000      2.196522000000000     -0.162398000000000
C      -5.001600000000000      3.153748000000000     -1.168912000000000
C      -4.056570000000000      3.039897000000000     -2.186437000000000
C      -3.148670000000000      1.987654000000000     -2.186753000000000
H      -0.578888000000000      0.021747000000000      1.217460000000000
Br     -0.278387000000000     -0.775317000000000      4.037893000000000
H      -2.382744000000000     -2.837970000000000      3.863427000000000
H      -3.864712000000000     -3.601747000000000      2.020274000000000
H      -3.712807000000000     -2.556260000000000     -0.218526000000000
H      -4.769561000000000     -0.789547000000000     -2.125518000000000
H      -5.787679000000000     -2.391402000000000     -3.701683000000000
H      -4.360435000000000     -3.993189000000000     -4.949417000000000
H      -1.901116000000000     -3.976946000000000     -4.612931000000000
H      -0.875250000000000     -2.362830000000000     -3.032122000000000
H      -4.171414000000000      0.398502000000000      0.648932000000000
Br     -6.303635000000000      2.339194000000000      1.225032000000000
H      -5.708534000000000      3.975169000000000     -1.151244000000000
H      -4.025774000000000      3.784915000000000     -2.974779000000000
H      -2.403716000000000      1.911438000000000     -2.975506000000000
P       2.484725000000000     -0.067665000000000     -1.003672000000000
C       2.739476000000000     -0.936925000000000      0.605820000000000
C       3.505949000000000      1.447381000000000     -0.772521000000000
C       3.472195000000000     -1.065458000000000     -2.178915000000000
C       1.883337000000000     -1.997259000000000      0.927924000000000
C       2.070177000000000     -2.690585000000000      2.115692000000000
C       3.079769000000000     -2.346950000000000      3.008710000000000
C       3.923976000000000     -1.289921000000000      2.687813000000000
C       3.761612000000000     -0.588504000000000      1.494332000000000
C       3.013196000000000      2.407062000000000      0.120805000000000
C       3.719749000000000      3.582946000000000      0.323690000000000
C       4.907287000000000      3.839841000000000     -0.357704000000000
C       5.386446000000000      2.889131000000000     -1.250628000000000
C       4.696243000000000      1.694356000000000     -1.457559000000000
C       4.669290000000000     -1.690874000000000     -1.815181000000000
C       5.394553000000000     -2.413073000000000     -2.758091000000000
C       4.929741000000000     -2.514484000000000     -4.068634000000000
C       3.736365000000000     -1.898015000000000     -4.435156000000000
C       3.006014000000000     -1.179245000000000     -3.491523000000000
H       1.074340000000000     -2.269722000000000      0.258494000000000
Br      0.909689000000000     -4.125077000000000      2.536107000000000
H       3.193125000000000     -2.893706000000000      3.937826000000000
H       4.714890000000000     -1.008259000000000      3.375578000000000
H       4.431502000000000      0.233468000000000      1.261656000000000
H       2.082141000000000      2.235577000000000      0.655565000000000
Br      3.051466000000000      4.867281000000000      1.541578000000000
H       5.437782000000000      4.770178000000000     -0.190484000000000
H       6.308422000000000      3.079865000000000     -1.790606000000000
H       5.086641000000000      0.960804000000000     -2.155399000000000
H       5.030567000000000     -1.617348000000000     -0.792325000000000
H       6.320240000000000     -2.900868000000000     -2.469310000000000
H       5.495932000000000     -3.080618000000000     -4.801710000000000
H       3.368382000000000     -1.983137000000000     -5.452747000000000
H       2.061178000000000     -0.711037000000000     -3.760096000000000
Rh      0.267962000000000      0.202113000000000     -1.478343000000000
C       0.155067000000000      2.110038000000000     -1.537825000000000
O       0.092389000000000      3.251845000000000     -1.613241000000000
H       0.376676000000000     -1.425525000000000     -1.511586000000000
