72

P       2.334061000000000     -1.484208000000000     -0.218482000000000
C       2.401707000000000      0.355250000000000     -0.342165000000000
C       3.290353000000000     -2.017282000000000     -1.693594000000000
C       3.491903000000000     -1.865163000000000      1.154139000000000
C       3.410428000000000      1.122812000000000      0.239171000000000
C       3.377021000000000      2.507760000000000      0.094529000000000
C       2.369563000000000      3.146933000000000     -0.615801000000000
C       1.372683000000000      2.361274000000000     -1.187181000000000
C       1.372161000000000      0.980244000000000     -1.055719000000000
C       3.257415000000000     -3.379199000000000     -2.015955000000000
C       3.970888000000000     -3.863355000000000     -3.106527000000000
C       4.715334000000000     -2.988068000000000     -3.895905000000000
C       4.747210000000000     -1.631707000000000     -3.586648000000000
C       4.040651000000000     -1.145759000000000     -2.487355000000000
C       4.874068000000000     -1.957755000000000      0.949590000000000
C       5.725970000000000     -2.214413000000000      2.020219000000000
C       5.206387000000000     -2.385587000000000      3.301544000000000
C       3.832336000000000     -2.302774000000000      3.510236000000000
C       2.976440000000000     -2.047650000000000      2.441816000000000
H       4.210288000000000      0.658251000000000      0.806103000000000
Br      4.736817000000000      3.552762000000000      0.893578000000000
H       2.350203000000000      4.225776000000000     -0.709545000000000
Br     -0.027482000000000      3.200205000000000     -2.139255000000000
H       0.568855000000000      0.386494000000000     -1.484081000000000
H       2.665375000000000     -4.060604000000000     -1.408343000000000
H       3.937127000000000     -4.921208000000000     -3.346806000000000
H       5.264821000000000     -3.363231000000000     -4.753489000000000
H       5.322459000000000     -0.945935000000000     -4.200719000000000
H       4.076030000000000     -0.086022000000000     -2.252060000000000
H       5.285417000000000     -1.831143000000000     -0.048192000000000
H       6.796051000000000     -2.283373000000000      1.851797000000000
H       5.872210000000000     -2.588356000000000      4.134611000000000
H       3.422561000000000     -2.442604000000000      4.505589000000000
H       1.902840000000000     -1.990419000000000      2.596373000000000
P      -2.072755000000000     -1.594702000000000      0.425767000000000
C      -2.404722000000000      0.226647000000000      0.376822000000000
C      -2.655503000000000     -2.057687000000000      2.098386000000000
C      -3.381307000000000     -2.241217000000000     -0.689803000000000
C      -1.455351000000000      1.091666000000000      0.933943000000000
C      -1.696200000000000      2.458389000000000      0.938511000000000
C      -2.852395000000000      3.001098000000000      0.386942000000000
C      -3.778690000000000      2.127630000000000     -0.166114000000000
C      -3.575685000000000      0.750455000000000     -0.176450000000000
C      -3.761958000000000     -1.452640000000000      2.703796000000000
C      -4.177512000000000     -1.861414000000000      3.967353000000000
C      -3.492634000000000     -2.877248000000000      4.632752000000000
C      -2.388784000000000     -3.480943000000000      4.036454000000000
C      -1.967203000000000     -3.068745000000000      2.774423000000000
C      -4.496110000000000     -2.953869000000000     -0.243644000000000
C      -5.435523000000000     -3.429985000000000     -1.158453000000000
C      -5.275098000000000     -3.189411000000000     -2.518672000000000
C      -4.165072000000000     -2.476287000000000     -2.971213000000000
C      -3.220293000000000     -2.013950000000000     -2.063442000000000
H      -0.534600000000000      0.696758000000000      1.349524000000000
Br     -0.410421000000000      3.620590000000000      1.692795000000000
H      -3.019143000000000      4.071094000000000      0.381427000000000
Br     -5.361563000000000      2.832402000000000     -0.927203000000000
H      -4.325656000000000      0.102519000000000     -0.616674000000000
H      -4.296931000000000     -0.658799000000000      2.188097000000000
H      -5.033497000000000     -1.384648000000000      4.434401000000000
H      -3.817172000000000     -3.192769000000000      5.619434000000000
H      -1.849531000000000     -4.266562000000000      4.556215000000000
H      -1.092735000000000     -3.517550000000000      2.307608000000000
H      -4.634571000000000     -3.143595000000000      0.816158000000000
H      -6.295319000000000     -3.988263000000000     -0.801594000000000
H      -6.009540000000000     -3.558685000000000     -3.227365000000000
H      -4.031274000000000     -2.288063000000000     -4.031618000000000
H      -2.350155000000000     -1.465287000000000     -2.419480000000000
Rh      0.115677000000000     -2.040073000000000     -0.064013000000000
C      -0.086093000000000     -3.090473000000000     -1.648333000000000
O      -0.201192000000000     -3.749809000000000     -2.578759000000000
H       0.294758000000000     -1.212382000000000      1.331062000000000
