80

P      -2.184528000000000     -0.201776000000000      0.541513000000000
C      -2.566513000000000      1.576207000000000      0.796492000000000
C      -2.593257000000000     -0.972010000000000      2.160055000000000
C      -3.585763000000000     -0.769522000000000     -0.507418000000000
C      -3.663793000000000      2.002078000000000      1.553451000000000
C      -3.942013000000000      3.354926000000000      1.692655000000000
C      -3.124513000000000      4.310728000000000      1.072107000000000
C      -2.023659000000000      3.886636000000000      0.317730000000000
C      -1.747467000000000      2.530639000000000      0.186640000000000
C      -3.898548000000000     -1.338570000000000      2.508917000000000
C      -4.162200000000000     -1.896412000000000      3.756921000000000
C      -3.125682000000000     -2.098043000000000      4.665400000000000
C      -1.823297000000000     -1.745157000000000      4.321525000000000
C      -1.555589000000000     -1.188862000000000      3.073401000000000
C      -3.680996000000000     -2.144400000000000     -0.765491000000000
C      -4.688433000000000     -2.647549000000000     -1.573100000000000
C      -5.622818000000000     -1.778598000000000     -2.157642000000000
C      -5.523300000000000     -0.405287000000000     -1.912260000000000
C      -4.515433000000000      0.093436000000000     -1.091826000000000
H      -4.302662000000000      1.272587000000000      2.043661000000000
H      -4.789730000000000      3.685373000000000      2.283514000000000
C      -3.411039000000000      5.709096000000000      1.215788000000000
H      -1.384265000000000      4.625772000000000     -0.153326000000000
H      -0.877231000000000      2.201552000000000     -0.376151000000000
H      -4.710615000000000     -1.198764000000000      1.800172000000000
H      -5.177805000000000     -2.178269000000000      4.016847000000000
H      -3.332270000000000     -2.537466000000000      5.636344000000000
H      -1.010528000000000     -1.911963000000000      5.021457000000000
H      -0.539208000000000     -0.927171000000000      2.791399000000000
H      -2.957067000000000     -2.826642000000000     -0.324349000000000
H      -4.759623000000000     -3.712606000000000     -1.766202000000000
C      -6.665304000000000     -2.293498000000000     -2.997560000000000
H      -6.242255000000000      0.268407000000000     -2.366482000000000
H      -4.458952000000000      1.162146000000000     -0.910572000000000
P       2.223108000000000     -0.492269000000000     -0.496051000000000
C       3.310045000000000     -0.756577000000000      0.967049000000000
C       2.715829000000000      1.181545000000000     -1.069249000000000
C       2.998993000000000     -1.593808000000000     -1.746298000000000
C       2.924298000000000     -0.219770000000000      2.201833000000000
C       3.740051000000000     -0.351201000000000      3.317042000000000
C       4.958941000000000     -1.037338000000000      3.225149000000000
C       5.344157000000000     -1.580955000000000      1.993870000000000
C       4.529161000000000     -1.438121000000000      0.876686000000000
C       3.899050000000000      1.809846000000000     -0.670984000000000
C       4.224477000000000      3.071111000000000     -1.157753000000000
C       3.372054000000000      3.724000000000000     -2.057007000000000
C       2.185669000000000      3.093630000000000     -2.459034000000000
C       1.861556000000000      1.838081000000000     -1.964177000000000
C       3.947433000000000     -1.156307000000000     -2.674688000000000
C       4.510689000000000     -2.056126000000000     -3.578213000000000
C       4.139476000000000     -3.397353000000000     -3.555019000000000
C       3.197303000000000     -3.841396000000000     -2.628772000000000
C       2.625252000000000     -2.942839000000000     -1.734668000000000
H       1.975225000000000      0.301742000000000      2.280673000000000
H       3.438426000000000      0.069925000000000      4.270343000000000
C       5.799978000000000     -1.182788000000000      4.378099000000000
H       6.286554000000000     -2.113394000000000      1.919937000000000
H       4.849335000000000     -1.861138000000000     -0.070399000000000
H       4.570535000000000      1.315451000000000      0.025360000000000
H       5.140621000000000      3.560862000000000     -0.844926000000000
C       3.707299000000000      5.025387000000000     -2.558908000000000
H       1.523950000000000      3.600224000000000     -3.153820000000000
H       0.933691000000000      1.355601000000000     -2.264758000000000
H       4.248022000000000     -0.112820000000000     -2.695729000000000
H       5.241191000000000     -1.705678000000000     -4.300685000000000
H       4.579206000000000     -4.095474000000000     -4.260396000000000
H       2.899825000000000     -4.885009000000000     -2.609864000000000
H       1.880942000000000     -3.286512000000000     -1.019200000000000
Rh     -0.054419000000000     -0.622863000000000     -0.201770000000000
C      -0.481547000000000     -1.791071000000000     -1.648239000000000
O      -0.746874000000000     -2.483360000000000     -2.523182000000000
H       0.286144000000000      0.415871000000000      1.015186000000000
C       6.507607000000000     -1.304193000000000      5.347354000000000
H       7.132846000000000     -1.411974000000000      6.205079000000000
C       3.989201000000000      6.119189000000000     -2.981960000000000
H       4.237844000000000      7.087139000000000     -3.355468000000000
C      -3.653634000000000      6.884454000000000      1.336295000000000
H      -3.866048000000000      7.924504000000000      1.442943000000000
C      -7.542656000000000     -2.727416000000000     -3.702472000000000
H      -8.317340000000000     -3.110818000000000     -4.327745000000000
