84

P       2.310636000000000      0.021076000000000     -0.087151000000000
C       3.580523000000000     -0.348947000000000      1.193126000000000
C       2.677952000000000      1.772224000000000     -0.502081000000000
C       2.938426000000000     -0.940861000000000     -1.519565000000000
C       3.419463000000000     -1.521901000000000      1.933091000000000
C       4.332355000000000     -1.893600000000000      2.921845000000000
C       5.424520000000000     -1.058211000000000      3.162246000000000
C       5.600290000000000      0.113551000000000      2.430785000000000
C       4.683618000000000      0.473108000000000      1.446796000000000
C       3.298773000000000      2.176580000000000     -1.684285000000000
C       3.512829000000000      3.532369000000000     -1.936060000000000
C       3.119042000000000      4.489996000000000     -1.007346000000000
C       2.500969000000000      4.091698000000000      0.178681000000000
C       2.273329000000000      2.742599000000000      0.425120000000000
C       2.021074000000000     -1.569315000000000     -2.363397000000000
C       2.441330000000000     -2.312652000000000     -3.469574000000000
C       3.810437000000000     -2.422682000000000     -3.713953000000000
C       4.738089000000000     -1.808402000000000     -2.874358000000000
C       4.308477000000000     -1.072839000000000     -1.775277000000000
H       2.555900000000000     -2.158098000000000      1.742354000000000
C       4.118393000000000     -3.159989000000000      3.710809000000000
H       6.139944000000000     -1.325673000000000      3.935551000000000
H       6.453971000000000      0.753593000000000      2.632362000000000
H       4.822495000000000      1.391556000000000      0.883683000000000
H       3.610887000000000      1.437045000000000     -2.415449000000000
H       3.990719000000000      3.836754000000000     -2.862171000000000
H       3.289746000000000      5.543770000000000     -1.204977000000000
H       2.187521000000000      4.834123000000000      0.906630000000000
H       1.774722000000000      2.431006000000000      1.341155000000000
H       0.960423000000000     -1.480446000000000     -2.141239000000000
C       1.429551000000000     -2.960369000000000     -4.380802000000000
H       4.155798000000000     -3.003982000000000     -4.565416000000000
H       5.800296000000000     -1.913490000000000     -3.073071000000000
H       5.033855000000000     -0.608998000000000     -1.111738000000000
P      -2.195311000000000      0.031176000000000      0.240606000000000
C      -3.031175000000000     -1.051871000000000     -0.994263000000000
C      -2.702935000000000      1.711465000000000     -0.294517000000000
C      -3.200649000000000     -0.266188000000000      1.752551000000000
C      -4.289763000000000     -1.617564000000000     -0.767398000000000
C      -4.915998000000000     -2.407810000000000     -1.734458000000000
C      -4.262712000000000     -2.618271000000000     -2.950219000000000
C      -3.011933000000000     -2.057349000000000     -3.190881000000000
C      -2.391558000000000     -1.280922000000000     -2.217121000000000
C      -1.771750000000000      2.745502000000000     -0.205797000000000
C      -2.097744000000000      4.050626000000000     -0.589085000000000
C      -3.382905000000000      4.298900000000000     -1.068623000000000
C      -4.321898000000000      3.271907000000000     -1.168212000000000
C      -3.986608000000000      1.978781000000000     -0.785623000000000
C      -3.040711000000000     -1.503836000000000      2.390408000000000
C      -3.756004000000000     -1.804412000000000      3.542988000000000
C      -4.629996000000000     -0.862799000000000      4.086187000000000
C      -4.784660000000000      0.372883000000000      3.467629000000000
C      -4.077404000000000      0.671045000000000      2.302331000000000
H      -4.798219000000000     -1.445319000000000      0.178362000000000
C      -6.258332000000000     -3.038428000000000     -1.461630000000000
H      -4.740139000000000     -3.227734000000000     -3.713649000000000
H      -2.515647000000000     -2.227217000000000     -4.141865000000000
H      -1.414228000000000     -0.843019000000000     -2.397176000000000
H      -0.764248000000000      2.520909000000000      0.143316000000000
C      -1.065527000000000      5.144620000000000     -0.488630000000000
H      -3.650920000000000      5.305817000000000     -1.378614000000000
H      -5.314601000000000      3.482546000000000     -1.554292000000000
H      -4.713577000000000      1.175327000000000     -0.875092000000000
H      -2.349095000000000     -2.234987000000000      1.975936000000000
H      -3.623893000000000     -2.768376000000000      4.024249000000000
H      -5.182399000000000     -1.092077000000000      4.992105000000000
H      -5.458518000000000      1.112350000000000      3.889342000000000
H      -4.209905000000000      1.637654000000000      1.826494000000000
Rh      0.084411000000000     -0.206696000000000      0.418676000000000
C       0.202069000000000     -0.799971000000000      2.222288000000000
O       0.282714000000000     -1.162594000000000      3.308935000000000
H      -0.006323000000000      0.325605000000000     -1.129299000000000
H       3.122439000000000     -3.169293000000000      4.165127000000000
H       4.858397000000000     -3.260856000000000      4.508744000000000
H       4.193586000000000     -4.042205000000000      3.066621000000000
H      -6.793778000000000     -2.505041000000000     -0.671895000000000
H      -6.142371000000000     -4.078819000000000     -1.138258000000000
H      -6.884550000000000     -3.041296000000000     -2.358450000000000
H       0.522223000000000     -3.228556000000000     -3.831903000000000
H       1.831839000000000     -3.866081000000000     -4.842940000000000
H       1.138799000000000     -2.278174000000000     -5.187681000000000
H      -1.429275000000000      6.076132000000000     -0.930284000000000
H      -0.141161000000000      4.856817000000000     -1.000059000000000
H      -0.808294000000000      5.345034000000000      0.557377000000000
