84

P       2.271081000000000      0.045220000000000      0.090613000000000
C       3.449895000000000     -0.411421000000000     -1.254838000000000
C       2.971270000000000     -0.893758000000000      1.508863000000000
C       2.693572000000000      1.800542000000000      0.472870000000000
C       3.496918000000000     -1.745413000000000     -1.716830000000000
C       4.334549000000000     -2.045331000000000     -2.793707000000000
C       5.123309000000000     -1.074342000000000     -3.402348000000000
C       5.092005000000000      0.231748000000000     -2.928739000000000
C       4.259762000000000      0.555286000000000     -1.860764000000000
C       4.340479000000000     -1.181168000000000      1.578910000000000
C       4.854345000000000     -1.902446000000000      2.652109000000000
C       4.006494000000000     -2.345016000000000      3.666638000000000
C       2.645624000000000     -2.060948000000000      3.604794000000000
C       2.128128000000000     -1.340428000000000      2.529672000000000
C       2.225080000000000      2.841067000000000     -0.360162000000000
C       2.526857000000000      4.158721000000000     -0.009070000000000
C       3.256331000000000      4.464563000000000      1.136132000000000
C       3.708657000000000      3.438208000000000      1.955021000000000
C       3.428989000000000      2.116049000000000      1.619381000000000
C       2.732285000000000     -2.869391000000000     -1.060642000000000
H       4.367344000000000     -3.069255000000000     -3.156852000000000
H       5.761495000000000     -1.340824000000000     -4.239133000000000
H       5.709155000000000      0.999569000000000     -3.384400000000000
H       4.244848000000000      1.576471000000000     -1.491283000000000
H       5.004171000000000     -0.842323000000000      0.787297000000000
H       5.916747000000000     -2.121601000000000      2.694943000000000
H       4.407748000000000     -2.911995000000000      4.501028000000000
H       1.980398000000000     -2.403996000000000      4.391203000000000
H       1.066417000000000     -1.118824000000000      2.472633000000000
C       1.406936000000000      2.590913000000000     -1.603028000000000
H       2.174015000000000      4.961469000000000     -0.651239000000000
H       3.468303000000000      5.500310000000000      1.382949000000000
H       4.278737000000000      3.657656000000000      2.852119000000000
H       3.785033000000000      1.321970000000000      2.266735000000000
P      -2.289261000000000     -0.080935000000000     -0.059858000000000
C      -2.966772000000000      0.632383000000000      1.501169000000000
C      -3.112571000000000     -1.728644000000000     -0.183525000000000
C      -3.189087000000000      0.933521000000000     -1.308639000000000
C      -2.604515000000000      1.943489000000000      1.884139000000000
C      -3.121720000000000      2.447607000000000      3.079143000000000
C      -3.973290000000000      1.698995000000000      3.886739000000000
C      -4.336075000000000      0.415956000000000      3.497917000000000
C      -3.836127000000000     -0.107680000000000      2.307965000000000
C      -2.640524000000000     -2.802841000000000      0.603842000000000
C      -3.256292000000000     -4.048142000000000      0.466778000000000
C      -4.298539000000000     -4.255123000000000     -0.432601000000000
C      -4.749861000000000     -3.199801000000000     -1.214276000000000
C      -4.160000000000000     -1.944722000000000     -1.084341000000000
C      -2.584345000000000      1.226811000000000     -2.533583000000000
C      -3.254768000000000      1.988319000000000     -3.489521000000000
C      -4.533015000000000      2.470449000000000     -3.226036000000000
C      -5.142195000000000      2.188441000000000     -2.004036000000000
C      -4.474951000000000      1.426174000000000     -1.050569000000000
C      -1.694846000000000      2.815403000000000      1.055920000000000
H      -2.846574000000000      3.455330000000000      3.379109000000000
H      -4.354326000000000      2.122249000000000      4.811032000000000
H      -5.006890000000000     -0.178720000000000      4.109871000000000
H      -4.132408000000000     -1.107338000000000      2.003631000000000
C      -1.495611000000000     -2.654036000000000      1.574419000000000
H      -2.901632000000000     -4.874157000000000      1.077614000000000
H      -4.751605000000000     -5.237796000000000     -0.519930000000000
H      -5.559206000000000     -3.344090000000000     -1.922832000000000
H      -4.522205000000000     -1.126934000000000     -1.697977000000000
H      -1.580813000000000      0.865982000000000     -2.736448000000000
H      -2.771926000000000      2.208283000000000     -4.436488000000000
H      -5.053464000000000      3.068355000000000     -3.967739000000000
H      -6.137917000000000      2.565240000000000     -1.791731000000000
H      -4.952688000000000      1.211690000000000     -0.098154000000000
Rh      0.023276000000000     -0.208096000000000     -0.289650000000000
C       0.128316000000000     -0.905472000000000     -2.062040000000000
O       0.258090000000000     -1.353723000000000     -3.111740000000000
H       0.023181000000000      0.325970000000000      1.250788000000000
H       1.722255000000000     -2.572330000000000     -0.760057000000000
H       3.247984000000000     -3.206004000000000     -0.153329000000000
H       2.649322000000000     -3.720840000000000     -1.740907000000000
H       1.298303000000000      3.514483000000000     -2.178279000000000
H       0.407177000000000      2.221429000000000     -1.339744000000000
H       1.861505000000000      1.835290000000000     -2.253221000000000
H      -0.694032000000000      2.373989000000000      0.980743000000000
H      -1.604584000000000      3.806906000000000      1.507099000000000
H      -2.073504000000000      2.940695000000000      0.035332000000000
H      -1.635668000000000     -1.802498000000000      2.249601000000000
H      -0.555481000000000     -2.476350000000000      1.035352000000000
H      -1.386824000000000     -3.558751000000000      2.178783000000000
