84

P       2.268883000000000     -0.502929000000000     -0.058631000000000
C       2.506720000000000      1.318458000000000     -0.114434000000000
C       3.372432000000000     -1.102161000000000     -1.402644000000000
C       3.195523000000000     -1.025061000000000      1.442200000000000
C       1.586309000000000      2.061805000000000     -0.857067000000000
C       1.711216000000000      3.448296000000000     -0.973074000000000
C       2.766230000000000      4.078022000000000     -0.311284000000000
C       3.693253000000000      3.358855000000000      0.447445000000000
C       3.557482000000000      1.972266000000000      0.533555000000000
C       3.317023000000000     -2.464922000000000     -1.719446000000000
C       4.132951000000000     -2.993024000000000     -2.713320000000000
C       5.005826000000000     -2.160967000000000     -3.413286000000000
C       5.060884000000000     -0.804114000000000     -3.110600000000000
C       4.250534000000000     -0.274560000000000     -2.106547000000000
C       4.574057000000000     -1.268141000000000      1.414323000000000
C       5.248374000000000     -1.632341000000000      2.576888000000000
C       4.553367000000000     -1.761261000000000      3.777222000000000
C       3.181061000000000     -1.528041000000000      3.811140000000000
C       2.503037000000000     -1.166250000000000      2.649796000000000
H       0.752106000000000      1.550561000000000     -1.337186000000000
C       0.723929000000000      4.232714000000000     -1.799693000000000
H       2.866818000000000      5.159842000000000     -0.383239000000000
C       4.799903000000000      4.072255000000000      1.182536000000000
H       4.273426000000000      1.402428000000000      1.121374000000000
H       2.626469000000000     -3.112415000000000     -1.182699000000000
H       4.080257000000000     -4.051229000000000     -2.949176000000000
H       5.636822000000000     -2.570193000000000     -4.196113000000000
H       5.736110000000000     -0.151529000000000     -3.655542000000000
H       4.303491000000000      0.784737000000000     -1.872688000000000
H       5.122288000000000     -1.175232000000000      0.480668000000000
H       6.317300000000000     -1.819156000000000      2.542769000000000
H       5.079853000000000     -2.049163000000000      4.682045000000000
H       2.632683000000000     -1.634887000000000      4.742019000000000
H       1.430607000000000     -0.994278000000000      2.667966000000000
P      -2.208506000000000     -0.556337000000000      0.146527000000000
C      -2.629200000000000      1.235730000000000      0.038671000000000
C      -2.858446000000000     -1.045255000000000      1.789721000000000
C      -3.420696000000000     -1.302266000000000     -1.019737000000000
C      -3.831689000000000      1.682675000000000     -0.519003000000000
C      -4.133297000000000      3.044709000000000     -0.572778000000000
C      -3.216069000000000      3.955744000000000     -0.046154000000000
C      -2.013866000000000      3.536702000000000      0.525357000000000
C      -1.724152000000000      2.170435000000000      0.550340000000000
C      -2.205000000000000     -2.076715000000000      2.470393000000000
C      -2.677884000000000     -2.513699000000000      3.705312000000000
C      -3.799727000000000     -1.914447000000000      4.272715000000000
C      -4.449296000000000     -0.878331000000000      3.604126000000000
C      -3.982018000000000     -0.444920000000000      2.366222000000000
C      -3.186239000000000     -1.119626000000000     -2.389043000000000
C      -4.056121000000000     -1.651329000000000     -3.333154000000000
C      -5.166286000000000     -2.388323000000000     -2.921037000000000
C      -5.400972000000000     -2.583183000000000     -1.564271000000000
C      -4.535476000000000     -2.039163000000000     -0.614751000000000
H      -4.543474000000000      0.967835000000000     -0.924695000000000
C      -5.412270000000000      3.526090000000000     -1.210634000000000
H      -3.444359000000000      5.019851000000000     -0.083839000000000
C      -1.048669000000000      4.530648000000000      1.120966000000000
H      -0.781015000000000      1.828019000000000      0.968736000000000
H      -1.315903000000000     -2.521824000000000      2.027757000000000
H      -2.164763000000000     -3.315308000000000      4.227434000000000
H      -4.164841000000000     -2.249349000000000      5.238775000000000
H      -5.319146000000000     -0.404555000000000      4.048589000000000
H      -4.487823000000000      0.365823000000000      1.847751000000000
H      -2.314767000000000     -0.553708000000000     -2.712637000000000
H      -3.862670000000000     -1.500060000000000     -4.390476000000000
H      -5.841513000000000     -2.812791000000000     -3.657429000000000
H      -6.260836000000000     -3.159833000000000     -1.237465000000000
H      -4.732033000000000     -2.193931000000000      0.441702000000000
Rh      0.023395000000000     -0.956841000000000     -0.180282000000000
C      -0.030272000000000     -2.023979000000000     -1.757236000000000
O      -0.057560000000000     -2.693803000000000     -2.688766000000000
H       0.073764000000000     -0.099163000000000      1.211329000000000
H       0.946460000000000      4.136670000000000     -2.868096000000000
H       0.751435000000000      5.296399000000000     -1.546518000000000
H      -0.295956000000000      3.866599000000000     -1.640386000000000
H       5.626714000000000      3.393641000000000      1.407795000000000
H       4.437573000000000      4.479114000000000      2.133052000000000
H       5.192021000000000      4.907808000000000      0.595521000000000
H      -6.149443000000000      2.721613000000000     -1.275131000000000
H      -5.228713000000000      3.889728000000000     -2.227688000000000
H      -5.853058000000000      4.350347000000000     -0.642289000000000
H      -0.017859000000000      4.169793000000000      1.048602000000000
H      -1.268343000000000      4.696904000000000      2.181517000000000
H      -1.112425000000000      5.498179000000000      0.613867000000000
