88

P      -2.081920000000000     -0.036988000000000      0.352850000000000
C      -2.353415000000000      1.647932000000000     -0.350453000000000
C      -2.879160000000000      0.066061000000000      1.999218000000000
C      -3.263617000000000     -1.050064000000000     -0.628842000000000
C      -1.448219000000000      2.659978000000000     -0.021473000000000
C      -1.611232000000000      3.965388000000000     -0.498306000000000
C      -2.716868000000000      4.244720000000000     -1.310481000000000
C      -3.621448000000000      3.245165000000000     -1.649398000000000
C      -3.445609000000000      1.946893000000000     -1.175267000000000
C      -2.347475000000000     -0.707374000000000      3.034917000000000
C      -2.939744000000000     -0.694623000000000      4.295634000000000
C      -4.059157000000000      0.099536000000000      4.530628000000000
C      -4.587202000000000      0.881914000000000      3.504806000000000
C      -4.000335000000000      0.865937000000000      2.242700000000000
C      -4.462872000000000     -1.548867000000000     -0.121148000000000
C      -5.324382000000000     -2.321316000000000     -0.912489000000000
C      -4.954121000000000     -2.595806000000000     -2.233299000000000
C      -3.761972000000000     -2.100835000000000     -2.750363000000000
C      -2.915370000000000     -1.336110000000000     -1.954099000000000
H      -0.602820000000000      2.419782000000000      0.615330000000000
C      -0.646310000000000      5.036347000000000     -0.191946000000000
H      -2.854587000000000      5.253597000000000     -1.691306000000000
H      -4.470264000000000      3.474841000000000     -2.286241000000000
H      -4.159683000000000      1.173664000000000     -1.441929000000000
H      -1.459234000000000     -1.306806000000000      2.845531000000000
H      -2.521280000000000     -1.297665000000000      5.095384000000000
H      -4.517129000000000      0.115340000000000      5.514858000000000
H      -5.454579000000000      1.508176000000000      3.689043000000000
H      -4.410921000000000      1.479340000000000      1.444362000000000
H      -4.746539000000000     -1.338030000000000      0.906777000000000
C      -6.583488000000000     -2.810816000000000     -0.321601000000000
H      -5.591226000000000     -3.217555000000000     -2.854761000000000
H      -3.481026000000000     -2.326977000000000     -3.774151000000000
H      -1.976249000000000     -0.963104000000000     -2.358341000000000
P       2.387740000000000     -0.193416000000000      0.273976000000000
C       2.633730000000000      1.468095000000000     -0.476559000000000
C       3.466745000000000     -1.264303000000000     -0.763757000000000
C       3.336259000000000     -0.110263000000000      1.847113000000000
C       1.734008000000000      1.857882000000000     -1.472381000000000
C       1.873941000000000      3.080033000000000     -2.139477000000000
C       2.952434000000000      3.904094000000000     -1.793170000000000
C       3.842908000000000      3.533862000000000     -0.791547000000000
C       3.687634000000000      2.318412000000000     -0.127167000000000
C       3.333606000000000     -2.645157000000000     -0.607353000000000
C       4.122988000000000     -3.539484000000000     -1.337018000000000
C       5.078428000000000     -3.017412000000000     -2.217410000000000
C       5.215436000000000     -1.644657000000000     -2.386011000000000
C       4.410773000000000     -0.763670000000000     -1.666049000000000
C       4.709939000000000     -0.375523000000000      1.899775000000000
C       5.400677000000000     -0.272615000000000      3.104487000000000
C       4.727576000000000      0.092760000000000      4.267899000000000
C       3.360072000000000      0.351245000000000      4.224484000000000
C       2.665229000000000      0.245732000000000      3.022304000000000
H       0.913408000000000      1.189937000000000     -1.727511000000000
C       0.921534000000000      3.528997000000000     -3.170789000000000
H       3.075308000000000      4.856522000000000     -2.302698000000000
H       4.662871000000000      4.193652000000000     -0.524836000000000
H       4.387050000000000      2.029971000000000      0.652474000000000
H       2.611241000000000     -3.034142000000000      0.107619000000000
C       3.963734000000000     -5.000227000000000     -1.211434000000000
H       5.703983000000000     -3.699775000000000     -2.787010000000000
H       5.951341000000000     -1.255475000000000     -3.082847000000000
H       4.524268000000000      0.307842000000000     -1.800685000000000
H       5.241901000000000     -0.666621000000000      0.998234000000000
H       6.465415000000000     -0.482523000000000      3.133642000000000
H       5.267007000000000      0.168805000000000      5.207012000000000
H       2.828446000000000      0.627575000000000      5.129791000000000
H       1.595811000000000      0.432310000000000      2.985734000000000
Rh      0.131961000000000     -0.622398000000000      0.320008000000000
C       0.063681000000000     -2.198985000000000     -0.744700000000000
O       0.029522000000000     -3.186542000000000     -1.329662000000000
H       0.193120000000000      0.659417000000000      1.332697000000000
C       0.574267000000000      4.867730000000000      0.319373000000000
H      -0.980782000000000      6.043467000000000     -0.437365000000000
H       0.983656000000000      3.887405000000000      0.552809000000000
H       1.221635000000000      5.718287000000000      0.505750000000000
C      -0.301072000000000      3.036378000000000     -3.375877000000000
H       1.266683000000000      4.357093000000000     -3.788429000000000
H      -0.722153000000000      2.240237000000000     -2.765885000000000
H      -0.938690000000000      3.437577000000000     -4.156550000000000
C      -7.626209000000000     -3.308888000000000     -0.987037000000000
H      -6.644182000000000     -2.729431000000000      0.762615000000000
H      -7.640947000000000     -3.390826000000000     -2.069905000000000
H      -8.513498999999999     -3.645898000000000     -0.462581000000000
C       2.849105000000000     -5.620255000000000     -0.823030000000000
H       4.832919000000000     -5.593460000000000     -1.492140000000000
H       1.940210000000000     -5.075260000000000     -0.583607000000000
H       2.805211000000000     -6.702002000000000     -0.756781000000000
