88

P      -2.242710000000000     -0.278397000000000     -0.083802000000000
C      -2.692515000000000      1.208127000000000     -1.121879000000000
C      -3.265291000000000     -0.406366000000000      1.496662000000000
C      -3.032417000000000     -1.646603000000000     -1.026332000000000
C      -2.577830000000000      2.639697000000000     -0.534630000000000
C      -3.617907000000000      3.553143000000000     -1.206806000000000
C      -3.586748000000000      3.415788000000000     -2.706877000000000
C      -3.305356000000000      2.232311000000000     -3.261640000000000
C      -3.031441000000000      1.065135000000000     -2.414938000000000
C      -4.013542000000000      0.618366000000000      2.116026000000000
C      -4.718541000000000      0.353165000000000      3.294476000000000
C      -4.650756000000000     -0.897952000000000      3.891251000000000
C      -3.885153000000000     -1.905456000000000      3.302409000000000
C      -3.202304000000000     -1.661601000000000      2.117486000000000
C      -4.428200000000000     -1.714706000000000     -1.129244000000000
C      -5.032431000000000     -2.747540000000000     -1.835390000000000
C      -4.247822000000000     -3.729196000000000     -2.442574000000000
C      -2.862275000000000     -3.671401000000000     -2.340381000000000
C      -2.253986000000000     -2.632450000000000     -1.634211000000000
C      -1.201742000000000      3.254668000000000     -0.700786000000000
H      -3.427045000000000      4.587277000000000     -0.901594000000000
H      -3.840960000000000      4.275776000000000     -3.319451000000000
H      -3.320753000000000      2.097876000000000     -4.339030000000000
H      -3.120597000000000      0.078064000000000     -2.861120000000000
C      -4.040081000000000      1.887625000000000      1.361138000000000
H      -5.304664000000000      1.148301000000000      3.746051000000000
H      -5.186615000000000     -1.090206000000000      4.815379000000000
H      -3.825052000000000     -2.884889000000000      3.766616000000000
H      -2.613929000000000     -2.456520000000000      1.662570000000000
H      -5.039806000000000     -0.952761000000000     -0.651526000000000
H      -6.114512000000000     -2.790993000000000     -1.911200000000000
H      -4.720285000000000     -4.537803000000000     -2.991941000000000
H      -2.249010000000000     -4.434436000000000     -2.809997000000000
H      -1.172474000000000     -2.572182000000000     -1.551598000000000
P       2.316074000000000     -0.220107000000000     -0.065795000000000
C       3.191796000000000     -1.755251000000000     -0.610688000000000
C       3.294775000000000      0.344498000000000      1.393757000000000
C       2.821341000000000      0.952524000000000     -1.395556000000000
C       2.666451000000000     -3.044258000000000     -0.382409000000000
C       3.300024000000000     -4.145697000000000     -0.978207000000000
C       4.458082000000000     -4.001738000000000     -1.727289000000000
C       5.007208000000000     -2.733831000000000     -1.907293000000000
C       4.369171000000000     -1.627354000000000     -1.362800000000000
C       3.001071000000000      1.584006000000000      2.012167000000000
C       3.679327000000000      1.923291000000000      3.189085000000000
C       4.640335000000000      1.085490000000000      3.741947000000000
C       4.941169000000000     -0.122152000000000      3.121564000000000
C       4.270527000000000     -0.484869000000000      1.956448000000000
C       2.216165000000000      0.812539000000000     -2.650510000000000
C       2.555422000000000      1.661817000000000     -3.697617000000000
C       3.495769000000000      2.672427000000000     -3.502306000000000
C       4.105862000000000      2.815193000000000     -2.260126000000000
C       3.777464000000000      1.955093000000000     -1.212630000000000
C       1.492050000000000     -3.327818000000000      0.469348000000000
H       2.876265000000000     -5.133952000000000     -0.820329000000000
H       4.933434000000000     -4.873765000000000     -2.165602000000000
H       5.916513000000000     -2.604060000000000     -2.485369000000000
H       4.781853000000000     -0.638302000000000     -1.539070000000000
C       2.017938000000000      2.526964000000000      1.435639000000000
H       3.422705000000000      2.852932000000000      3.687675000000000
H       5.144121000000000      1.371823000000000      4.659829000000000
H       5.688681000000000     -0.786755000000000      3.542913000000000
H       4.510221000000000     -1.430504000000000      1.479389000000000
H       1.461091000000000      0.044004000000000     -2.792236000000000
H       2.074991000000000      1.542918000000000     -4.663886000000000
H       3.751102000000000      3.344672000000000     -4.315651000000000
H       4.842997000000000      3.596155000000000     -2.100772000000000
H       4.270579000000000      2.071225000000000     -0.252583000000000
Rh      0.000080000000000     -0.379555000000000      0.266232000000000
C      -0.056013000000000      0.043194000000000      2.123974000000000
O      -0.114185000000000      0.289230000000000      3.244166000000000
H       0.005770000000000     -0.739272000000000     -1.333944000000000
C      -0.197387000000000      2.765719000000000     -1.420871000000000
H      -1.081167000000000      4.196824000000000     -0.161669000000000
H      -0.290135000000000      1.824042000000000     -1.954960000000000
H       0.761971000000000      3.275106000000000     -1.481018000000000
C       1.306383000000000     -2.835686000000000      1.696158000000000
H       0.767468000000000     -4.032751000000000      0.063518000000000
H       2.026796000000000     -2.168208000000000      2.164325000000000
H       0.429962000000000     -3.097687000000000      2.280813000000000
C      -2.858834000000000      2.326706000000000      0.917729000000000
H      -4.977091000000000      2.176615000000000      0.886326000000000
H      -1.970100000000000      1.977124000000000      1.447665000000000
H      -4.630133000000000      3.303233000000000     -0.857233000000000
C       2.085246000000000      3.854769000000000      1.549827000000000
H       1.197022000000000      2.100843000000000      0.859074000000000
H       2.898312000000000      4.357423000000000      2.067259000000000
H       1.321879000000000      4.484495000000000      1.103935000000000
