88

P      -2.285156000000000      0.053955000000000      0.328650000000000
C      -2.866609000000000      1.530531000000000     -0.598321000000000
C      -2.839771000000000      0.370753000000000      2.049866000000000
C      -3.462869000000000     -1.233708000000000     -0.250433000000000
C      -4.177860000000000      1.652559000000000     -1.078526000000000
C      -4.580860000000000      2.794432000000000     -1.756467000000000
C      -3.687942000000000      3.851818000000000     -1.978225000000000
C      -2.374688000000000      3.713762000000000     -1.516185000000000
C      -1.964769000000000      2.571575000000000     -0.837032000000000
C      -4.070608000000000      0.969930000000000      2.337906000000000
C      -4.467209000000000      1.159374000000000      3.658152000000000
C      -3.638956000000000      0.749180000000000      4.701812000000000
C      -2.411647000000000      0.154983000000000      4.422393000000000
C      -2.010659000000000     -0.029706000000000      3.100914000000000
C      -4.374956000000000     -1.886442000000000      0.583938000000000
C      -5.206248000000000     -2.882109000000000      0.081471000000000
C      -5.161615000000000     -3.246508000000000     -1.268250000000000
C      -4.235556000000000     -2.597424000000000     -2.096093000000000
C      -3.397334000000000     -1.610944000000000     -1.597266000000000
H      -4.884743000000000      0.839201000000000     -0.936605000000000
H      -5.596741000000000      2.855239000000000     -2.134679000000000
C      -4.074260000000000      5.085810000000000     -2.684688000000000
H      -1.661736000000000      4.514152000000000     -1.697056000000000
H      -0.937575000000000      2.472393000000000     -0.496670000000000
H      -4.718568000000000      1.296091000000000      1.528614000000000
H      -5.421224000000000      1.630926000000000      3.872536000000000
H      -3.948745000000000      0.900184000000000      5.731342000000000
H      -1.758185000000000     -0.156036000000000      5.231536000000000
H      -1.041067000000000     -0.466634000000000      2.873457000000000
H      -4.434864000000000     -1.624364000000000      1.635747000000000
H      -5.888913000000000     -3.390097000000000      0.755918000000000
C      -6.037434000000000     -4.281672000000000     -1.844747000000000
H      -4.174158000000000     -2.875181000000000     -3.145064000000000
H      -2.683162000000000     -1.125377000000000     -2.259565000000000
P       2.243254000000000     -0.206944000000000      0.345498000000000
C       3.042099000000000      1.412088000000000     -0.011569000000000
C       3.284069000000000     -1.360351000000000     -0.635384000000000
C       2.766231000000000     -0.555431000000000      2.070259000000000
C       2.405396000000000      2.589146000000000      0.395556000000000
C       3.007708000000000      3.823798000000000      0.186826000000000
C       4.249983000000000      3.928007000000000     -0.449764000000000
C       4.886390000000000      2.745968000000000     -0.847821000000000
C       4.293780000000000      1.507967000000000     -0.633650000000000
C       2.988949000000000     -1.500925000000000     -1.995328000000000
C       3.755204000000000     -2.332593000000000     -2.801269000000000
C       4.833252000000000     -3.055594000000000     -2.275323000000000
C       5.111277000000000     -2.926046000000000     -0.909148000000000
C       4.354224000000000     -2.085973000000000     -0.101155000000000
C       2.043571000000000     -1.517386000000000      2.785677000000000
C       2.411674000000000     -1.850522000000000      4.085674000000000
C       3.498078000000000     -1.217144000000000      4.686322000000000
C       4.216976000000000     -0.254495000000000      3.982354000000000
C       3.855281000000000      0.075188000000000      2.677471000000000
H       1.434238000000000      2.529009000000000      0.877479000000000
H       2.500049000000000      4.728818000000000      0.510965000000000
C       4.835200000000000      5.261717000000000     -0.672515000000000
H       5.864927000000000      2.789762000000000     -1.316311000000000
H       4.815985000000000      0.609006000000000     -0.947109000000000
H       2.150843000000000     -0.954110000000000     -2.422594000000000
H       3.514040000000000     -2.430166000000000     -3.856507000000000
C       5.620378000000000     -3.921933000000000     -3.170474000000000
H       5.920252000000000     -3.498630000000000     -0.465839000000000
H       4.594456000000000     -2.001091000000000      0.954642000000000
H       1.186815000000000     -1.995691000000000      2.314761000000000
H       1.846042000000000     -2.599072000000000      4.631964000000000
H       3.781336000000000     -1.470795000000000      5.703176000000000
H       5.061164000000000      0.243868000000000      4.448753000000000
H       4.419807000000000      0.827236000000000      2.132832000000000
Rh     -0.037494000000000     -0.352746000000000      0.100754000000000
C      -0.131479000000000     -1.929108000000000     -0.965531000000000
O      -0.193402000000000     -2.887148000000000     -1.593848000000000
H       0.022836000000000      0.970377000000000      1.061811000000000
C      -5.314581000000000      5.465889000000000     -2.994177000000000
H      -3.245234000000000      5.738500000000000     -2.954215000000000
H      -6.187859000000000      4.875283000000000     -2.733843000000000
H      -5.497808000000000      6.398195000000000     -3.516806000000000
C      -7.122780000000000     -4.806198000000000     -1.274186000000000
H      -5.754440000000000     -4.620721000000000     -2.840211000000000
H      -7.474738000000000     -4.493776000000000     -0.295452000000000
H      -7.705827000000000     -5.568090000000000     -1.779640000000000
C       6.799811000000000     -4.480055000000000     -2.894922000000000
H       5.177756000000000     -4.092240000000000     -4.150764000000000
H       7.308191000000000     -4.330848000000000     -1.946974000000000
H       7.304524000000000     -5.105188000000000     -3.623168000000000
C       5.857679000000000      5.549942000000000     -1.478802000000000
H       4.355450000000000      6.071872000000000     -0.125221000000000
H       6.360058000000000      4.793709000000000     -2.074643000000000
H       6.220705000000000      6.566968000000000     -1.577983000000000
