72

P      -2.134597000000000      0.098937000000000     -0.126327000000000
C      -3.440561000000000     -0.412058000000000      1.080577000000000
C      -2.446442000000000     -1.097858000000000     -1.486548000000000
C      -2.812029000000000      1.681989000000000     -0.799286000000000
C      -3.355186000000000     -1.649349000000000      1.735724000000000
C      -4.288012000000000     -2.036810000000000      2.692821000000000
C      -5.340662000000000     -1.187105000000000      3.012589000000000
C      -5.460257000000000      0.038567000000000      2.366159000000000
C      -4.520163000000000      0.414979000000000      1.412298000000000
C      -3.741379000000000     -1.547878000000000     -1.770763000000000
C      -3.958379000000000     -2.463617000000000     -2.795165000000000
C      -2.882542000000000     -2.943723000000000     -3.540675000000000
C      -1.592326000000000     -2.505581000000000     -3.258160000000000
C      -1.371778000000000     -1.587415000000000     -2.233299000000000
C      -2.718535000000000      2.873694000000000     -0.065787000000000
C      -3.120001000000000      4.096056000000000     -0.594126000000000
C      -3.619495000000000      4.152914000000000     -1.890698000000000
C      -3.718338000000000      2.988580000000000     -2.644381000000000
C      -3.318789000000000      1.771310000000000     -2.101114000000000
Cl     -2.083543000000000     -2.780588000000000      1.353266000000000
H      -4.180247000000000     -3.002116000000000      3.175036000000000
H      -6.065884000000000     -1.488988000000000      3.761234000000000
H      -6.283438000000000      0.705124000000000      2.601146000000000
H      -4.630408000000000      1.371330000000000      0.911410000000000
H      -4.582286000000000     -1.181411000000000     -1.186699000000000
H      -4.966129000000000     -2.806953000000000     -3.007402000000000
H      -3.052221000000000     -3.663037000000000     -4.336109000000000
H      -0.746967000000000     -2.880814000000000     -3.827012000000000
H      -0.364072000000000     -1.252567000000000     -2.001633000000000
Cl     -2.107742000000000      2.873942000000000      1.570468000000000
H      -3.032559000000000      4.990501000000000      0.012812000000000
H      -3.927267000000000      5.107159000000000     -2.305709000000000
H      -4.104424000000000      3.022806000000000     -3.657800000000000
H      -3.391129000000000      0.872093000000000     -2.703137000000000
P       2.263761000000000      0.057996000000000      0.069918000000000
C       3.219976000000000      1.509516000000000     -0.569950000000000
C       2.390377000000000     -1.160648000000000     -1.313276000000000
C       3.485930000000000     -0.539778000000000      1.308773000000000
C       2.782022000000000      2.833148000000000     -0.443071000000000
C       3.552147000000000      3.897879000000000     -0.916739000000000
C       4.781950000000000      3.657216000000000     -1.511058000000000
C       5.256643000000000      2.351394000000000     -1.620875000000000
C       4.482643000000000      1.302475000000000     -1.147205000000000
C       2.056027000000000     -2.509583000000000     -1.120185000000000
C       1.985777000000000     -3.406267000000000     -2.183997000000000
C       2.225702000000000     -2.963443000000000     -3.479390000000000
C       2.522733000000000     -1.622214000000000     -3.704628000000000
C       2.602114000000000     -0.739622000000000     -2.633329000000000
C       4.526369000000000     -1.423313000000000      1.008619000000000
C       5.439592000000000     -1.790864000000000      1.992002000000000
C       5.326333000000000     -1.273368000000000      3.280769000000000
C       4.293473000000000     -0.391288000000000      3.585742000000000
C       3.373295000000000     -0.030521000000000      2.604710000000000
Cl      1.287210000000000      3.255227000000000      0.348683000000000
H       3.176531000000000      4.908653000000000     -0.802827000000000
H       5.373670000000000      4.490526000000000     -1.876118000000000
H       6.225303000000000      2.152864000000000     -2.067292000000000
H       4.857771000000000      0.285599000000000     -1.229072000000000
Cl      1.657815000000000     -3.128679000000000      0.459384000000000
H       1.727356000000000     -4.440422000000000     -1.984191000000000
H       2.167086000000000     -3.663471000000000     -4.306883000000000
H       2.690451000000000     -1.258512000000000     -4.712977000000000
H       2.812287000000000      0.307042000000000     -2.826584000000000
H       4.612071000000000     -1.844217000000000      0.009431000000000
H       6.237697000000000     -2.486852000000000      1.752781000000000
H       6.038361000000000     -1.563446000000000      4.047061000000000
H       4.195698000000000      0.009698000000000      4.589585000000000
H       2.557699000000000      0.647894000000000      2.845894000000000
Rh      0.046958000000000      0.287579000000000      0.505580000000000
C      -0.084803000000000     -0.289326000000000      2.328189000000000
O      -0.177928000000000     -0.637127000000000      3.416597000000000
H       0.133769000000000      0.736625000000000     -1.064924000000000
