72

P      -2.148980000000000     -0.971034000000000      0.279022000000000
C      -2.480658000000000      0.847742000000000      0.175155000000000
C      -2.809887000000000     -1.402452000000000      1.930888000000000
C      -3.399794000000000     -1.646823000000000     -0.884416000000000
C      -3.622536000000000      1.355670000000000     -0.449075000000000
C      -3.825431000000000      2.732695000000000     -0.482442000000000
C      -2.928557000000000      3.621173000000000      0.095698000000000
C      -1.803631000000000      3.092782000000000      0.721062000000000
C      -1.561418000000000      1.726171000000000      0.760520000000000
C      -3.944768000000000     -0.789255000000000      2.471999000000000
C      -4.417924000000000     -1.174778000000000      3.722625000000000
C      -3.762449000000000     -2.175185000000000      4.439085000000000
C      -2.630581000000000     -2.786828000000000      3.906877000000000
C      -2.151686000000000     -2.398012000000000      2.658052000000000
C      -3.169184000000000     -1.455979000000000     -2.253672000000000
C      -4.066556000000000     -1.943598000000000     -3.195742000000000
C      -5.198237000000000     -2.645805000000000     -2.781453000000000
C      -5.427849000000000     -2.850038000000000     -1.425198000000000
C      -4.536070000000000     -2.348680000000000     -0.476818000000000
H      -4.350901000000000      0.697924000000000     -0.911501000000000
Cl     -5.246431000000000      3.363730000000000     -1.268452000000000
H      -3.096336000000000      4.690841000000000      0.057064000000000
Cl     -0.664823000000000      4.180995000000000      1.462251000000000
H      -0.662978000000000      1.345087000000000      1.234910000000000
H      -4.456611000000000     -0.007151000000000      1.916362000000000
H      -5.295850000000000     -0.691782000000000      4.139892000000000
H      -4.131965000000000     -2.472341000000000      5.415599000000000
H      -2.114384000000000     -3.560483000000000      4.466483000000000
H      -1.255432000000000     -2.853119000000000      2.241344000000000
H      -2.281505000000000     -0.916822000000000     -2.579483000000000
H      -3.878569000000000     -1.784037000000000     -4.252625000000000
H      -5.895459000000000     -3.035141000000000     -3.516515000000000
H      -6.304761000000000     -3.399708000000000     -1.097844000000000
H      -4.728196000000000     -2.510711000000000      0.579180000000000
P       2.290404000000000     -0.884515000000000     -0.105665000000000
C       2.384849000000000      0.954342000000000     -0.219290000000000
C       3.334843000000000     -1.425580000000000     -1.516396000000000
C       3.352838000000000     -1.281002000000000      1.337898000000000
C       1.418953000000000      1.591591000000000     -1.006735000000000
C       1.440142000000000      2.974192000000000     -1.126506000000000
C       2.393185000000000      3.748839000000000     -0.470986000000000
C       3.338285000000000      3.095718000000000      0.309335000000000
C       3.351547000000000      1.709124000000000      0.444077000000000
C       3.310445000000000     -2.786801000000000     -1.842305000000000
C       4.090519000000000     -3.276764000000000     -2.883636000000000
C       4.894286000000000     -2.407894000000000     -3.620138000000000
C       4.918600000000000     -1.052193000000000     -3.307185000000000
C       4.144973000000000     -0.560521000000000     -2.256617000000000
C       4.743891000000000     -1.391197000000000      1.221336000000000
C       5.522981000000000     -1.658950000000000      2.343479000000000
C       4.921264000000000     -1.823460000000000      3.589165000000000
C       3.537876000000000     -1.723047000000000      3.710482000000000
C       2.754603000000000     -1.457125000000000      2.590203000000000
H       0.645951000000000      1.010320000000000     -1.503265000000000
Cl      0.233771000000000      3.764284000000000     -2.100388000000000
H       2.388749000000000      4.828962000000000     -0.557117000000000
Cl      4.538285000000000      4.041458000000000      1.145595000000000
H       4.103146000000000      1.236599000000000      1.068185000000000
H       2.673309000000000     -3.463278000000000     -1.276267000000000
H       4.062958000000000     -4.334053000000000     -3.127154000000000
H       5.496240000000000     -2.787545000000000     -4.439704000000000
H       5.540371000000000     -0.371548000000000     -3.880252000000000
H       4.175177000000000      0.498389000000000     -2.016731000000000
H       5.219480000000000     -1.269415000000000      0.251932000000000
H       6.600596000000000     -1.741580000000000      2.242937000000000
H       5.530381000000000     -2.034638000000000      4.462547000000000
H       3.064050000000000     -1.857476000000000      4.677761000000000
H       1.674148000000000     -1.386344000000000      2.676635000000000
Rh      0.063330000000000     -1.422576000000000     -0.086615000000000
C      -0.049742000000000     -2.494462000000000     -1.664498000000000
O      -0.112037000000000     -3.166016000000000     -2.591352000000000
H       0.167130000000000     -0.573268000000000      1.303693000000000
