76

P      -2.272412000000000      0.226891000000000     -0.012983000000000
C      -2.680458000000000     -0.844838000000000     -1.450095000000000
C      -2.901229000000000      1.877100000000000     -0.514944000000000
C      -3.512639000000000     -0.286632000000000      1.247114000000000
C      -1.780937000000000     -1.859018000000000     -1.772663000000000
C      -2.012869000000000     -2.672150000000000     -2.885522000000000
C      -3.155891000000000     -2.491640000000000     -3.670463000000000
C      -4.059670000000000     -1.489060000000000     -3.336554000000000
C      -3.820938000000000     -0.663999000000000     -2.239026000000000
C      -4.226006000000000      2.271499000000000     -0.293469000000000
C      -4.657349000000000      3.533216000000000     -0.695011000000000
C      -3.770849000000000      4.412268000000000     -1.312510000000000
C      -2.450698000000000      4.028503000000000     -1.537186000000000
C      -2.018573000000000      2.765691000000000     -1.140835000000000
C      -4.413596000000000     -1.331546000000000      1.060888000000000
C      -5.300419000000000     -1.679239000000000      2.088751000000000
C      -5.295830000000000     -0.985502000000000      3.300264000000000
C      -4.394473000000000      0.059196000000000      3.483116000000000
C      -3.507729000000000      0.401027000000000      2.469153000000000
H      -0.886268000000000     -1.997982000000000     -1.170620000000000
C      -1.027666000000000     -3.659713000000000     -3.240959000000000
H      -3.321497000000000     -3.125292000000000     -4.534950000000000
H      -4.946676000000000     -1.339740000000000     -3.942718000000000
H      -4.519142000000000      0.135322000000000     -2.004129000000000
H      -4.922005000000000      1.599176000000000      0.200945000000000
H      -5.685831000000000      3.830940000000000     -0.516547000000000
H      -4.106371000000000      5.399845000000000     -1.612688000000000
H      -1.749947000000000      4.716095000000000     -2.000512000000000
H      -0.990604000000000      2.459683000000000     -1.313581000000000
H      -4.442590000000000     -1.887580000000000      0.129502000000000
C      -6.230509000000000     -2.758962000000000      1.883454000000000
H      -5.989362000000000     -1.268379000000000      4.084501000000000
H      -4.379033000000000      0.602355000000000      4.421846000000000
H      -2.801468000000000      1.214333000000000      2.623111000000000
P       2.237945000000000      0.178535000000000      0.386569000000000
C       2.852215000000000      1.644848000000000     -0.537423000000000
C       2.962964000000000     -1.228549000000000     -0.558114000000000
C       3.252402000000000      0.172552000000000      1.915296000000000
C       1.995142000000000      2.737786000000000     -0.650776000000000
C       2.386890000000000      3.861537000000000     -1.383572000000000
C       3.644349000000000      3.907738000000000     -1.993610000000000
C       4.503615000000000      2.822085000000000     -1.865644000000000
C       4.109362000000000      1.694427000000000     -1.147932000000000
C       4.214714000000000     -1.759798000000000     -0.244595000000000
C       4.721962000000000     -2.831584000000000     -0.987554000000000
C       3.982520000000000     -3.385521000000000     -2.036970000000000
C       2.735322000000000     -2.856196000000000     -2.347964000000000
C       2.230807000000000     -1.784336000000000     -1.615393000000000
C       4.198593000000000      1.151257000000000      2.225460000000000
C       4.915508000000000      1.078213000000000      3.420038000000000
C       4.699542000000000      0.026810000000000      4.304114000000000
C       3.756666000000000     -0.954884000000000      3.999424000000000
C       3.031977000000000     -0.877735000000000      2.816729000000000
H       1.011880000000000      2.702803000000000     -0.188231000000000
C       1.456341000000000      4.948631000000000     -1.541752000000000
H       3.933054000000000      4.781904000000000     -2.567047000000000
H       5.479297000000000      2.847959000000000     -2.338984000000000
H       4.781122000000000      0.843007000000000     -1.073863000000000
H       4.801149000000000     -1.359529000000000      0.577272000000000
C       6.017555000000000     -3.366936000000000     -0.658664000000000
H       4.384603000000000     -4.225924000000000     -2.592240000000000
H       2.143769000000000     -3.292771000000000     -3.145988000000000
H       1.255738000000000     -1.370244000000000     -1.856676000000000
H       4.379412000000000      1.975489000000000      1.542503000000000
H       5.645487000000000      1.846390000000000      3.654538000000000
H       5.261454000000000     -0.028860000000000      5.230853000000000
H       3.581340000000000     -1.776243000000000      4.686553000000000
H       2.291986000000000     -1.641572000000000      2.585367000000000
Rh     -0.052451000000000      0.139234000000000      0.561472000000000
C      -0.223470000000000     -0.174744000000000      2.440203000000000
O      -0.336540000000000     -0.357656000000000      3.565545000000000
H       0.087829000000000      0.414787000000000     -1.044733000000000
N      -0.207065000000000     -4.424699000000000     -3.525287000000000
N       0.685204000000000      5.800738000000000     -1.678147000000000
N      -6.980998000000000     -3.622710000000000      1.712946000000000
N       7.061779000000000     -3.789393000000000     -0.394752000000000
