84

P      -1.952460000000000      0.362176000000000      0.112837000000000
C      -3.142544000000000     -0.440933000000000      1.293918000000000
C      -2.723268000000000      0.185321000000000     -1.559704000000000
C      -2.071731000000000      2.158774000000000      0.497222000000000
C      -3.316341000000000     -1.839837000000000      1.372073000000000
C      -4.119060000000000     -2.404104000000000      2.368890000000000
C      -4.759589000000000     -1.602035000000000      3.301709000000000
C      -4.580450000000000     -0.223170000000000      3.249557000000000
C      -3.780047000000000      0.343636000000000      2.262857000000000
C      -4.091498000000000     -0.016156000000000     -1.814929000000000
C      -4.529159000000000     -0.358230000000000     -3.095831000000000
C      -3.629264000000000     -0.445713000000000     -4.151186000000000
C      -2.278586000000000     -0.214889000000000     -3.915792000000000
C      -1.829655000000000      0.075208000000000     -2.629844000000000
C      -1.302531000000000      2.632059000000000      1.568816000000000
C      -1.242524000000000      3.995553000000000      1.848619000000000
C      -1.926095000000000      4.904197000000000      1.037899000000000
C      -2.671997000000000      4.440291000000000     -0.043985000000000
C      -2.751420000000000      3.074068000000000     -0.310008000000000
C      -2.647950000000000     -2.759738000000000      0.414112000000000
H      -4.233616000000000     -3.481116000000000      2.401067000000000
H      -5.385292000000000     -2.049564000000000      4.066440000000000
H      -5.063437000000000      0.418499000000000      3.980438000000000
H      -3.657875000000000      1.421187000000000      2.235107000000000
C      -5.177328000000000      0.097740000000000     -0.795068000000000
H      -5.587084000000000     -0.546808000000000     -3.249150000000000
H      -3.981765000000000     -0.701704000000000     -5.145196000000000
H      -1.557465000000000     -0.290999000000000     -4.723457000000000
H      -0.765277000000000      0.173595000000000     -2.443365000000000
H      -0.711218000000000      1.932122000000000      2.155152000000000
H      -0.635474000000000      4.345975000000000      2.677399000000000
H      -1.866911000000000      5.968846000000000      1.242708000000000
H      -3.192810000000000      5.142984000000000     -0.686717000000000
H      -3.334981000000000      2.723583000000000     -1.154146000000000
P       2.558251000000000     -0.088408000000000      0.091830000000000
C       3.152730000000000      1.055854000000000     -1.233003000000000
C       3.360279000000000     -1.705048000000000     -0.359815000000000
C       3.568906000000000      0.379183000000000      1.552348000000000
C       2.629049000000000      2.358459000000000     -1.349368000000000
C       2.987288000000000      3.171667000000000     -2.422526000000000
C       3.888641000000000      2.718458000000000     -3.381422000000000
C       4.418145000000000      1.439258000000000     -3.270836000000000
C       4.045283000000000      0.614373000000000     -2.210060000000000
C       2.643644000000000     -2.681914000000000     -1.073358000000000
C       3.177840000000000     -3.953002000000000     -1.279360000000000
C       4.453526000000000     -4.260316000000000     -0.818440000000000
C       5.184569000000000     -3.297256000000000     -0.131037000000000
C       4.635839000000000     -2.039098000000000      0.107449000000000
C       3.218102000000000     -0.161094000000000      2.792271000000000
C       3.974908000000000      0.125508000000000      3.924886000000000
C       5.082397000000000      0.964469000000000      3.830412000000000
C       5.430937000000000      1.513854000000000      2.599030000000000
C       4.679037000000000      1.222242000000000      1.463722000000000
C       1.711156000000000      2.913707000000000     -0.308612000000000
H       2.552863000000000      4.162899000000000     -2.496565000000000
H       4.167192000000000      3.359831000000000     -4.211222000000000
H       5.114961000000000      1.069296000000000     -4.016438000000000
H       4.446076000000000     -0.392347000000000     -2.157110000000000
C       1.306928000000000     -2.364974000000000     -1.668732000000000
H       2.587524000000000     -4.694504000000000     -1.808618000000000
H       4.869954000000000     -5.247705000000000     -0.989846000000000
H       6.179431000000000     -3.526498000000000      0.237643000000000
H       5.205115000000000     -1.311472000000000      0.677355000000000
H       2.345290000000000     -0.803436000000000      2.871539000000000
H       3.692796000000000     -0.300833000000000      4.882541000000000
H       5.669188000000000      1.193935000000000      4.714465000000000
H       6.289117000000000      2.174291000000000      2.520711000000000
H       4.955529000000000      1.656912000000000      0.507182000000000
Rh      0.234277000000000     -0.216160000000000      0.359880000000000
C       0.071037000000000     -1.624290000000000      1.621066000000000
O      -0.115173000000000     -2.520802000000000      2.318292000000000
H       0.251828000000000      0.923786000000000     -0.801554000000000
O      -2.176631000000000     -2.423735000000000     -0.653972000000000
O      -2.598061000000000     -4.027751000000000      0.840587000000000
H      -2.107654000000000     -4.531488000000000      0.167249000000000
O       1.801719000000000      2.671299000000000      0.873074000000000
O       0.791514000000000      3.743937000000000     -0.818081000000000
H       0.209681000000000      4.012219000000000     -0.078667000000000
O      -6.043103000000000     -0.721692000000000     -0.614379000000000
O      -5.145760000000000      1.272877000000000     -0.135985000000000
H      -5.852696000000000      1.227650000000000      0.533536000000000
O       1.112263000000000     -1.418461000000000     -2.394717000000000
O       0.371077000000000     -3.260548000000000     -1.331750000000000
H      -0.510324000000000     -2.881926000000000     -1.541267000000000
