84

P      -2.196418000000000     -0.677711000000000     -0.700451000000000
C      -3.886040000000000     -0.607442000000000      0.021694000000000
C      -2.495020000000000     -1.503889000000000     -2.308139000000000
C      -1.824186000000000      1.065417000000000     -1.132257000000000
C      -4.284588000000000     -1.676312000000000      0.833102000000000
C      -5.559149000000000     -1.704278000000000      1.383055000000000
C      -6.443903000000000     -0.653481000000000      1.136497000000000
C      -6.054240000000000      0.422418000000000      0.338053000000000
C      -4.779427000000000      0.442480000000000     -0.218317000000000
C      -1.620834000000000     -2.510487000000000     -2.724077000000000
C      -1.813934000000000     -3.144449000000000     -3.950412000000000
C      -2.878063000000000     -2.773201000000000     -4.765966000000000
C      -3.755242000000000     -1.769049000000000     -4.355761000000000
C      -3.567783000000000     -1.139608000000000     -3.130588000000000
C      -1.860025000000000      2.017465000000000     -0.104304000000000
C      -1.300170000000000      3.270911000000000     -0.295403000000000
C      -0.683038000000000      3.576509000000000     -1.509996000000000
C      -0.677445000000000      2.648518000000000     -2.550747000000000
C      -1.258661000000000      1.398845000000000     -2.365079000000000
H      -3.586307000000000     -2.484919000000000      1.036246000000000
H      -5.884916000000000     -2.524996000000000      2.013408000000000
C      -7.795356000000000     -0.725077000000000      1.756041000000000
H      -6.746780000000000      1.236902000000000      0.156751000000000
H      -4.475285000000000      1.284952000000000     -0.833195000000000
H      -0.788228000000000     -2.784212000000000     -2.081910000000000
H      -1.131665000000000     -3.927304000000000     -4.266234000000000
H      -3.028168000000000     -3.265880000000000     -5.721577000000000
H      -4.586965000000000     -1.479480000000000     -4.990150000000000
H      -4.258103000000000     -0.362900000000000     -2.811655000000000
H      -2.286772000000000      1.756207000000000      0.861215000000000
H      -1.286966000000000      4.011078000000000      0.497868000000000
C       0.061686000000000      4.859556000000000     -1.594058000000000
H      -0.192156000000000      2.896575000000000     -3.488426000000000
H      -1.223076000000000      0.662346000000000     -3.162646000000000
P       1.823115000000000     -0.679288000000000      1.060832000000000
C       2.086638000000000      1.113300000000000      0.731571000000000
C       3.133096000000000     -1.492703000000000      0.053644000000000
C       2.509119000000000     -0.905618000000000      2.754498000000000
C       1.808494000000000      2.055150000000000      1.731091000000000
C       1.989484000000000      3.412169000000000      1.493108000000000
C       2.441184000000000      3.844497000000000      0.243596000000000
C       2.663614000000000      2.917631000000000     -0.776081000000000
C       2.483871000000000      1.559859000000000     -0.533908000000000
C       2.802426000000000     -2.647398000000000     -0.658632000000000
C       3.773312000000000     -3.329119000000000     -1.387622000000000
C       5.080491000000000     -2.845881000000000     -1.413825000000000
C       5.419163000000000     -1.688584000000000     -0.708148000000000
C       4.451147000000000     -1.019889000000000      0.026652000000000
C       3.554849000000000     -0.132821000000000      3.274293000000000
C       4.068890000000000     -0.404265000000000      4.538019000000000
C       3.551858000000000     -1.455292000000000      5.293577000000000
C       2.517259000000000     -2.232876000000000      4.782627000000000
C       1.996369000000000     -1.956220000000000      3.520528000000000
H       1.468326000000000      1.722393000000000      2.708193000000000
H       1.790136000000000      4.138829000000000      2.272820000000000
C       2.683065000000000      5.283433000000000     -0.043220000000000
H       2.982058000000000      3.274122000000000     -1.750441000000000
H       2.665004000000000      0.842267000000000     -1.329234000000000
H       1.774631000000000     -3.000234000000000     -0.643644000000000
H       3.519440000000000     -4.227587000000000     -1.939046000000000
C       6.157564000000000     -3.526716000000000     -2.182995000000000
H       6.443664000000000     -1.333733000000000     -0.748432000000000
H       4.718797000000000     -0.119514000000000      0.572575000000000
H       3.959912000000000      0.695693000000000      2.699936000000000
H       4.874428000000000      0.206367000000000      4.933706000000000
H       3.953834000000000     -1.663967000000000      6.280016000000000
H       2.108190000000000     -3.051027000000000      5.366717000000000
H       1.184737000000000     -2.560641000000000      3.123145000000000
Rh     -0.350132000000000     -1.150979000000000      0.570228000000000
C      -1.133792000000000     -1.347569000000000      2.299765000000000
O      -1.616934000000000     -1.482663000000000      3.331331000000000
H       0.312701000000000     -1.029774000000000     -0.919202000000000
O      -8.183831000000000     -1.631238000000000      2.452347000000000
O      -8.565721000000000      0.339842000000000      1.459919000000000
H      -9.415611000000000      0.192798000000000      1.910191000000000
O       0.037250000000000      5.712522000000000     -0.733576000000000
O       0.832568000000000      4.948281000000000     -2.686926000000000
H       1.463285000000000      5.677420000000000     -2.524453000000000
O       7.302876000000000     -3.149327000000000     -2.241100000000000
O       5.728289000000000     -4.630661000000000     -2.824783000000000
H       6.503549000000000     -4.992716000000000     -3.287982000000000
O       3.007940000000000      5.725517000000000     -1.126822000000000
O       2.523308000000000      6.067772000000000      1.028607000000000
H       2.621730000000000      6.984025000000000      0.716223000000000
