96

P      -2.180255000000000     -0.730192000000000     -0.600728000000000
C      -3.443138000000000     -1.053642000000000      0.691850000000000
C      -2.868195000000000     -1.653746000000000     -2.034906000000000
C      -2.464249000000000      1.023648000000000     -1.068496000000000
C      -4.768378000000000     -1.371416000000000      0.371405000000000
C      -5.706184000000000     -1.577484000000000      1.377700000000000
C      -5.349809000000000     -1.478871000000000      2.725190000000000
C      -4.025159000000000     -1.167997000000000      3.038951000000000
C      -3.079450000000000     -0.961632000000000      2.039449000000000
C      -2.641110000000000     -3.034248000000000     -2.081859000000000
C      -3.148878000000000     -3.798535000000000     -3.126405000000000
C      -3.879689000000000     -3.188366000000000     -4.144942000000000
C      -4.103674000000000     -1.815444000000000     -4.109883000000000
C      -3.603514000000000     -1.049129000000000     -3.057623000000000
C      -1.459229000000000      1.667263000000000     -1.803773000000000
C      -1.599384000000000      2.997082000000000     -2.177776000000000
C      -2.739294000000000      3.727552000000000     -1.822779000000000
C      -3.734289000000000      3.083100000000000     -1.087925000000000
C      -3.604958000000000      1.745209000000000     -0.715100000000000
H      -5.068456000000000     -1.463077000000000     -0.669135000000000
H      -6.731679000000000     -1.826329000000000      1.114131000000000
C      -6.382765000000000     -1.648761000000000      3.811524000000000
H      -3.727215000000000     -1.095925000000000      4.082536000000000
H      -2.049017000000000     -0.731709000000000      2.295547000000000
H      -2.059322000000000     -3.508626000000000     -1.294132000000000
H      -2.965434000000000     -4.868077000000000     -3.151484000000000
H      -4.268459000000000     -3.782461000000000     -4.966163000000000
H      -4.669218000000000     -1.335402000000000     -4.902659000000000
H      -3.786254000000000      0.021428000000000     -3.034269000000000
H      -0.554179000000000      1.120064000000000     -2.061090000000000
H      -0.805432000000000      3.479715000000000     -2.744011000000000
C      -2.856265000000000      5.186114000000000     -2.195439000000000
H      -4.625320000000000      3.635095000000000     -0.798941000000000
H      -4.393427000000000      1.269921000000000     -0.138296000000000
P       2.079950000000000     -0.250862000000000      0.685172000000000
C       2.372139000000000      1.518894000000000      0.268908000000000
C       3.604645000000000     -1.046696000000000      0.036822000000000
C       2.319876000000000     -0.320872000000000      2.501820000000000
C       3.647751000000000      2.022402000000000     -0.010622000000000
C       3.822631000000000      3.368138000000000     -0.322212000000000
C       2.736069000000000      4.244303000000000     -0.369990000000000
C       1.465138000000000      3.736480000000000     -0.090684000000000
C       1.280677000000000      2.394541000000000      0.221987000000000
C       3.739324000000000     -1.139197000000000     -1.354883000000000
C       4.860607000000000     -1.730658000000000     -1.919715000000000
C       5.874911000000000     -2.261501000000000     -1.115164000000000
C       5.732479000000000     -2.175804000000000      0.269032000000000
C       4.614774000000000     -1.572186000000000      0.844212000000000
C       3.218233000000000      0.510285000000000      3.177610000000000
C       3.383295000000000      0.390234000000000      4.554835000000000
C       2.654706000000000     -0.561882000000000      5.265622000000000
C       1.755829000000000     -1.390509000000000      4.598735000000000
C       1.584519000000000     -1.266608000000000      3.222171000000000
H       4.509024000000000      1.359693000000000      0.003457000000000
H       4.819953000000000      3.742644000000000     -0.541531000000000
C       2.932198000000000      5.711593000000000     -0.661082000000000
H       0.600426000000000      4.396362000000000     -0.128403000000000
H       0.282347000000000      2.015105000000000      0.417682000000000
H       2.958159000000000     -0.737880000000000     -1.997892000000000
H       4.950956000000000     -1.790343000000000     -3.001869000000000
C       7.055521000000000     -2.968838000000000     -1.733028000000000
H       6.509512000000000     -2.584704000000000      0.910908000000000
H       4.535659000000000     -1.513614000000000      1.925538000000000
H       3.784347000000000      1.256780000000000      2.626274000000000
H       4.078586000000000      1.042754000000000      5.073885000000000
H       2.783707000000000     -0.652503000000000      6.339815000000000
H       1.180940000000000     -2.127760000000000      5.150573000000000
H       0.868448000000000     -1.893098000000000      2.693773000000000
Rh      0.039341000000000     -0.969532000000000     -0.072751000000000
C       0.575253000000000     -2.270575000000000     -1.355784000000000
O       0.894046000000000     -3.075329000000000     -2.109654000000000
H      -0.423626000000000      0.101817000000000      1.074042000000000
H      -7.143842000000000     -2.367406000000000      3.487892000000000
H      -5.909720000000000     -2.066584000000000      4.707042000000000
C      -7.052496000000000     -0.314427000000000      4.160701000000000
H      -6.308545000000000      0.410624000000000      4.504621000000000
H      -7.548030000000000      0.108790000000000      3.281508000000000
H      -7.799973000000000     -0.441534000000000      4.949101000000000
H      -2.682796000000000      5.304849000000000     -3.271688000000000
H      -3.877100000000000      5.531510000000000     -2.000151000000000
C      -1.860784000000000      6.059911000000000     -1.424251000000000
H      -0.830782000000000      5.765833000000000     -1.651706000000000
H      -1.975907000000000      7.115551000000000     -1.686475000000000
H      -2.009326000000000      5.953583000000000     -0.345237000000000
H       7.325307000000000     -2.480356000000000     -2.676178000000000
H       7.923820000000000     -2.884098000000000     -1.070168000000000
C       6.749459000000000     -4.448712000000000     -1.992080000000000
H       5.893682000000000     -4.552418000000000     -2.666071000000000
H       7.606985000000000     -4.956677000000000     -2.442879000000000
H       6.498799000000000     -4.958131000000000     -1.056710000000000
H       3.807608000000000      5.847111000000000     -1.305813000000000
H       2.066693000000000      6.095564000000000     -1.213454000000000
C       3.113268000000000      6.519853000000000      0.628979000000000
H       3.252908000000000      7.583145000000000      0.413479000000000
H       2.237523000000000      6.411365000000000      1.276070000000000
H       3.985035000000000      6.163620000000000      1.186271000000000
