72

P       2.327946000000000     -0.025383000000000      0.157556000000000
C       3.647748000000000     -0.937318000000000     -0.746974000000000
C       2.861567000000000     -0.157164000000000      1.904613000000000
C       2.719854000000000      1.719613000000000     -0.294198000000000
C       4.711269000000000     -1.572093000000000     -0.105051000000000
C       5.642990000000000     -2.257822000000000     -0.873784000000000
C       5.562983000000000     -2.327466000000000     -2.254420000000000
C       4.498788000000000     -1.687482000000000     -2.887513000000000
C       3.544554000000000     -1.003927000000000     -2.142787000000000
C       3.931283000000000      0.576988000000000      2.425625000000000
C       4.315655000000000      0.406391000000000      3.752791000000000
C       3.637812000000000     -0.500346000000000      4.565396000000000
C       2.570562000000000     -1.233368000000000      4.052191000000000
C       2.179155000000000     -1.058415000000000      2.727323000000000
C       1.712945000000000      2.680505000000000     -0.158206000000000
C       1.985853000000000      3.992096000000000     -0.510901000000000
C       3.224909000000000      4.393354000000000     -0.987287000000000
C       4.224270000000000      3.433057000000000     -1.112430000000000
C       3.977389000000000      2.103676000000000     -0.774903000000000
H       4.832206000000000     -1.549551000000000      0.972885000000000
F       6.661484000000000     -2.868702000000000     -0.251320000000000
H       6.317369000000000     -2.876443000000000     -2.806375000000000
H       4.411493000000000     -1.732219000000000     -3.968146000000000
H       2.712231000000000     -0.516065000000000     -2.644551000000000
H       4.460879000000000      1.286790000000000      1.795487000000000
H       5.143372000000000      0.983397000000000      4.152986000000000
H       3.939162000000000     -0.631099000000000      5.600040000000000
H       2.037207000000000     -1.936118000000000      4.684600000000000
H       1.333904000000000     -1.610784000000000      2.321199000000000
H       0.725219000000000      2.413576000000000      0.204450000000000
F       1.007576000000000      4.905514000000000     -0.402576000000000
H       3.385529000000000      5.431848000000000     -1.254038000000000
H       5.201935000000000      3.722207000000000     -1.484297000000000
H       4.763554000000000      1.364505000000000     -0.894748000000000
P      -2.145331000000000     -0.343118000000000     -0.233312000000000
C      -2.619515000000000      1.422914000000000     -0.418885000000000
C      -3.024294000000000     -0.850053000000000      1.302743000000000
C      -3.138242000000000     -1.184514000000000     -1.529334000000000
C      -3.782568000000000      1.951207000000000      0.144733000000000
C      -4.053127000000000      3.300575000000000     -0.028837000000000
C      -3.210098000000000      4.143553000000000     -0.737415000000000
C      -2.054513000000000      3.607615000000000     -1.299226000000000
C      -1.760795000000000      2.254937000000000     -1.145676000000000
C      -4.332670000000000     -1.342455000000000      1.268245000000000
C      -4.952643000000000     -1.679603000000000      2.461824000000000
C      -4.322943000000000     -1.545799000000000      3.689921000000000
C      -3.020278000000000     -1.056342000000000      3.714187000000000
C      -2.368579000000000     -0.714045000000000      2.531648000000000
C      -4.076122000000000     -0.528361000000000     -2.329722000000000
C      -4.797753000000000     -1.238540000000000     -3.288950000000000
C      -4.594885000000000     -2.605470000000000     -3.448649000000000
C      -3.662331000000000     -3.267181000000000     -2.650570000000000
C      -2.933622000000000     -2.559285000000000     -1.702017000000000
H      -4.471497000000000      1.343008000000000      0.722741000000000
F      -5.169056000000000      3.808171000000000      0.514354000000000
H      -3.462162000000000      5.194006000000000     -0.828798000000000
H      -1.368919000000000      4.252124000000000     -1.839189000000000
H      -0.849641000000000      1.837451000000000     -1.568176000000000
H      -4.875371000000000     -1.471808000000000      0.336943000000000
F      -6.207308000000000     -2.150953000000000      2.424779000000000
H      -4.851924000000000     -1.826933000000000      4.593580000000000
H      -2.506258000000000     -0.947265000000000      4.663763000000000
H      -1.348521000000000     -0.342826000000000      2.551078000000000
H      -4.246377000000000      0.537100000000000     -2.208410000000000
H      -5.520949000000000     -0.718761000000000     -3.909522000000000
H      -5.158701000000000     -3.155629000000000     -4.195376000000000
H      -3.496581000000000     -4.332739000000000     -2.773150000000000
H      -2.200016000000000     -3.075581000000000     -1.086157000000000
Rh      0.139877000000000     -0.570150000000000     -0.239463000000000
C       0.352947000000000     -1.858631000000000     -1.631222000000000
O       0.484584000000000     -2.642612000000000     -2.457722000000000
H      -0.037074000000000      0.511865000000000      0.974321000000000
