72

P       2.168451000000000      0.176432000000000      0.289403000000000
C       3.465192000000000     -0.584352000000000     -0.776285000000000
C       2.931780000000000      0.023565000000000      1.954014000000000
C       2.307814000000000      1.964277000000000     -0.098152000000000
C       3.596925000000000     -1.976331000000000     -0.717897000000000
C       4.553056000000000     -2.592106000000000     -1.507133000000000
C       5.381463000000000     -1.882653000000000     -2.367023000000000
C       5.219146000000000     -0.508278000000000     -2.405239000000000
C       4.282994000000000      0.161055000000000     -1.625908000000000
C       4.313019000000000     -0.120822000000000      2.130666000000000
C       4.853279000000000     -0.202734000000000      3.411223000000000
C       4.020677000000000     -0.143586000000000      4.526298000000000
C       2.645498000000000     -0.004163000000000      4.357857000000000
C       2.100995000000000      0.074656000000000      3.078859000000000
C       1.356685000000000      2.518921000000000     -0.961613000000000
C       1.397242000000000      3.873703000000000     -1.278831000000000
C       2.394786000000000      4.682962000000000     -0.739589000000000
C       3.349561000000000      4.136068000000000      0.114857000000000
C       3.306375000000000      2.781899000000000      0.438483000000000
H       2.966332000000000     -2.581685000000000     -0.072843000000000
F       4.687187000000000     -3.921406000000000     -1.449470000000000
H       6.116668000000000     -2.383480000000000     -2.984201000000000
F       6.002887000000000      0.204408000000000     -3.223262000000000
H       4.208785000000000      1.240531000000000     -1.697014000000000
H       4.969713000000000     -0.172052000000000      1.266331000000000
H       5.925601000000000     -0.315941000000000      3.536391000000000
H       4.443289000000000     -0.211085000000000      5.523930000000000
H       1.991512000000000      0.036712000000000      5.223356000000000
H       1.027943000000000      0.174038000000000      2.941594000000000
H       0.573060000000000      1.881040000000000     -1.366216000000000
H       0.639281000000000      4.298007000000000     -1.929505000000000
H       2.423984000000000      5.741378000000000     -0.978828000000000
H       4.124662000000000      4.766209000000000      0.539643000000000
H       4.043455000000000      2.365395000000000      1.119736000000000
P      -2.280132000000000     -0.503493000000000      0.152466000000000
C      -2.970131000000000      1.073020000000000     -0.521754000000000
C      -2.991689000000000     -0.589458000000000      1.838227000000000
C      -3.250237000000000     -1.753765000000000     -0.782495000000000
C      -2.237700000000000      2.250519000000000     -0.339974000000000
C      -2.736967000000000      3.435356000000000     -0.857891000000000
C      -3.939733000000000      3.506882000000000     -1.544567000000000
C      -4.643993000000000      2.323121000000000     -1.700022000000000
C      -4.187006000000000      1.107775000000000     -1.209872000000000
C      -4.250501000000000     -0.070291000000000      2.155557000000000
C      -4.753034000000000     -0.195396000000000      3.447809000000000
C      -4.004605000000000     -0.843288000000000      4.428768000000000
C      -2.749885000000000     -1.361954000000000      4.118634000000000
C      -2.241676000000000     -1.230306000000000      2.828859000000000
C      -2.938200000000000     -1.922254000000000     -2.138143000000000
C      -3.625806000000000     -2.849736000000000     -2.911039000000000
C      -4.624688000000000     -3.633788000000000     -2.333945000000000
C      -4.933050000000000     -3.480135000000000     -0.986659000000000
C      -4.252870000000000     -2.540387000000000     -0.211646000000000
H      -1.286451000000000      2.247423000000000      0.181612000000000
F      -2.022921000000000      4.558948000000000     -0.706415000000000
H      -4.308767000000000      4.441765000000000     -1.947423000000000
F      -5.810391000000000      2.356639000000000     -2.356155000000000
H      -4.778109000000000      0.214329000000000     -1.380997000000000
H      -4.837324000000000      0.436071000000000      1.393458000000000
H      -5.728344000000000      0.215396000000000      3.689220000000000
H      -4.398116000000000     -0.938593000000000      5.435999000000000
H      -2.162274000000000     -1.862050000000000      4.882136000000000
H      -1.253679000000000     -1.613162000000000      2.580513000000000
H      -2.152389000000000     -1.318513000000000     -2.588113000000000
H      -3.376367000000000     -2.967938000000000     -3.960663000000000
H      -5.156479000000000     -4.365131000000000     -2.934317000000000
H      -5.706591000000000     -4.090848000000000     -0.531670000000000
H      -4.505063000000000     -2.426240000000000      0.838106000000000
Rh      0.009113000000000     -0.560032000000000      0.058862000000000
C       0.270237000000000     -1.985081000000000     -1.184609000000000
O       0.433336000000000     -2.848487000000000     -1.921054000000000
H      -0.206455000000000      0.638904000000000      1.150113000000000
