80

P      -2.250895000000000     -0.190910000000000     -0.063977000000000
C      -3.133053000000000      1.299165000000000     -0.654329000000000
C      -2.478985000000000     -0.142160000000000      1.765973000000000
C      -3.304290000000000     -1.592646000000000     -0.577663000000000
C      -2.602035000000000      2.581495000000000     -0.369489000000000
C      -3.214620000000000      3.702669000000000     -0.953595000000000
C      -4.312765000000000      3.567682000000000     -1.787630000000000
C      -4.843333000000000      2.307994000000000     -2.061376000000000
C      -4.248247000000000      1.189316000000000     -1.492390000000000
C      -1.840841000000000     -1.100176000000000      2.564703000000000
C      -1.978538000000000     -1.071746000000000      3.948353000000000
C      -2.748451000000000     -0.079164000000000      4.554982000000000
C      -3.391743000000000      0.870385000000000      3.768014000000000
C      -3.263577000000000      0.837466000000000      2.379543000000000
C      -3.047381000000000     -2.281674000000000     -1.785713000000000
C      -3.891655000000000     -3.350241000000000     -2.137736000000000
C      -4.956962000000000     -3.719067000000000     -1.334251000000000
C      -5.218759000000000     -3.036117000000000     -0.146223000000000
C      -4.389509000000000     -1.984619000000000      0.216896000000000
N      -1.555129000000000      2.773656000000000      0.518056000000000
H      -2.812381000000000      4.688341000000000     -0.733774000000000
H      -4.758284000000000      4.455297000000000     -2.226791000000000
H      -5.703389000000000      2.197458000000000     -2.712444000000000
H      -4.645752000000000      0.201969000000000     -1.708630000000000
H      -1.226095000000000     -1.863005000000000      2.095982000000000
H      -1.480424000000000     -1.823165000000000      4.553435000000000
H      -2.848566000000000     -0.051049000000000      5.635715000000000
H      -3.997700000000000      1.643068000000000      4.230878000000000
H      -3.772507000000000      1.581882000000000      1.775428000000000
N      -2.047728000000000     -1.894460000000000     -2.662682000000000
H      -3.698284000000000     -3.882239000000000     -3.065782000000000
H      -5.588945000000000     -4.548369000000000     -1.637827000000000
H      -6.052078000000000     -3.320871000000000      0.486393000000000
H      -4.581307000000000     -1.447448000000000      1.141559000000000
P       2.268074000000000     -0.105455000000000     -0.183004000000000
C       2.933244000000000     -1.295574000000000      1.041982000000000
C       2.560690000000000      1.524321000000000      0.616137000000000
C       3.516309000000000     -0.191641000000000     -1.523865000000000
C       2.770654000000000     -2.680943000000000      0.804514000000000
C       3.307035000000000     -3.589648000000000      1.728290000000000
C       3.982157000000000     -3.148803000000000      2.857148000000000
C       4.135348000000000     -1.785810000000000      3.100893000000000
C       3.610763000000000     -0.874180000000000      2.190601000000000
C       1.727103000000000      1.942317000000000      1.683535000000000
C       1.935389000000000      3.211293000000000      2.245613000000000
C       2.929792000000000      4.053194000000000      1.768975000000000
C       3.748583000000000      3.649944000000000      0.717855000000000
C       3.556793000000000      2.391847000000000      0.156770000000000
C       3.116141000000000      0.033298000000000     -2.842847000000000
C       4.049421000000000     -0.000633000000000     -3.876807000000000
C       5.386250000000000     -0.269343000000000     -3.598654000000000
C       5.790506000000000     -0.505986000000000     -2.285478000000000
C       4.860630000000000     -0.469402000000000     -1.251610000000000
N       2.156353000000000     -3.139451000000000     -0.354399000000000
H       3.186219000000000     -4.654496000000000      1.545661000000000
H       4.386616000000000     -3.877094000000000      3.553666000000000
H       4.660347000000000     -1.435854000000000      3.982993000000000
H       3.740087000000000      0.190535000000000      2.365134000000000
N       0.670718000000000      1.171584000000000      2.150675000000000
H       1.294560000000000      3.529407000000000      3.064328000000000
H       3.063524000000000      5.029630000000000      2.224627000000000
H       4.526964000000000      4.302584000000000      0.338412000000000
H       4.194278000000000      2.074609000000000     -0.662406000000000
H       2.069790000000000      0.226556000000000     -3.060969000000000
H       3.728289000000000      0.175254000000000     -4.898580000000000
H       6.113271000000000     -0.301178000000000     -4.404245000000000
H       6.831370000000000     -0.723221000000000     -2.066839000000000
H       5.175320000000000     -0.659239000000000     -0.228835000000000
Rh     -0.011978000000000     -0.191223000000000     -0.608221000000000
C      -0.080084000000000      1.240979000000000     -1.883577000000000
O      -0.148183000000000      2.070090000000000     -2.671518000000000
H      -0.021421000000000     -1.475667000000000      0.394349000000000
H      -1.030140000000000      3.628852000000000      0.384688000000000
H      -0.946742000000000      1.989641000000000      0.749060000000000
H      -1.247371000000000     -1.413679000000000     -2.251362000000000
H      -1.773975000000000     -2.603025000000000     -3.331032000000000
H       1.915911000000000     -4.123113000000000     -0.323972000000000
H       1.359720000000000     -2.577004000000000     -0.652726000000000
H       0.681269000000000      0.173122000000000      1.969959000000000
H       0.323240000000000      1.399246000000000      3.073911000000000
