80

P      -2.198282000000000     -0.032780000000000      0.156078000000000
C      -2.948052000000000      1.635466000000000      0.247118000000000
C      -2.340112000000000     -0.678836000000000      1.872745000000000
C      -3.484968000000000     -0.986224000000000     -0.734958000000000
C      -2.130213000000000      2.748788000000000      0.477858000000000
C      -2.668618000000000      4.023175000000000      0.581699000000000
C      -4.048447000000000      4.228260000000000      0.447658000000000
C      -4.870541000000000      3.118530000000000      0.209143000000000
C      -4.325731000000000      1.845940000000000      0.109449000000000
C      -1.487197000000000     -1.723717000000000      2.247477000000000
C      -1.550482000000000     -2.260450000000000      3.529963000000000
C      -2.462590000000000     -1.753245000000000      4.453830000000000
C      -3.310505000000000     -0.710512000000000      4.089653000000000
C      -3.250969000000000     -0.174530000000000      2.804097000000000
C      -3.536202000000000     -0.868660000000000     -2.129972000000000
C      -4.494935000000000     -1.536816000000000     -2.874258000000000
C      -5.433549000000000     -2.365806000000000     -2.242297000000000
C      -5.385849000000000     -2.489897000000000     -0.848881000000000
C      -4.427512000000000     -1.806522000000000     -0.108995000000000
H      -1.057215000000000      2.605340000000000      0.571894000000000
H      -2.017283000000000      4.874174000000000      0.764368000000000
N      -4.596834000000000      5.498712000000000      0.597036000000000
H      -5.942702000000000      3.260833000000000      0.100515000000000
H      -4.984580000000000      1.003743000000000     -0.085473000000000
H      -0.760840000000000     -2.098083000000000      1.528159000000000
H      -0.879975000000000     -3.067968000000000      3.808884000000000
H      -2.508298000000000     -2.165512000000000      5.457308000000000
H      -4.017749000000000     -0.307631000000000      4.808245000000000
H      -3.908877000000000      0.645305000000000      2.528480000000000
H      -2.808610000000000     -0.241736000000000     -2.641407000000000
H      -4.517305000000000     -1.429628000000000     -3.955548000000000
N      -6.423414000000000     -3.008579000000000     -2.982444000000000
H      -6.108292000000000     -3.126322000000000     -0.344276000000000
H      -4.415788000000000     -1.920756000000000      0.971259000000000
P       2.277406000000000     -0.108138000000000     -0.407572000000000
C       2.931394000000000     -0.910015000000000      1.105865000000000
C       2.986725000000000      1.573652000000000     -0.381730000000000
C       3.255867000000000     -0.955912000000000     -1.718620000000000
C       4.190014000000000     -1.522828000000000      1.149572000000000
C       4.663504000000000     -2.109500000000000      2.315201000000000
C       3.885250000000000     -2.107212000000000      3.480756000000000
C       2.623174000000000     -1.499380000000000      3.441535000000000
C       2.156885000000000     -0.914158000000000      2.273396000000000
C       2.251125000000000      2.616157000000000     -0.954830000000000
C       2.755889000000000      3.908272000000000     -1.000542000000000
C       4.015955000000000      4.196991000000000     -0.459620000000000
C       4.753175000000000      3.156017000000000      0.123326000000000
C       4.242907000000000      1.866287000000000      0.159362000000000
C       2.974639000000000     -2.306774000000000     -1.962738000000000
C       3.665081000000000     -3.007862000000000     -2.943647000000000
C       4.639913000000000     -2.363755000000000     -3.705980000000000
C       4.918882000000000     -1.021019000000000     -3.477101000000000
C       4.233090000000000     -0.318428000000000     -2.485169000000000
H       4.809136000000000     -1.553104000000000      0.256536000000000
H       5.644374000000000     -2.577841000000000      2.328127000000000
N       4.376518000000000     -2.652919000000000      4.663191000000000
H       2.002774000000000     -1.490592000000000      4.334459000000000
H       1.171660000000000     -0.456330000000000      2.258562000000000
H       1.262062000000000      2.404323000000000     -1.357384000000000
H       2.171935000000000      4.706293000000000     -1.451898000000000
N       4.548390000000000      5.480614000000000     -0.542580000000000
H       5.730097000000000      3.367790000000000      0.550265000000000
H       4.828136000000000      1.077259000000000      0.625141000000000
H       2.207655000000000     -2.808280000000000     -1.375378000000000
H       3.436899000000000     -4.054336000000000     -3.120782000000000
H       5.174682000000000     -2.908149000000000     -4.478180000000000
H       5.673428000000000     -0.512541000000000     -4.069608000000000
H       4.461061000000000      0.729026000000000     -2.312253000000000
Rh     -0.014082000000000     -0.180722000000000     -0.542467000000000
C      -0.218437000000000     -1.289764000000000     -2.071006000000000
O      -0.341140000000000     -1.955319000000000     -2.999310000000000
H       0.169234000000000      0.793770000000000      0.764350000000000
H      -3.959808000000000      6.261499000000000      0.408606000000000
H      -5.489466000000000      5.633629000000000      0.140756000000000
H      -6.183758000000000     -3.174180000000000     -3.951401000000000
H      -6.802922000000000     -3.839256000000000     -2.547060000000000
H       3.863178000000000      6.219202000000000     -0.633174000000000
H       5.243119000000000      5.698513000000000      0.159676000000000
H       5.077812000000000     -3.371719000000000      4.542312000000000
H       3.668187000000000     -2.926998000000000      5.331218000000000
