76

P      -4.056843140000000     -0.368310650000000      1.350942260000000
C      -4.501165930000000      1.374654200000000      1.646612980000000
C      -5.378500360000000     -1.181216430000000      2.311783810000000
C      -4.563242190000000     -0.722422070000000     -0.368247260000000
C      -3.937389730000000      1.980509190000000      2.762399890000000
C      -4.222840200000000      3.304032950000000      3.072539690000000
C      -5.087630770000000      4.019554830000000      2.245392940000000
C      -5.664649540000000      3.407472010000000      1.148426320000000
C      -5.386200050000000      2.086043980000000      0.843860530000000
C      -5.313466720000000     -1.033497820000000      3.694232280000000
C      -6.277657850000000     -1.603170490000000      4.501658980000000
C      -7.310409960000000     -2.333785040000000      3.933245250000000
C      -7.372328080000000     -2.492728160000000      2.559535490000000
C      -6.409849110000000     -1.918853140000000      1.745755990000000
C      -4.371814700000000      0.348072640000000     -1.238370370000000
C      -4.785849270000000      0.275990920000000     -2.559828090000000
C      -5.365500350000000     -0.907240760000000     -3.019472490000000
C      -5.546369690000000     -1.970189190000000     -2.156980070000000
C      -5.162371130000000     -1.885474380000000     -0.827104080000000
H      -3.272845860000000      1.395329810000000      3.396742400000000
O      -3.693658260000000      3.930951540000000      4.149443190000000
H      -5.303141430000000      5.048211550000000      2.487973100000000
H      -6.345126320000000      3.969374960000000      0.525310480000000
H      -5.860167740000000      1.604995430000000     -0.000021160000000
H      -4.490684170000000     -0.473056930000000      4.120213230000000
H      -6.226475670000000     -1.483602840000000      5.574184230000000
H      -8.064591500000001     -2.782935900000000      4.562974510000000
H      -8.174560970000000     -3.066127080000000      2.117360740000000
H      -6.461400410000000     -2.043922860000000      0.672880340000000
H      -3.892996960000000      1.248880160000000     -0.856835030000000
O      -4.657772220000000      1.311341150000000     -3.425800110000000
H      -5.680715160000000     -0.962574230000000     -4.049476400000000
H      -6.008469280000000     -2.875922220000000     -2.521851540000000
H      -5.339930420000000     -2.711278250000000     -0.155140310000000
P       0.097691850000000     -0.312611580000000      1.818712270000000
C       0.225585330000000      1.462200200000000      1.406929440000000
C       1.219342820000000     -1.193015480000000      0.679483530000000
C       1.093223800000000     -0.425068190000000      3.344958700000000
C      -0.731805170000000      2.222996330000000      2.071749200000000
C      -0.905469650000000      3.562608470000000      1.765229860000000
C      -0.088500160000000      4.155475300000000      0.807890680000000
C       0.871796120000000      3.399985720000000      0.159547750000000
C       1.027637650000000      2.052337680000000      0.441384820000000
C       1.658782150000000     -2.424580360000000      1.140891350000000
C       2.524721190000000     -3.200964380000000      0.384385500000000
C       2.955790790000000     -2.727122490000000     -0.848862320000000
C       2.538340480000000     -1.483463240000000     -1.296196000000000
C       1.680496950000000     -0.706043250000000     -0.539160270000000
C       1.139762850000000     -1.674165080000000      3.956321160000000
C       1.892857370000000     -1.861891450000000      5.098697390000000
C       2.597843920000000     -0.798847530000000      5.642759970000000
C       2.545452110000000      0.447983360000000      5.043000050000000
C       1.796399090000000      0.639192810000000      3.894302470000000
H      -1.360208270000000      1.749553800000000      2.822705620000000
O      -1.904263670000000      4.247049220000000      2.399891800000000
H      -0.219154860000000      5.200687000000000      0.560899770000000
H       1.494182880000000      3.866192440000000     -0.589973390000000
H       1.754167770000000      1.465550930000000     -0.099730790000000
H       1.319778110000000     -2.771250220000000      2.115291630000000
O       2.920804610000000     -4.402056100000000      0.895771920000000
H       3.625756540000000     -3.324467970000000     -1.453054360000000
H       2.894391980000000     -1.119682680000000     -2.248903270000000
H       1.380119060000000      0.273325270000000     -0.882755340000000
H       0.567068510000000     -2.486042830000000      3.525825990000000
H       1.929574920000000     -2.832930320000000      5.570609110000000
H       3.184470820000000     -0.941761900000000      6.538527940000000
H       3.090418240000000      1.276879780000000      5.471606430000000
H       1.755345190000000      1.614139530000000      3.427952690000000
Rh     -1.937840000000000     -1.129960000000000      1.385870000000000
C      -1.766170000000000     -0.201680000000000     -0.205560000000000
O      -1.647110000000000      0.398080000000000     -1.184400000000000
H      -2.087600000000000     -1.890610000000000      2.718310000000000
H      -3.144183290000000      3.322262210000000      4.671358900000000
H      -1.911729920000000      5.167808060000000      2.110599210000000
H      -4.399935150000000      2.120639720000000     -2.958550740000000
H       3.492910480000000     -4.859712000000000      0.268011590000000
