76

P      -2.189403000000000     -0.236797000000000      0.322683000000000
C      -2.669996000000000      1.534193000000000      0.373329000000000
C      -2.585467000000000     -0.865492000000000      2.000454000000000
C      -3.529472000000000     -0.961125000000000     -0.701610000000000
C      -1.699995000000000      2.500453000000000      0.661660000000000
C      -2.028790000000000      3.850110000000000      0.713295000000000
C      -3.341388000000000      4.255714000000000      0.471971000000000
C      -4.321595000000000      3.305903000000000      0.178194000000000
C      -3.982834000000000      1.960938000000000      0.127131000000000
C      -3.586736000000000     -0.311981000000000      2.803108000000000
C      -3.864629000000000     -0.858471000000000      4.053988000000000
C      -3.147302000000000     -1.962422000000000      4.509774000000000
C      -2.145493000000000     -2.516543000000000      3.715988000000000
C      -1.861199000000000     -1.966349000000000      2.469034000000000
C      -3.498559000000000     -0.709978000000000     -2.082119000000000
C      -4.475172000000000     -1.210280000000000     -2.926674000000000
C      -5.505891000000000     -1.994609000000000     -2.400509000000000
C      -5.548659000000000     -2.261209000000000     -1.034239000000000
C      -4.566816000000000     -1.742382000000000     -0.192017000000000
H      -0.675066000000000      2.189783000000000      0.842561000000000
H      -1.259826000000000      4.587884000000000      0.932781000000000
O      -3.722517000000000      5.558964000000000      0.501976000000000
H      -5.334381000000000      3.642865000000000     -0.014496000000000
H      -4.751076000000000      1.231831000000000     -0.116525000000000
H      -4.145761000000000      0.551899000000000      2.453052000000000
H      -4.640175000000000     -0.419302000000000      4.673938000000000
H      -3.365084000000000     -2.386000000000000      5.485443000000000
H      -1.579180000000000     -3.372206000000000      4.070789000000000
H      -1.065487000000000     -2.377447000000000      1.850323000000000
H      -2.693029000000000     -0.108292000000000     -2.498430000000000
H      -4.455457000000000     -1.019147000000000     -3.993997000000000
O      -6.434489000000000     -2.469165000000000     -3.271443000000000
H      -6.348492000000000     -2.874170000000000     -0.624782000000000
H      -4.618999000000000     -1.956208000000000      0.871222000000000
P       2.263815000000000     -0.235813000000000     -0.378232000000000
C       3.263890000000000     -0.930997000000000      0.991902000000000
C       2.637487000000000      1.557622000000000     -0.339133000000000
C       3.195251000000000     -0.831442000000000     -1.848689000000000
C       4.619207000000000     -1.257409000000000      0.838848000000000
C       5.362052000000000     -1.751166000000000      1.901719000000000
C       4.753251000000000     -1.932556000000000      3.145085000000000
C       3.404027000000000     -1.621412000000000      3.312642000000000
C       2.667441000000000     -1.128720000000000      2.241120000000000
C       1.695307000000000      2.437830000000000     -0.890167000000000
C       1.910624000000000      3.808116000000000     -0.895686000000000
C       3.082040000000000      4.323653000000000     -0.336757000000000
C       4.029048000000000      3.462396000000000      0.217477000000000
C       3.804001000000000      2.088719000000000      0.213749000000000
C       4.030828000000000     -0.016888000000000     -2.615851000000000
C       4.704087000000000     -0.542372000000000     -3.718942000000000
C       4.553779000000000     -1.882818000000000     -4.058457000000000
C       3.721971000000000     -2.702441000000000     -3.295846000000000
C       3.042574000000000     -2.177856000000000     -2.202948000000000
H       5.100490000000000     -1.128943000000000     -0.127197000000000
H       6.409810000000000     -2.008512000000000      1.790435000000000
O       5.523006000000000     -2.421331000000000      4.151846000000000
H       2.926842000000000     -1.772092000000000      4.278490000000000
H       1.614267000000000     -0.894470000000000      2.369020000000000
H       0.773627000000000      2.033434000000000     -1.305075000000000
H       1.183993000000000      4.493990000000000     -1.318387000000000
O       3.241614000000000      5.673275000000000     -0.353973000000000
H       4.937773000000000      3.865747000000000      0.658675000000000
H       4.544656000000000      1.429780000000000      0.658744000000000
H       4.156502000000000      1.030044000000000     -2.355838000000000
H       5.346783000000000      0.100906000000000     -4.312164000000000
H       5.077969000000000     -2.289110000000000     -4.917828000000000
H       3.595129000000000     -3.747746000000000     -3.559382000000000
H       2.384373000000000     -2.815267000000000     -1.615655000000000
Rh     -0.006361000000000     -0.566473000000000     -0.301370000000000
C      -0.255764000000000     -1.547978000000000     -1.912963000000000
O      -0.403088000000000     -2.160497000000000     -2.872244000000000
H       0.208579000000000      0.237792000000000      1.110855000000000
H      -2.953889000000000      6.110214000000000      0.707425000000000
H      -7.078825000000000     -3.006381000000000     -2.788947000000000
H       4.086043000000000      5.899643000000000      0.061209000000000
H       4.985123000000000     -2.504559000000000      4.952166000000000
