88

P       2.228240000000000     -0.719473000000000      0.235683000000000
C       2.821244000000000      1.024420000000000      0.157547000000000
C       3.478944000000000     -1.583307000000000     -0.800532000000000
C       2.665246000000000     -1.241325000000000      1.937456000000000
C       4.094845000000000      1.336497000000000     -0.323412000000000
C       4.493540000000000      2.677647000000000     -0.372330000000000
C       3.637030000000000      3.685972000000000      0.060347000000000
C       2.373692000000000      3.360296000000000      0.549270000000000
C       1.953855000000000      2.025767000000000      0.599098000000000
C       4.493509000000000     -2.389047000000000     -0.279538000000000
C       5.412347000000000     -3.001330000000000     -1.132616000000000
C       5.331699000000000     -2.805900000000000     -2.507241000000000
C       4.321911000000000     -2.001035000000000     -3.034951000000000
C       3.397739000000000     -1.401604000000000     -2.187562000000000
C       3.754310000000000     -0.706539000000000      2.632011000000000
C       4.055228000000000     -1.157796000000000      3.914517000000000
C       3.273734000000000     -2.146755000000000      4.508944000000000
C       2.186538000000000     -2.681888000000000      3.822100000000000
C       1.879243000000000     -2.226737000000000      2.542487000000000
H       4.755559000000000      0.547756000000000     -0.659728000000000
O       5.703858000000000      3.087033000000000     -0.831319000000000
H       3.950030000000000      4.722395000000000      0.011804000000000
O       1.597143000000000      4.407208000000000      0.922656000000000
H       0.964852000000000      1.752742000000000      0.948891000000000
H       4.570933000000000     -2.542246000000000      0.792538000000000
H       6.192874000000000     -3.631027000000000     -0.716809000000000
H       6.048359000000000     -3.282850000000000     -3.168537000000000
H       4.248186000000000     -1.849636000000000     -4.107274000000000
H       2.606185000000000     -0.779922000000000     -2.601358000000000
H       4.362604000000000      0.067334000000000      2.170359000000000
H       4.898293000000000     -0.734113000000000      4.451401000000000
H       3.509315000000000     -2.495285000000000      5.509790000000000
H       1.571529000000000     -3.447345000000000      4.285153000000000
H       1.018832000000000     -2.621291000000000      2.005131000000000
P      -2.272752000000000     -0.696949000000000     -0.215708000000000
C      -2.745385000000000      1.078491000000000     -0.202682000000000
C      -3.145468000000000     -1.381565000000000      1.252436000000000
C      -3.274655000000000     -1.378472000000000     -1.598900000000000
C      -1.864493000000000      1.969961000000000     -0.817060000000000
C      -2.191973000000000      3.331248000000000     -0.852794000000000
C      -3.380674000000000      3.782957000000000     -0.283591000000000
C      -4.249676000000000      2.880869000000000      0.325859000000000
C      -3.939026000000000      1.516854000000000      0.370955000000000
C      -4.472084000000000     -1.824287000000000      1.186907000000000
C      -5.113597000000000     -2.297713000000000      2.328907000000000
C      -4.436707000000000     -2.337729000000000      3.545553000000000
C      -3.114831000000000     -1.905262000000000      3.616716000000000
C      -2.469524000000000     -1.433283000000000      2.476734000000000
C      -3.116193000000000     -2.738383000000000     -1.894781000000000
C      -3.838460000000000     -3.325520000000000     -2.926646000000000
C      -4.718542000000000     -2.555713000000000     -3.686894000000000
C      -4.874541000000000     -1.202523000000000     -3.405339000000000
C      -4.159676000000000     -0.613820000000000     -2.362047000000000
H      -0.930916000000000      1.593150000000000     -1.224427000000000
O      -1.393645000000000      4.287773000000000     -1.387092000000000
H      -3.623645000000000      4.838989000000000     -0.303923000000000
O      -5.378172000000000      3.417083000000000      0.856092000000000
H      -4.600896000000000      0.806300000000000      0.850975000000000
H      -5.005073000000000     -1.801561000000000      0.240113000000000
H      -6.141944000000000     -2.640080000000000      2.265326000000000
H      -4.936697000000000     -2.711176000000000      4.433929000000000
H      -2.579467000000000     -1.940980000000000      4.560551000000000
H      -1.435545000000000     -1.103619000000000      2.525241000000000
H      -2.420409000000000     -3.337473000000000     -1.310373000000000
H      -3.707251000000000     -4.380655000000000     -3.144823000000000
H      -5.276148000000000     -3.010686000000000     -4.499551000000000
H      -5.555019000000000     -0.597935000000000     -3.996989000000000
H      -4.292744000000000      0.441971000000000     -2.145700000000000
Rh      0.004250000000000     -0.977517000000000     -0.275920000000000
C       0.148175000000000     -2.044928000000000     -1.846407000000000
O       0.230565000000000     -2.698674000000000     -2.785761000000000
H      -0.129000000000000     -0.082875000000000      1.090456000000000
C       6.589583000000000      2.096544000000000     -1.306033000000000
H       6.153889000000000      1.537871000000000     -2.143271000000000
H       7.479841000000000      2.625841000000000     -1.644972000000000
H       6.864603000000000      1.392346000000000     -0.511519000000000
C       0.367115000000000      4.113611000000000      1.558346000000000
H       0.530753000000000      3.547641000000000      2.483172000000000
H      -0.089597000000000      5.075944000000000      1.787383000000000
H      -0.302978000000000      3.544527000000000      0.905316000000000
C      -0.197771000000000      3.866215000000000     -2.015093000000000
H       0.297659000000000      4.774360000000000     -2.356766000000000
H       0.460804000000000      3.336700000000000     -1.316999000000000
H      -0.412376000000000      3.214939000000000     -2.870949000000000
C      -6.274507000000000      2.539229000000000      1.501587000000000
H      -7.096596000000000      3.158025000000000      1.860558000000000
H      -6.662741000000000      1.783961000000000      0.807527000000000
H      -5.798086000000000      2.034510000000000      2.350550000000000
