72

P      -2.258202000000000      0.069332000000000      0.235433000000000
C      -3.026821000000000     -1.493068000000000     -0.355427000000000
C      -2.661583000000000      1.273826000000000     -1.088025000000000
C      -3.394955000000000      0.551907000000000      1.596571000000000
C      -2.257054000000000     -2.379875000000000     -1.116787000000000
C      -2.808205000000000     -3.558607000000000     -1.608617000000000
C      -4.137497000000000     -3.855466000000000     -1.327478000000000
C      -4.921198000000000     -2.994744000000000     -0.566758000000000
C      -4.361036000000000     -1.816064000000000     -0.083155000000000
C      -3.780111000000000      1.149856000000000     -1.916208000000000
C      -4.046041000000000      2.102639000000000     -2.895744000000000
C      -3.184483000000000      3.185208000000000     -3.040077000000000
C      -2.063937000000000      3.329390000000000     -2.228219000000000
C      -1.805911000000000      2.367578000000000     -1.257061000000000
C      -4.337529000000000      1.576896000000000      1.494821000000000
C      -5.162221000000000      1.892610000000000      2.573462000000000
C      -5.044229000000000      1.170175000000000      3.753728000000000
C      -4.112546000000000      0.142618000000000      3.879126000000000
C      -3.288864000000000     -0.154685000000000      2.801348000000000
H      -1.216651000000000     -2.143509000000000     -1.320890000000000
H      -2.210931000000000     -4.244513000000000     -2.198703000000000
Br     -4.890507000000000     -5.461275000000000     -1.981911000000000
H      -5.954100000000000     -3.245322000000000     -0.353349000000000
H      -4.974762000000000     -1.148266000000000      0.514978000000000
H      -4.449419000000000      0.300693000000000     -1.807576000000000
H      -4.909588000000000      2.005854000000000     -3.543923000000000
Br     -3.537320000000000      4.481487000000000     -4.370380000000000
H      -1.401157000000000      4.177163000000000     -2.360580000000000
H      -0.922269000000000      2.455206000000000     -0.627470000000000
H      -4.436914000000000      2.141800000000000      0.572974000000000
H      -5.890315000000000      2.692039000000000      2.496594000000000
Br     -6.162611000000000      1.592135000000000      5.218051000000000
H      -4.029918000000000     -0.406499000000000      4.809981000000000
H      -2.551883000000000     -0.949312000000000      2.898742000000000
P       2.249158000000000     -0.105027000000000      0.263959000000000
C       3.401716000000000      0.121458000000000      1.678119000000000
C       2.881899000000000      1.140989000000000     -0.932986000000000
C       2.784169000000000     -1.704546000000000     -0.453458000000000
C       4.416605000000000     -0.779243000000000      2.006286000000000
C       5.246547000000000     -0.545508000000000      3.101920000000000
C       5.060612000000000      0.600753000000000      3.863423000000000
C       4.055738000000000      1.514680000000000      3.555454000000000
C       3.228295000000000      1.264753000000000      2.468753000000000
C       4.173382000000000      1.672059000000000     -0.840812000000000
C       4.630332000000000      2.599864000000000     -1.772264000000000
C       3.785896000000000      2.999627000000000     -2.802055000000000
C       2.497215000000000      2.488656000000000     -2.914040000000000
C       2.049633000000000      1.563932000000000     -1.976125000000000
C       2.015829000000000     -2.837130000000000     -0.166441000000000
C       2.382947000000000     -4.087555000000000     -0.653604000000000
C       3.523204000000000     -4.195900000000000     -1.442834000000000
C       4.298224000000000     -3.081837000000000     -1.749648000000000
C       3.924464000000000     -1.837770000000000     -1.250334000000000
H       4.569596000000000     -1.674582000000000      1.411604000000000
H       6.031271000000000     -1.247557000000000      3.359877000000000
Br      6.186819000000000      0.925804000000000      5.346159000000000
H       3.921115000000000      2.401294000000000      4.164279000000000
H       2.435790000000000      1.971369000000000      2.230622000000000
H       4.834115000000000      1.367782000000000     -0.033865000000000
H       5.630217000000000      3.011970000000000     -1.698424000000000
Br      4.399001000000000      4.265403000000000     -4.065078000000000
H       1.850238000000000      2.814811000000000     -3.720761000000000
H       1.041208000000000      1.167033000000000     -2.049477000000000
H       1.114870000000000     -2.730991000000000      0.434903000000000
H       1.788924000000000     -4.967023000000000     -0.432203000000000
Br      4.025201000000000     -5.887865000000000     -2.120877000000000
H       5.178566000000000     -3.188156000000000     -2.373223000000000
H       4.526103000000000     -0.966108000000000     -1.493759000000000
Rh     -0.005885000000000      0.004453000000000      0.653797000000000
C      -0.003839000000000      0.416046000000000      2.518680000000000
O      -0.004654000000000      0.654453000000000      3.639707000000000
H      -0.008622000000000     -0.365990000000000     -0.939700000000000
