90

P      -3.245175000000000      1.058169000000000      0.932395000000000
C      -3.970602000000000      2.346330000000000      2.024856000000000
C      -4.708814000000000      0.106601000000000      0.365836000000000
C      -2.785883000000000      2.042230000000000     -0.553808000000000
C      -5.320344000000000      2.399703000000000      2.362011000000000
C      -5.781266000000000      3.392634000000000      3.228113000000000
C      -4.914621000000000      4.339899000000000      3.755496000000000
C      -3.562141000000000      4.289985000000000      3.417775000000000
C      -3.093562000000000      3.297178000000000      2.568364000000000
C      -4.831108000000000     -1.207050000000000      0.815657000000000
C      -5.897975000000000     -1.992386000000000      0.391307000000000
C      -6.863192000000000     -1.475877000000000     -0.467029000000000
C      -6.752785000000000     -0.158041000000000     -0.904851000000000
C      -5.677218000000000      0.627463000000000     -0.498842000000000
C      -3.347280000000000      3.294331000000000     -0.811445000000000
C      -2.982726000000000      3.998127000000000     -1.956915000000000
C      -2.057797000000000      3.472881000000000     -2.852322000000000
C      -1.494991000000000      2.224833000000000     -2.599430000000000
C      -1.854960000000000      1.514345000000000     -1.458474000000000
H      -6.025093000000000      1.679455000000000      1.957149000000000
C      -7.236474000000000      3.388001000000000      3.602376000000000
H      -5.292091000000000      5.108358000000000      4.420731000000000
H      -2.874521000000000      5.024017000000000      3.823927000000000
H      -2.035741000000000      3.258126000000000      2.315617000000000
H      -4.078737000000000     -1.615639000000000      1.486356000000000
C      -5.927832000000000     -3.436562000000000      0.796647000000000
H      -7.690403000000000     -2.098929000000000     -0.790037000000000
H      -7.501584000000000      0.254388000000000     -1.572588000000000
H      -5.588494000000000      1.648105000000000     -0.862829000000000
H      -4.069309000000000      3.731715000000000     -0.126934000000000
C      -3.576143000000000      5.360575000000000     -2.176711000000000
H      -1.783057000000000      4.035917000000000     -3.737562000000000
H      -0.766885000000000      1.805204000000000     -3.283758000000000
H      -1.415905000000000      0.539551000000000     -1.264424000000000
P      -0.051079000000000     -1.969782000000000      1.973559000000000
C       1.042074000000000     -2.100580000000000      0.505101000000000
C      -0.741065000000000     -3.668507000000000      2.132847000000000
C       1.132991000000000     -1.912573000000000      3.378604000000000
C       1.092603000000000     -1.003752000000000     -0.354018000000000
C       1.878305000000000     -1.053045000000000     -1.500657000000000
C       2.634268000000000     -2.183172000000000     -1.796047000000000
C       2.597665000000000     -3.274575000000000     -0.931561000000000
C       1.799758000000000     -3.238392000000000      0.209167000000000
C      -0.085044000000000     -4.665269000000000      2.856025000000000
C      -0.635303000000000     -5.942915000000000      2.938443000000000
C      -1.840360000000000     -6.241814000000000      2.314582000000000
C      -2.500985000000000     -5.248944000000000      1.594655000000000
C      -1.956101000000000     -3.972568000000000      1.502863000000000
C       2.514552000000000     -1.852074000000000      3.217995000000000
C       3.341611000000000     -1.772180000000000      4.339672000000000
C       2.808957000000000     -1.761897000000000      5.621294000000000
C       1.425075000000000     -1.824707000000000      5.785203000000000
C       0.595205000000000     -1.889534000000000      4.674447000000000
H       0.502883000000000     -0.118511000000000     -0.127337000000000
C       1.815636000000000      0.094806000000000     -2.464703000000000
H       3.243598000000000     -2.208107000000000     -2.693273000000000
H       3.185143000000000     -4.159336000000000     -1.152292000000000
H       1.762594000000000     -4.102917000000000      0.867378000000000
H       0.851828000000000     -4.456930000000000      3.366771000000000
C       0.121670000000000     -6.984336000000000      3.712011000000000
H      -2.258879000000000     -7.238601000000000      2.397388000000000
H      -3.447827000000000     -5.462318000000000      1.112363000000000
H      -2.472159000000000     -3.200768000000000      0.938460000000000
H       2.962214000000000     -1.868954000000000      2.228655000000000
C       4.824007000000000     -1.663648000000000      4.119893000000000
H       3.467326000000000     -1.706940000000000      6.480974000000000
H       0.996373000000000     -1.816771000000000      6.781585000000000
H      -0.484056000000000     -1.929169000000000      4.808629000000000
Rh     -1.590915000000000     -0.281880000000000      1.784760000000000
C      -1.290574000000000      0.607421000000000      3.451451000000000
O      -1.110809000000000      1.139260000000000      4.450031000000000
H      -1.847819000000000     -1.044063000000000      0.360395000000000
F      -8.015573000000000      3.205980000000000      2.525147000000000
F      -7.609297000000000      4.534125000000000      4.185547000000000
F      -7.518906000000000      2.393204000000000      4.455932000000000
F      -3.434913000000000      5.771307000000000     -3.443383000000000
F      -2.997336000000000      6.281172000000000     -1.391645000000000
F      -4.886603000000000      5.373915000000000     -1.887226000000000
F      -5.467036000000000     -3.618003000000000      2.041751000000000
F      -5.140600000000000     -4.177668000000000     -0.011019000000000
F      -7.157368000000000     -3.958184000000000      0.730073000000000
F       1.653559000000000      1.268191000000000     -1.838460000000000
F       0.765669000000000     -0.038019000000000     -3.301890000000000
F       2.912581000000000      0.179468000000000     -3.225083000000000
F       1.315905000000000     -7.232245000000000      3.150362000000000
F      -0.540199000000000     -8.145504000000001      3.780160000000000
F       0.365003000000000     -6.579871000000000      4.967426000000000
F       5.516673000000000     -1.867840000000000      5.247313000000000
F       5.161562000000000     -0.452084000000000      3.655209000000000
F       5.248114000000000     -2.557193000000000      3.213089000000000
