90

P      -2.258990000000000      0.060817000000000      0.093047000000000
C      -2.699268000000000      0.777764000000000     -1.536595000000000
C      -3.404758000000000      0.916138000000000      1.247445000000000
C      -2.981970000000000     -1.628747000000000      0.035655000000000
C      -3.822310000000000      0.380652000000000     -2.268228000000000
C      -4.108306000000000      0.974221000000000     -3.493298000000000
C      -3.288192000000000      1.977263000000000     -4.018498000000000
C      -2.165991000000000      2.366619000000000     -3.284631000000000
C      -1.870656000000000      1.774225000000000     -2.060371000000000
C      -3.276440000000000      0.629882000000000      2.613243000000000
C      -4.112799000000000      1.229403000000000      3.543758000000000
C      -5.092522000000000      2.146306000000000      3.144887000000000
C      -5.212764000000000      2.432179000000000      1.786198000000000
C      -4.383181000000000      1.824727000000000      0.843450000000000
C      -2.185844000000000     -2.697676000000000     -0.391004000000000
C      -2.713787000000000     -3.982008000000000     -0.469648000000000
C      -4.041710000000000     -4.240350000000000     -0.121651000000000
C      -4.828803000000000     -3.172329000000000      0.314307000000000
C      -4.310394000000000     -1.883258000000000      0.394031000000000
H      -4.469989000000000     -0.403828000000000     -1.885461000000000
H      -4.979876000000000      0.649219000000000     -4.056399000000000
C      -3.620298000000000      2.627891000000000     -5.336855000000000
H      -1.507840000000000      3.136070000000000     -3.680694000000000
H      -0.980931000000000      2.069477000000000     -1.506868000000000
H      -2.514250000000000     -0.072492000000000      2.945322000000000
H      -4.000530000000000      0.992350000000000      4.598870000000000
C      -5.971278000000000      2.820159000000000      4.166911000000000
H      -5.967828000000000      3.140759000000000      1.455083000000000
H      -4.504549000000000      2.063299000000000     -0.209040000000000
H      -1.147636000000000     -2.514686000000000     -0.653424000000000
H      -2.078944000000000     -4.801085000000000     -0.798926000000000
C      -4.613777000000000     -5.630242000000000     -0.231580000000000
H      -5.861719000000000     -3.352623000000000      0.601760000000000
H      -4.943154000000000     -1.072617000000000      0.745566000000000
P       2.256381000000000     -0.018596000000000      0.130824000000000
C       2.865474000000000      0.803470000000000     -1.397838000000000
C       2.803483000000000     -1.757158000000000     -0.059421000000000
C       3.413617000000000      0.644336000000000      1.395660000000000
C       2.014784000000000      0.905148000000000     -2.504401000000000
C       2.454723000000000      1.505893000000000     -3.679327000000000
C       3.747032000000000      2.024673000000000     -3.785969000000000
C       4.589366000000000      1.929104000000000     -2.675893000000000
C       4.158787000000000      1.329052000000000     -1.496547000000000
C       3.948881000000000     -2.123332000000000     -0.772571000000000
C       4.328845000000000     -3.458735000000000     -0.852663000000000
C       3.580431000000000     -4.460484000000000     -0.227086000000000
C       2.438245000000000     -4.087857000000000      0.484063000000000
C       2.048096000000000     -2.754205000000000      0.563539000000000
C       3.236358000000000      1.975446000000000      1.797255000000000
C       4.073774000000000      2.546801000000000      2.744097000000000
C       5.104270000000000      1.805162000000000      3.334213000000000
C       5.273008000000000      0.480523000000000      2.936319000000000
C       4.442185000000000     -0.097721000000000      1.976137000000000
H       1.002605000000000      0.516867000000000     -2.434773000000000
H       1.776674000000000      1.580486000000000     -4.526204000000000
C       4.226806000000000      2.652993000000000     -5.069002000000000
H       5.595863000000000      2.336410000000000     -2.732655000000000
H       4.831998000000000      1.278939000000000     -0.644848000000000
H       4.544326000000000     -1.362499000000000     -1.270787000000000
H       5.220417000000000     -3.730712000000000     -1.412555000000000
C       3.984345000000000     -5.907559000000000     -0.346679000000000
H       1.841676000000000     -4.852173000000000      0.975827000000000
H       1.144921000000000     -2.475288000000000      1.103467000000000
H       2.434933000000000      2.566558000000000      1.357999000000000
H       3.922876000000000      3.581926000000000      3.040449000000000
C       5.985401000000000      2.424735000000000      4.388036000000000
H       6.067566000000000     -0.113023000000000      3.381501000000000
H       4.602187000000000     -1.131008000000000      1.682993000000000
Rh     -0.001180000000000      0.182501000000000      0.488448000000000
C       0.002063000000000      1.159029000000000      2.122129000000000
O       0.003969000000000      1.742542000000000      3.110667000000000
H      -0.002557000000000     -0.669538000000000     -0.910770000000000
H      -2.747177000000000      3.128529000000000     -5.763193000000000
H      -4.407203000000000      3.380362000000000     -5.213384000000000
H      -3.981328000000000      1.892694000000000     -6.061855000000000
H      -3.851058000000000     -6.389272000000000     -0.037118000000000
H      -5.007942000000000     -5.810388000000000     -1.238121000000000
H      -5.434100000000000     -5.779555000000000      0.475616000000000
H      -5.416440000000000      3.594504000000000      4.707945000000000
H      -6.337905000000000      2.103431000000000      4.907894000000000
H      -6.834860000000000      3.296641000000000      3.695840000000000
H       4.697934000000000      1.904709000000000     -5.716347000000000
H       4.966954000000000      3.434494000000000     -4.876480000000000
H       3.397930000000000      3.095887000000000     -5.627785000000000
H       3.533767000000000     -6.511951000000000      0.444843000000000
H       5.070684000000000     -6.021905000000000     -0.288554000000000
H       3.661970000000000     -6.323948000000000     -1.307528000000000
H       5.444342000000000      2.532082000000000      5.334534000000000
H       6.319156000000000      3.422734000000000      4.088105000000000
H       6.869969000000000      1.811179000000000      4.577126000000000
