96

P      -3.855591000000000     -0.999073000000000      0.047662000000000
C      -4.519033000000000     -1.941357000000000      1.480712000000000
C      -3.834094000000000     -2.224158000000000     -1.324606000000000
C      -5.266840000000000      0.077776000000000     -0.429099000000000
C      -4.225653000000000     -1.447748000000000      2.754576000000000
C      -4.713089000000000     -2.074345000000000      3.906810000000000
C      -5.523794000000000     -3.206059000000000      3.752276000000000
C      -5.810074000000000     -3.713992000000000      2.489570000000000
C      -5.307303000000000     -3.089068000000000      1.349794000000000
C      -2.643061000000000     -2.893934000000000     -1.601530000000000
C      -2.569885000000000     -3.862744000000000     -2.610843000000000
C      -3.721942000000000     -4.130123000000000     -3.357325000000000
C      -4.913035000000000     -3.457316000000000     -3.100402000000000
C      -4.975540000000000     -2.505053000000000     -2.088442000000000
C      -5.012012000000000      1.074921000000000     -1.375377000000000
C      -6.017026000000000      1.937251000000000     -1.819163000000000
C      -7.298884000000000      1.802895000000000     -1.266403000000000
C      -7.560904000000000      0.822434000000000     -0.320279000000000
C      -6.552372000000000     -0.046701000000000      0.099925000000000
H      -3.603126000000000     -0.559134000000000      2.840469000000000
C      -4.382267000000000     -1.595131000000000      5.260840000000000
H      -5.911427000000000     -3.704276000000000      4.637330000000000
H      -6.425342000000000     -4.602988000000000      2.390364000000000
H      -5.530406000000000     -3.489818000000000      0.364912000000000
H      -1.760923000000000     -2.644376000000000     -1.019862000000000
C      -1.324010000000000     -4.591149000000000     -2.911868000000000
H      -3.679802000000000     -4.871472000000000     -4.151300000000000
H      -5.795670000000000     -3.672762000000000     -3.694541000000000
H      -5.904570000000000     -1.975334000000000     -1.896739000000000
H      -4.005196000000000      1.183480000000000     -1.777565000000000
C      -5.690204000000000      2.959815000000000     -2.829418000000000
H      -8.086872000000000      2.488696000000000     -1.562164000000000
H      -8.555732000000001      0.736258000000000      0.105804000000000
H      -6.767652000000000     -0.808164000000000      0.843592000000000
P       0.093752000000000      0.027367000000000      1.855100000000000
C       1.496933000000000     -0.833707000000000      1.050328000000000
C      -0.038151000000000     -0.827702000000000      3.486254000000000
C       0.787818000000000      1.660510000000000      2.333428000000000
C       1.428776000000000     -1.028747000000000     -0.327583000000000
C       2.465195000000000     -1.667970000000000     -1.021067000000000
C       3.581046000000000     -2.095588000000000     -0.293745000000000
C       3.653920000000000     -1.913236000000000      1.085165000000000
C       2.613237000000000     -1.287125000000000      1.763009000000000
C      -0.732064000000000     -2.039047000000000      3.544273000000000
C      -0.861557000000000     -2.748166000000000      4.743236000000000
C      -0.267699000000000     -2.220417000000000      5.896113000000000
C       0.422717000000000     -1.014801000000000      5.852147000000000
C       0.541301000000000     -0.314274000000000      4.653396000000000
C      -0.090736000000000      2.555505000000000      2.948749000000000
C       0.329194000000000      3.824290000000000      3.357307000000000
C       1.653474000000000      4.199452000000000      3.095253000000000
C       2.532163000000000      3.323233000000000      2.470668000000000
C       2.108719000000000      2.049304000000000      2.095203000000000
H       0.549218000000000     -0.672016000000000     -0.860199000000000
C       2.406818000000000     -1.906593000000000     -2.474735000000000
H       4.395777000000000     -2.590292000000000     -0.816456000000000
H       4.522976000000000     -2.265343000000000      1.632066000000000
H       2.663198000000000     -1.149842000000000      2.840432000000000
H      -1.181936000000000     -2.429272000000000      2.637143000000000
C      -1.620653000000000     -4.008674000000000      4.827683000000000
H      -0.364118000000000     -2.757092000000000      6.836587000000000
H       0.873192000000000     -0.614421000000000      6.755200000000000
H       1.085038000000000      0.625091000000000      4.629221000000000
H      -1.127772000000000      2.259412000000000      3.097381000000000
C      -0.573691000000000      4.773565000000000      4.033796000000000
H       1.991031000000000      5.190401000000000      3.387479000000000
H       3.554372000000000      3.630708000000000      2.273286000000000
H       2.801348000000000      1.369451000000000      1.609234000000000
Rh     -1.874196000000000     -0.044102000000000      0.691871000000000
C      -2.273659000000000      1.810622000000000      0.492693000000000
O      -2.500962000000000      2.923495000000000      0.333466000000000
H      -1.499476000000000     -1.629809000000000      0.786656000000000
C      -3.381017000000000     -0.771551000000000      5.575944000000000
H      -5.012286000000000     -1.988261000000000      6.057594000000000
H      -2.688285000000000     -0.380754000000000      4.833759000000000
H      -3.204595000000000     -0.478637000000000      6.605506000000000
C      -6.566701000000000      3.642329000000000     -3.566643000000000
H      -4.626123000000000      3.140623000000000     -2.973760000000000
H      -7.638661000000000      3.485171000000000     -3.489256000000000
H      -6.234397000000000      4.380891000000000     -4.287731000000000
C      -0.179574000000000     -4.518258000000000     -2.229779000000000
H      -1.374538000000000     -5.246298000000000     -3.780547000000000
H      -0.055181000000000     -3.894371000000000     -1.348210000000000
H       0.689478000000000     -5.088732000000000     -2.538746000000000
C       1.314059000000000     -1.831418000000000     -3.236479000000000
H       3.351689000000000     -2.191683000000000     -2.935356000000000
H       0.334897000000000     -1.585699000000000     -2.833491000000000
H       1.360560000000000     -2.033497000000000     -4.301025000000000
C      -2.449278000000000     -4.488594000000000      3.898757000000000
H      -1.488190000000000     -4.565977000000000      5.754097000000000
H      -2.654664000000000     -3.966898000000000      2.966677000000000
H      -2.972171000000000     -5.426898000000000      4.051503000000000
C      -1.740526000000000      4.475431000000000      4.606048000000000
H      -0.220034000000000      5.803030000000000      4.066946000000000
H      -2.134705000000000      3.463480000000000      4.632240000000000
H      -2.342544000000000      5.243847000000000      5.078178000000000
