84

P      -3.924388000000000     -1.875233000000000      0.796667000000000
C      -3.815785000000000     -0.487250000000000     -0.424723000000000
C      -5.444827000000000     -1.414025000000000      1.715529000000000
C      -4.451057000000000     -3.297779000000000     -0.237059000000000
C      -2.565209000000000     -0.132026000000000     -0.919520000000000
C      -2.423422000000000      0.937945000000000     -1.803945000000000
C      -3.541162000000000      1.660449000000000     -2.218742000000000
C      -4.801254000000000      1.302621000000000     -1.746656000000000
C      -4.936254000000000      0.242845000000000     -0.853548000000000
C      -5.499883000000000     -0.124484000000000      2.260429000000000
C      -6.582493000000000      0.260137000000000      3.043744000000000
C      -7.618923000000000     -0.640337000000000      3.312876000000000
C      -7.562160000000000     -1.921975000000000      2.787251000000000
C      -6.480553000000000     -2.308490000000000      1.988858000000000
C      -5.573957000000000     -3.245171000000000     -1.061789000000000
C      -5.922906000000000     -4.350126000000000     -1.838351000000000
C      -5.150604000000000     -5.512754000000000     -1.795080000000000
C      -4.029451000000000     -5.572047000000000     -0.975350000000000
C      -3.681428000000000     -4.466880000000000     -0.200001000000000
H      -1.676600000000000     -0.666374000000000     -0.601907000000000
C      -1.064002000000000      1.314730000000000     -2.252095000000000
H      -3.424811000000000      2.498356000000000     -2.902541000000000
H      -5.680353000000000      1.855475000000000     -2.059923000000000
H      -5.923171000000000     -0.000628000000000     -0.470297000000000
H      -4.706393000000000      0.596254000000000      2.057958000000000
C      -6.630253000000000      1.642861000000000      3.584649000000000
H      -8.448871000000000     -0.310105000000000      3.929622000000000
H      -8.359038000000000     -2.630966000000000      2.987209000000000
H      -6.452771000000000     -3.313800000000000      1.577786000000000
H      -6.199565000000000     -2.357371000000000     -1.120864000000000
C      -7.119872000000000     -4.282566000000000     -2.713088000000000
H      -5.432154000000000     -6.366569000000000     -2.407126000000000
H      -3.423263000000000     -6.471058000000000     -0.939555000000000
H      -2.799256000000000     -4.493425000000000      0.435548000000000
P       0.144336000000000     -1.171183000000000      2.273535000000000
C       0.089993000000000      0.572276000000000      1.666070000000000
C       1.549803000000000     -1.838907000000000      1.295174000000000
C       0.875614000000000     -1.038070000000000      3.957724000000000
C      -1.150527000000000      1.201532000000000      1.610563000000000
C      -1.274162000000000      2.487537000000000      1.082594000000000
C      -0.146431000000000      3.172106000000000      0.631679000000000
C       1.103220000000000      2.561524000000000      0.701273000000000
C       1.217876000000000      1.267096000000000      1.201035000000000
C       1.528530000000000     -1.656415000000000     -0.092994000000000
C       2.551256000000000     -2.169727000000000     -0.882370000000000
C       3.600651000000000     -2.892651000000000     -0.303546000000000
C       3.621878000000000     -3.081608000000000      1.069222000000000
C       2.604032000000000     -2.549595000000000      1.868556000000000
C       1.776856000000000     -0.040935000000000      4.325174000000000
C       2.313027000000000     -0.021326000000000      5.613980000000000
C       1.958673000000000     -1.001101000000000      6.541633000000000
C       1.063143000000000     -2.002975000000000      6.182530000000000
C       0.521633000000000     -2.014853000000000      4.899048000000000
H      -2.046937000000000      0.680438000000000      1.936691000000000
C      -2.623930000000000      3.081571000000000      0.950972000000000
H      -0.248607000000000      4.172700000000000      0.217347000000000
H       1.986613000000000      3.081323000000000      0.346651000000000
H       2.191765000000000      0.784500000000000      1.207300000000000
H       0.727312000000000     -1.088312000000000     -0.566057000000000
C       2.522948000000000     -1.932517000000000     -2.348473000000000
H       4.381075000000000     -3.284346000000000     -0.948428000000000
H       4.432270000000000     -3.634554000000000      1.533253000000000
H       2.642491000000000     -2.690449000000000      2.945273000000000
H       2.077339000000000      0.743174000000000      3.635734000000000
C       3.268338000000000      1.050434000000000      5.992134000000000
H       2.382266000000000     -0.972517000000000      7.542850000000000
H       0.777000000000000     -2.766191000000000      6.898471000000000
H      -0.189828000000000     -2.788326000000000      4.617654000000000
Rh     -1.990616000000000     -2.005866000000000      1.996048000000000
C      -2.724302000000000     -1.715366000000000      3.748981000000000
O      -3.174253000000000     -1.580550000000000      4.793486000000000
H      -1.401351000000000     -2.345898000000000      0.523355000000000
O      -0.053126000000000      0.736718000000000     -1.917282000000000
H      -1.010828000000000      2.191345000000000     -2.930194000000000
O      -7.840305000000000     -3.316678000000000     -2.797283000000000
H      -7.323074000000000     -5.199585000000000     -3.304483000000000
O      -7.526250000000000      2.060489000000000      4.279996000000000
H      -5.773784000000000      2.286273000000000      3.297573000000000
O      -3.647041000000000      2.528458000000000      1.289623000000000
H      -2.656724000000000      4.093816000000000      0.498130000000000
O       3.355026000000000     -2.362191000000000     -3.113101000000000
H       1.674056000000000     -1.315072000000000     -2.705210000000000
O       3.632389000000000      1.924635000000000      5.242619000000000
H       3.643067000000000      1.000076000000000      7.035661000000000
