84

P      -3.812776000000000     -1.485873000000000      0.314852000000000
C      -5.347980000000000     -1.604341000000000      1.342255000000000
C      -3.642719000000000     -3.204561000000000     -0.379430000000000
C      -4.232494000000000     -0.427248000000000     -1.146707000000000
C      -5.403285000000000     -2.362630000000000      2.531932000000000
C      -6.557410000000000     -2.340961000000000      3.326249000000000
C      -7.662422000000000     -1.585459000000000      2.968444000000000
C      -7.609762000000000     -0.832077000000000      1.798896000000000
C      -6.468758000000000     -0.842503000000000      1.004582000000000
C      -4.674767000000000     -4.056446000000000     -0.836606000000000
C      -4.393026000000000     -5.390254000000000     -1.151936000000000
C      -3.102722000000000     -5.898300000000000     -1.060999000000000
C      -2.080542000000000     -5.058134000000000     -0.638001000000000
C      -2.354151000000000     -3.735049000000000     -0.293975000000000
C      -4.318341000000000      0.980939000000000     -1.060674000000000
C      -4.417522000000000      1.756196000000000     -2.218860000000000
C      -4.443630000000000      1.168287000000000     -3.476264000000000
C      -4.351585000000000     -0.215805000000000     -3.569899000000000
C      -4.242373000000000     -0.997013000000000     -2.421662000000000
C      -4.301538000000000     -3.197370000000000      3.060625000000000
H      -6.571619000000000     -2.928675000000000      4.240936000000000
H      -8.549837999999999     -1.577920000000000      3.592524000000000
H      -8.462063000000001     -0.231192000000000      1.497781000000000
H      -6.457451000000000     -0.260890000000000      0.089820000000000
C      -6.075566000000000     -3.649672000000000     -1.107565000000000
H      -5.205666000000000     -6.029282000000000     -1.489927000000000
H      -2.903071000000000     -6.934672000000000     -1.313873000000000
H      -1.062487000000000     -5.424005000000000     -0.545773000000000
H      -1.552793000000000     -3.108253000000000      0.081525000000000
C      -4.291525000000000      1.734183000000000      0.216605000000000
H      -4.469765000000000      2.837483000000000     -2.117571000000000
H      -4.524153000000000      1.779820000000000     -4.368796000000000
H      -4.360593000000000     -0.698902000000000     -4.542101000000000
H      -4.156336000000000     -2.072048000000000     -2.529511000000000
P       0.284393000000000     -0.167570000000000      1.886563000000000
C       1.754481000000000     -0.723341000000000      0.909873000000000
C       0.511912000000000     -0.952591000000000      3.566822000000000
C       0.834230000000000      1.578813000000000      2.219168000000000
C       1.946924000000000     -0.320179000000000     -0.427164000000000
C       3.034891000000000     -0.803640000000000     -1.159839000000000
C       3.962098000000000     -1.661413000000000     -0.584314000000000
C       3.790289000000000     -2.044205000000000      0.742240000000000
C       2.697344000000000     -1.584992000000000      1.473162000000000
C       0.178319000000000     -2.313819000000000      3.785751000000000
C       0.080449000000000     -2.821518000000000      5.080963000000000
C       0.319009000000000     -2.019510000000000      6.191954000000000
C       0.638301000000000     -0.684834000000000      5.990848000000000
C       0.724579000000000     -0.161239000000000      4.698669000000000
C       0.004359000000000      2.702983000000000      2.060687000000000
C       0.487447000000000      3.976676000000000      2.379939000000000
C       1.785129000000000      4.157337000000000      2.834399000000000
C       2.625789000000000      3.052739000000000      2.958659000000000
C       2.151952000000000      1.782549000000000      2.649352000000000
C       1.069642000000000      0.644761000000000     -1.128526000000000
H       3.151715000000000     -0.486133000000000     -2.193347000000000
H       4.806613000000000     -2.025439000000000     -1.159809000000000
H       4.504265000000000     -2.712566000000000      1.213656000000000
H       2.574080000000000     -1.915502000000000      2.499857000000000
C      -0.095228000000000     -3.294795000000000      2.703454000000000
H      -0.193890000000000     -3.865764000000000      5.210745000000000
H       0.239622000000000     -2.427520000000000      7.193949000000000
H       0.809308000000000     -0.029409000000000      6.839191000000000
H       0.938836000000000      0.894771000000000      4.590289000000000
C      -1.373413000000000      2.650702000000000      1.470480000000000
H      -0.185593000000000      4.816435000000000      2.239686000000000
H       2.147022000000000      5.151730000000000      3.075894000000000
H       3.650452000000000      3.177699000000000      3.295241000000000
H       2.815479000000000      0.928178000000000      2.759051000000000
Rh     -1.887689000000000     -0.685346000000000      1.313003000000000
C      -2.631590000000000     -0.472974000000000      3.073203000000000
O      -3.113126000000000     -0.433402000000000      4.114226000000000
H      -1.333695000000000     -0.947690000000000     -0.192121000000000
O      -3.243004000000000     -3.421096000000000      2.514784000000000
H      -4.512242000000000     -3.631374000000000      4.059592000000000
O      -6.481882000000000     -2.516477000000000     -1.212016000000000
H      -6.765767000000000     -4.504812000000000     -1.266181000000000
O      -4.404026000000000      1.228534000000000      1.312065000000000
H      -4.144072000000000      2.825641000000000      0.117894000000000
O       0.206006000000000      1.310863000000000     -0.605958000000000
H       1.273852000000000      0.744248000000000     -2.213577000000000
O       0.215602000000000     -3.153639000000000      1.542425000000000
H      -0.602031000000000     -4.218183000000000      3.042340000000000
O      -2.074738000000000      3.636799000000000      1.393730000000000
H      -1.714347000000000      1.675340000000000      1.086543000000000
