84

P       2.189321000000000     -0.022835000000000     -0.492953000000000
C       1.948674000000000     -0.139163000000000      1.328744000000000
C       3.395385000000000      1.356977000000000     -0.658906000000000
C       3.227494000000000     -1.482776000000000     -0.901025000000000
C       2.345546000000000     -1.238681000000000      2.090382000000000
C       2.020445000000000     -1.298236000000000      3.446344000000000
C       1.301593000000000     -0.264878000000000      4.040122000000000
C       0.909737000000000      0.844874000000000      3.282590000000000
C       1.230801000000000      0.905632000000000      1.938760000000000
C       3.542870000000000      1.928476000000000     -1.927232000000000
C       4.449501000000000      2.963292000000000     -2.126631000000000
C       5.205277000000000      3.442039000000000     -1.056833000000000
C       5.058225000000000      2.881806000000000      0.213806000000000
C       4.158477000000000      1.842761000000000      0.412314000000000
C       2.646983000000000     -2.544648000000000     -1.598757000000000
C       3.404774000000000     -3.673270000000000     -1.903547000000000
C       4.740354000000000     -3.742076000000000     -1.515408000000000
C       5.328684000000000     -2.679679000000000     -0.821857000000000
C       4.576899000000000     -1.554645000000000     -0.520043000000000
H       2.895339000000000     -2.054428000000000      1.631098000000000
H       2.317273000000000     -2.159371000000000      4.040635000000000
C       0.901299000000000     -0.347911000000000      5.465314000000000
H       0.341409000000000      1.632743000000000      3.767216000000000
H       0.909961000000000      1.754628000000000      1.339628000000000
H       2.939274000000000      1.563974000000000     -2.755325000000000
H       4.564467000000000      3.408547000000000     -3.111965000000000
C       6.166921000000000      4.554423000000000     -1.265924000000000
H       5.657244000000000      3.275874000000000      1.029044000000000
H       4.043049000000000      1.409317000000000      1.401784000000000
H       1.604662000000000     -2.477371000000000     -1.896335000000000
H       2.957207000000000     -4.501537000000000     -2.447917000000000
C       5.546725000000000     -4.946518000000000     -1.841535000000000
H       6.372655000000000     -2.758900000000000     -0.534861000000000
H       5.035351000000000     -0.725253000000000      0.011806000000000
P      -2.122661000000000      0.043071000000000     -0.573107000000000
C      -2.144620000000000     -0.307541000000000      1.242061000000000
C      -3.152506000000000     -1.325052000000000     -1.230946000000000
C      -3.225132000000000      1.509794000000000     -0.722452000000000
C      -1.512953000000000     -1.484198000000000      1.681040000000000
C      -1.498400000000000     -1.812891000000000      3.025279000000000
C      -2.094611000000000     -0.960879000000000      3.961137000000000
C      -2.709285000000000      0.212774000000000      3.536463000000000
C      -2.745205000000000      0.536524000000000      2.179259000000000
C      -4.243033000000000     -1.845164000000000     -0.517907000000000
C      -5.009716000000000     -2.863720000000000     -1.064036000000000
C      -4.689920000000000     -3.371920000000000     -2.327110000000000
C      -3.603723000000000     -2.863795000000000     -3.036431000000000
C      -2.831251000000000     -1.843334000000000     -2.487377000000000
C      -4.525034000000000      1.447379000000000     -1.229345000000000
C      -5.285240000000000      2.609957000000000     -1.341784000000000
C      -4.759753000000000      3.834495000000000     -0.939627000000000
C      -3.459530000000000      3.905489000000000     -0.429225000000000
C      -2.696909000000000      2.752898000000000     -0.333583000000000
H      -1.028388000000000     -2.133953000000000      0.958586000000000
H      -1.021579000000000     -2.722363000000000      3.378217000000000
C      -2.065238000000000     -1.321855000000000      5.401482000000000
H      -3.169097000000000      0.875610000000000      4.265722000000000
H      -3.247407000000000      1.444452000000000      1.861884000000000
H      -4.483523000000000     -1.448288000000000      0.465304000000000
H      -5.857896000000000     -3.284515000000000     -0.532963000000000
C      -5.511417000000000     -4.463021000000000     -2.911716000000000
H      -3.358814000000000     -3.271632000000000     -4.014350000000000
H      -1.968405000000000     -1.450648000000000     -3.020254000000000
H      -4.947743000000000      0.498576000000000     -1.542528000000000
H      -6.295072000000000      2.562018000000000     -1.742699000000000
C      -5.577178000000000      5.068516000000000     -1.054532000000000
H      -3.068934000000000      4.872018000000000     -0.126447000000000
H      -1.679817000000000      2.805846000000000      0.049712000000000
Rh      0.047871000000000      0.227836000000000     -1.241825000000000
C       0.112114000000000      2.005690000000000     -1.956149000000000
O       0.163221000000000      3.041738000000000     -2.442476000000000
H      -0.000452000000000     -1.328851000000000     -0.775573000000000
O       0.202425000000000      0.479543000000000      6.005745000000000
H       1.263095000000000     -1.238563000000000      6.015803000000000
O       6.707236000000000     -5.081193000000000     -1.537243000000000
H       5.004576000000000     -5.739718000000000     -2.396753000000000
O       6.856894000000000      5.020130000000000     -0.391315000000000
H       6.217732000000000      4.944109000000000     -2.303645000000000
O      -1.525823000000000     -2.318592000000000      5.823890000000000
H      -2.570912000000000     -0.609713000000000      6.082663000000000
O      -6.469212000000000     -4.951677000000000     -2.362728000000000
H      -5.185002000000000     -4.813307000000000     -3.912833000000000
O      -5.193558000000000      6.163085000000000     -0.718958000000000
H      -6.592554000000000      4.922620000000000     -1.477998000000000
