72

P      -2.218286000000000     -0.334690000000000      0.120249000000000
C      -2.448209000000000      1.491236000000000      0.257511000000000
C      -3.300431000000000     -0.952299000000000      1.475101000000000
C      -3.161464000000000     -0.760472000000000     -1.393546000000000
C      -1.566211000000000      2.325652000000000     -0.439657000000000
C      -1.736018000000000      3.702568000000000     -0.379413000000000
C      -2.753638000000000      4.278100000000000      0.375206000000000
C      -3.623934000000000      3.445064000000000      1.069035000000000
C      -3.479531000000000      2.059966000000000      1.011729000000000
C      -4.524771000000000     -1.581781000000000      1.249488000000000
C      -5.267471000000000     -2.035890000000000      2.337236000000000
C      -4.823325000000000     -1.868613000000000      3.642489000000000
C      -3.601226000000000     -1.235035000000000      3.860579000000000
C      -2.840653000000000     -0.786734000000000      2.787858000000000
C      -4.297530000000000     -0.048949000000000     -1.788386000000000
C      -4.982588000000000     -0.446423000000000     -2.930810000000000
C      -4.561348000000000     -1.537306000000000     -3.686118000000000
C      -3.427311000000000     -2.238023000000000     -3.287677000000000
C      -2.724071000000000     -1.850741000000000     -2.149891000000000
H      -0.750827000000000      1.904058000000000     -1.018649000000000
Cl     -0.638745000000000      4.729887000000000     -1.260643000000000
H      -2.853846000000000      5.356961000000000      0.416111000000000
H      -4.423551000000000      3.879049000000000      1.660547000000000
H      -4.171149000000000      1.426935000000000      1.558707000000000
H      -4.908412000000000     -1.726672000000000      0.245084000000000
Cl     -6.793616000000000     -2.825980000000000      2.048013000000000
H      -5.423089000000000     -2.232470000000000      4.469204000000000
H      -3.240122000000000     -1.100739000000000      4.874937000000000
H      -1.883746000000000     -0.301057000000000      2.966002000000000
H      -4.647519000000000      0.808370000000000     -1.220236000000000
Cl     -6.398108000000000      0.439525000000000     -3.427579000000000
H      -5.114963000000000     -1.822988000000000     -4.573626000000000
H      -3.087800000000000     -3.085485000000000     -3.874236000000000
H      -1.824271000000000     -2.380825000000000     -1.846122000000000
P       2.214508000000000     -0.485164000000000     -0.190550000000000
C       3.436773000000000     -1.142572000000000      1.016758000000000
C       2.444182000000000      1.334976000000000     -0.057245000000000
C       3.012365000000000     -0.908069000000000     -1.793816000000000
C       4.389646000000000     -0.339832000000000      1.646416000000000
C       5.282951000000000     -0.921560000000000      2.542407000000000
C       5.252421000000000     -2.283146000000000      2.818679000000000
C       4.300413000000000     -3.077900000000000      2.184108000000000
C       3.393611000000000     -2.513501000000000      1.294528000000000
C       1.617650000000000      2.010045000000000      0.849145000000000
C       1.748802000000000      3.383546000000000      1.002432000000000
C       2.678264000000000      4.108353000000000      0.261257000000000
C       3.492199000000000      3.432351000000000     -0.640990000000000
C       3.382557000000000      2.051511000000000     -0.802175000000000
C       4.389838000000000     -1.133764000000000     -1.887481000000000
C       4.950793000000000     -1.421343000000000     -3.126621000000000
C       4.171963000000000     -1.492352000000000     -4.277262000000000
C       2.802145000000000     -1.271578000000000     -4.175569000000000
C       2.220069000000000     -0.985832000000000     -2.943417000000000
H       4.445149000000000      0.726299000000000      1.450205000000000
Cl      6.467745000000000      0.084051000000000      3.330737000000000
H       5.959790000000000     -2.707919000000000      3.522083000000000
H       4.263285000000000     -4.141516000000000      2.395363000000000
H       2.644113000000000     -3.136961000000000      0.812507000000000
H       0.865721000000000      1.465937000000000      1.416211000000000
Cl      0.714722000000000      4.213479000000000      2.131989000000000
H       2.749656000000000      5.182915000000000      0.387654000000000
H       4.217141000000000      3.987772000000000     -1.227062000000000
H       4.022912000000000      1.539376000000000     -1.513941000000000
H       5.027600000000000     -1.090104000000000     -1.009768000000000
Cl      6.667738000000000     -1.699697000000000     -3.238394000000000
H       4.636060000000000     -1.722434000000000     -5.229934000000000
H       2.182988000000000     -1.330414000000000     -5.064857000000000
H       1.149460000000000     -0.825506000000000     -2.862426000000000
Rh     -0.010898000000000     -0.921527000000000      0.131575000000000
C       0.070979000000000     -2.008829000000000      1.702595000000000
O       0.120073000000000     -2.691129000000000      2.622022000000000
H      -0.090967000000000     -0.063423000000000     -1.253272000000000
