87

P      -3.537780000000000     -1.146855000000000     -0.073379000000000
C      -5.081530000000000     -2.160909000000000     -0.266021000000000
C      -2.643069000000000     -1.205535000000000     -1.699935000000000
C      -4.401886000000000      0.521745000000000     -0.144478000000000
C      -5.979598000000000     -2.128611000000000     -1.343691000000000
C      -7.139259000000000     -2.895190000000000     -1.349411000000000
C      -7.432269000000000     -3.717773000000000     -0.266289000000000
C      -6.566144000000000     -3.768940000000000      0.818120000000000
C      -5.412925000000000     -2.990183000000000      0.810929000000000
C      -2.519543000000000     -2.328843000000000     -2.529052000000000
C      -1.746275000000000     -2.309031000000000     -3.688432000000000
C      -1.054897000000000     -1.160558000000000     -4.049791000000000
C      -1.116288000000000     -0.045269000000000     -3.223111000000000
C      -1.880028000000000     -0.085507000000000     -2.062812000000000
C      -5.157378000000000      0.955671000000000      0.955382000000000
C      -5.812732000000000      2.183523000000000      0.977829000000000
C      -5.743298000000000      3.024013000000000     -0.124539000000000
C      -5.039778000000000      2.609994000000000     -1.249755000000000
C      -4.394131000000000      1.378365000000000     -1.255391000000000
Cl     -5.686662000000000     -1.172020000000000     -2.777038000000000
H      -7.797648000000000     -2.847494000000000     -2.209701000000000
H      -8.334849000000000     -4.320372000000000     -0.281333000000000
H      -6.756999000000000     -4.424397000000000      1.659486000000000
H      -4.734899000000000     -3.033384000000000      1.657309000000000
Cl     -3.295800000000000     -3.847882000000000     -2.172702000000000
H      -1.696274000000000     -3.205502000000000     -4.296297000000000
H      -0.460078000000000     -1.150273000000000     -4.957169000000000
H      -0.557764000000000      0.853966000000000     -3.460323000000000
H      -1.884408000000000      0.786508000000000     -1.419772000000000
Cl     -5.326171000000000     -0.019846000000000      2.391313000000000
H      -6.370756000000000      2.464850000000000      1.863921000000000
H      -6.250985000000000      3.982934000000000     -0.106711000000000
H      -5.002040000000000      3.234430000000000     -2.136610000000000
H      -3.892835000000000      1.070212000000000     -2.163150000000000
P       0.008688000000000     -0.445041000000000      1.738047000000000
C       1.645446000000000     -1.213154000000000      1.294077000000000
C       0.499251000000000      0.481922000000000      3.296342000000000
C      -0.117136000000000      1.019026000000000      0.611972000000000
C       1.865560000000000     -1.945545000000000      0.113906000000000
C       3.051344000000000     -2.643957000000000     -0.107065000000000
C       4.059420000000000     -2.629562000000000      0.846888000000000
C       3.882717000000000     -1.895516000000000      2.013722000000000
C       2.696971000000000     -1.202227000000000      2.224556000000000
C       0.553528000000000     -0.115874000000000      4.562838000000000
C       0.831299000000000      0.609041000000000      5.720433000000000
C       1.096351000000000      1.968282000000000      5.638016000000000
C       1.110714000000000      2.583728000000000      4.391126000000000
C       0.820211000000000      1.847940000000000      3.249233000000000
C      -1.177532000000000      1.929252000000000      0.762155000000000
C      -1.374757000000000      2.981851000000000     -0.126551000000000
C      -0.487089000000000      3.162910000000000     -1.183529000000000
C       0.601908000000000      2.307981000000000     -1.324474000000000
C       0.779981000000000      1.251210000000000     -0.435353000000000
Cl      0.713187000000000     -1.973272000000000     -1.189339000000000
H       3.168732000000000     -3.190610000000000     -1.036235000000000
H       4.977266000000000     -3.180804000000000      0.670731000000000
H       4.663686000000000     -1.858343000000000      2.765708000000000
H       2.591183000000000     -0.635823000000000      3.141364000000000
Cl      0.389923000000000     -1.837312000000000      4.758552000000000
H       0.849101000000000      0.090015000000000      6.672208000000000
H       1.307996000000000      2.533511000000000      6.539629000000000
H       1.344659000000000      3.639198000000000      4.300827000000000
H       0.840293000000000      2.357872000000000      2.293418000000000
Cl     -2.262677000000000      1.831107000000000      2.121904000000000
H      -2.220729000000000      3.644987000000000      0.020521000000000
H      -0.640455000000000      3.981235000000000     -1.879580000000000
H       1.316092000000000      2.457645000000000     -2.127996000000000
H       1.635671000000000      0.595775000000000     -0.556007000000000
Rh     -1.915672000000000     -1.980739000000000      1.678086000000000
C      -2.642251000000000     -1.319324000000000      3.424215000000000
O      -2.974720000000000     -1.001164000000000      4.468101000000000
H      -1.308979000000000     -2.596083000000000      0.383938000000000
C      -1.113862000000000     -3.769753000000000      2.545069000000000
C      -2.430714000000000     -4.044159000000000      2.124449000000000
C      -2.691642000000000     -4.959633000000000      0.965420000000000
O      -2.766708000000000     -6.337258000000000      1.416739000000000
C      -3.899253000000000     -6.686911000000000      2.033607000000000
C      -3.861637000000000     -8.132853000000001      2.460636000000000
O      -4.828704000000000     -5.935933000000000      2.225283000000000
H      -0.272189000000000     -4.141963000000000      1.963555000000000
H      -0.913306000000000     -3.639905000000000      3.600991000000000
H      -3.211352000000000     -4.076100000000000      2.882909000000000
H      -1.861997000000000     -4.943576000000000      0.256741000000000
H      -3.622847000000000     -4.729378000000000      0.446206000000000
H      -3.050686000000000     -8.278778000000001      3.178962000000000
H      -3.656795000000000     -8.770398999999999      1.597346000000000
H      -4.814595000000000     -8.402100000000001      2.913530000000000
