78

P      -3.936197530000000     -1.636009820000000      1.478135680000000
C      -5.040144630000000     -0.952488520000000      0.192763860000000
C      -4.697235620000000     -1.161637460000000      3.066155610000000
C      -4.375712080000000     -3.410091470000000      1.448563630000000
C      -4.904252620000000     -1.572063120000000     -1.044046710000000
C      -5.614221780000000     -1.105111370000000     -2.145223010000000
C      -6.491747010000000     -0.028248470000000     -1.999087430000000
C      -6.636887190000000      0.569782830000000     -0.761375170000000
C      -5.908975090000000      0.122708980000000      0.331948870000000
C      -5.873004200000000     -1.734845880000000      3.532324520000000
C      -6.375204330000000     -1.351607850000000      4.774543760000000
C      -5.695015640000000     -0.416297720000000      5.557496420000000
C      -4.516091070000000      0.137156600000000      5.093166750000000
C      -4.024208480000000     -0.230806180000000      3.852290250000000
C      -5.079786320000000     -4.004676230000000      0.414395020000000
C      -5.301097180000000     -5.382111900000000      0.435608220000000
C      -4.815848370000000     -6.160777240000000      1.485217690000000
C      -4.103606980000000     -5.559782610000000      2.508873570000000
C      -3.879060910000000     -4.196322100000000      2.487982270000000
H      -4.213025090000000     -2.413481900000000     -1.140410200000000
C      -5.385824320000000     -1.693373230000000     -3.411435450000000
H      -7.040095250000000      0.335038470000000     -2.855278860000000
H      -7.312473960000000      1.404152270000000     -0.647440030000000
H      -6.011293030000000      0.621698990000000      1.284570610000000
H      -6.394232960000000     -2.485808640000000      2.952940850000000
C      -7.580615750000000     -1.928783110000000      5.241016910000000
H      -6.092808860000000     -0.141344970000000      6.522840530000000
H      -3.970610970000000      0.843289800000000      5.700704660000000
H      -3.104270490000000      0.199310740000000      3.473776430000000
H      -5.460224350000000     -3.415378140000000     -0.408964290000000
C      -6.024220420000000     -5.984338060000000     -0.621758470000000
H      -4.994671640000000     -7.225483410000000      1.487752990000000
H      -3.719388730000000     -6.159059540000000      3.320386870000000
H      -3.311733580000000     -3.721224330000000      3.279784780000000
P       0.271985250000000     -0.069540330000000      1.771962050000000
C       0.272447570000000      1.026682240000000      3.233537050000000
C       0.770010290000000      0.990803950000000      0.373246710000000
C       1.827332360000000     -1.004472890000000      1.995457880000000
C      -0.587892430000000      0.608370590000000      4.241870340000000
C      -0.765341210000000      1.386025210000000      5.381439060000000
C      -0.049584570000000      2.576520100000000      5.527084450000000
C       0.820446680000000      2.975373060000000      4.529699000000000
C       0.977036850000000      2.215380500000000      3.379538260000000
C       2.066471720000000      1.463808450000000      0.219135250000000
C       2.386256120000000      2.232114170000000     -0.898731290000000
C       1.421620490000000      2.508259680000000     -1.870059280000000
C       0.137307490000000      2.019536510000000     -1.717306710000000
C      -0.186056800000000      1.269794160000000     -0.599117520000000
C       2.936168390000000     -0.509007900000000      2.661098970000000
C       4.058149030000000     -1.322012640000000      2.826965430000000
C       4.067089710000000     -2.625706530000000      2.333346900000000
C       2.949988270000000     -3.116233320000000      1.679087920000000
C       1.836695010000000     -2.314023220000000      1.515824260000000
H      -1.139841720000000     -0.326453710000000      4.111582520000000
C      -1.719469090000000      0.985482090000000      6.346225580000000
H      -0.190071680000000      3.180614500000000      6.410860450000000
H       1.372520320000000      3.896602000000000      4.639740290000000
H       1.637419670000000      2.557791410000000      2.596149430000000
H       2.834679590000000      1.230550770000000      0.944858930000000
C       3.705638020000000      2.723381760000000     -1.045705630000000
H       1.691454760000000      3.093767190000000     -2.736117350000000
H      -0.609234050000000      2.207156240000000     -2.474109110000000
H      -1.190290230000000      0.885579010000000     -0.464184330000000
H       2.944669310000000      0.499086600000000      3.052876840000000
C       5.191962920000000     -0.809078280000000      3.501514840000000
H       4.942618590000000     -3.242550970000000      2.469540020000000
H       2.949152700000000     -4.127234080000000      1.300708370000000
H       0.954568460000000     -2.693543830000000      1.013009400000000
Rh     -1.825355090000000     -1.020943010000000      1.036580370000000
C      -1.118846540000000     -2.728258270000000      1.022903520000000
O      -0.687914550000000     -3.795215320000000      1.016030210000000
H      -2.424038410000000      0.409025960000000      1.054635070000000
N      -5.148851090000000     -2.161819060000000     -4.430376100000000
N      -6.610114400000000     -6.462504580000000     -1.482551820000000
N      -8.560504350000000     -2.398493600000000      5.604516850000000
N      -2.527891020000000      0.651181150000000      7.087001850000000
N       4.776154500000000      3.118415130000000     -1.149875400000000
N       6.106476960000000     -0.384546500000000      4.046069810000000
