90

P      -1.797637000000000      0.817995000000000     -0.588494000000000
C      -3.102850000000000      1.951870000000000     -1.205010000000000
C      -2.371963000000000      0.482000000000000      1.127837000000000
C      -2.138984000000000     -0.747899000000000     -1.497572000000000
C      -4.436255000000000      1.847873000000000     -0.799513000000000
C      -5.391280000000000      2.714852000000000     -1.328711000000000
C      -5.024191000000000      3.689118000000000     -2.260652000000000
C      -3.699408000000000      3.796539000000000     -2.662886000000000
C      -2.741334000000000      2.932305000000000     -2.133581000000000
C      -2.863885000000000     -0.749457000000000      1.549112000000000
C      -3.226133000000000     -0.936511000000000      2.888832000000000
C      -3.124556000000000      0.107336000000000      3.805394000000000
C      -2.642834000000000      1.343693000000000      3.381825000000000
C      -2.255832000000000      1.523545000000000      2.060106000000000
C      -1.234096000000000     -1.792872000000000     -1.290650000000000
C      -1.248169000000000     -2.924749000000000     -2.096341000000000
C      -2.192677000000000     -3.046983000000000     -3.117718000000000
C      -3.133302000000000     -2.038516000000000     -3.293034000000000
C      -3.104835000000000     -0.890313000000000     -2.496360000000000
H      -4.735122000000000      1.096669000000000     -0.073686000000000
C      -6.823521000000000      2.644058000000000     -0.928204000000000
H      -5.791762000000000      4.350176000000000     -2.649431000000000
H      -3.407543000000000      4.555079000000000     -3.381611000000000
H      -1.698648000000000      3.017282000000000     -2.432491000000000
H      -2.960104000000000     -1.583104000000000      0.859860000000000
C      -3.653453000000000     -2.291465000000000      3.317310000000000
H      -3.396850000000000     -0.060586000000000      4.841230000000000
H      -2.545864000000000      2.160077000000000      4.089586000000000
H      -1.836294000000000      2.475361000000000      1.744280000000000
H      -0.461190000000000     -1.724437000000000     -0.532402000000000
C      -0.156322000000000     -3.911208000000000     -1.856787000000000
H      -2.179357000000000     -3.918479000000000     -3.763577000000000
H      -3.881816000000000     -2.127609000000000     -4.073642000000000
H      -3.822164000000000     -0.095681000000000     -2.679811000000000
P       2.487618000000000      0.591345000000000      0.056244000000000
C       3.887850000000000      1.748354000000000      0.286670000000000
C       3.216096000000000     -0.765063000000000     -0.959812000000000
C       2.280069000000000     -0.182211000000000      1.711041000000000
C       3.589911000000000      3.106041000000000      0.418333000000000
C       4.618958000000000      4.026314000000000      0.622611000000000
C       5.945446000000000      3.599099000000000      0.687336000000000
C       6.245480000000000      2.248082000000000      0.549163000000000
C       5.221012000000000      1.325231000000000      0.349957000000000
C       3.035105000000000     -2.109348000000000     -0.638353000000000
C       3.348880000000000     -3.097970000000000     -1.575837000000000
C       3.864279000000000     -2.760837000000000     -2.823932000000000
C       4.105024000000000     -1.422078000000000     -3.123906000000000
C       3.771290000000000     -0.433611000000000     -2.204767000000000
C       1.144630000000000     -0.977389000000000      1.880090000000000
C       0.867246000000000     -1.578798000000000      3.101444000000000
C       1.707420000000000     -1.357851000000000      4.193958000000000
C       2.843911000000000     -0.574568000000000      4.032930000000000
C       3.138011000000000      0.005141000000000      2.795632000000000
H       2.557413000000000      3.440074000000000      0.357066000000000
C       4.352231000000000      5.483923000000000      0.767450000000000
H       6.723273000000000      4.339982000000000      0.840608000000000
H       7.276251000000000      1.912176000000000      0.594726000000000
H       5.455631000000000      0.269253000000000      0.238931000000000
H       2.605105000000000     -2.411421000000000      0.310798000000000
C       3.052009000000000     -4.524947000000000     -1.283302000000000
H       4.069611000000000     -3.547182000000000     -3.542996000000000
H       4.524344000000000     -1.146151000000000     -4.085756000000000
H       3.916276000000000      0.612910000000000     -2.466790000000000
H       0.450618000000000     -1.109496000000000      1.058293000000000
C      -0.356711000000000     -2.416809000000000      3.254842000000000
H       1.456346000000000     -1.805366000000000      5.150259000000000
H       3.508417000000000     -0.404679000000000      4.873950000000000
H       4.026922000000000      0.620347000000000      2.690587000000000
Rh      0.455067000000000      1.236795000000000     -0.759930000000000
C       0.663096000000000      0.603600000000000     -2.581151000000000
O       0.792077000000000      0.269980000000000     -3.668713000000000
H       0.317003000000000      1.849434000000000      0.723659000000000
O      -7.689288000000000      3.371604000000000     -1.350601000000000
O      -7.069883000000000      1.670104000000000     -0.032105000000000
H      -8.022574000000001      1.711721000000000      0.161066000000000
O       0.483817000000000     -3.945327000000000     -0.827360000000000
O       0.081595000000000     -4.712451000000000     -2.897266000000000
H       0.908786000000000     -5.204908000000000     -2.700702000000000
O      -3.490488000000000     -3.303635000000000      2.660812000000000
O      -4.246798000000000     -2.313621000000000      4.512855000000000
H      -4.403831000000000     -3.250355000000000      4.726670000000000
O       5.203626000000000      6.320295000000000      0.950179000000000
O       3.045196000000000      5.789507000000000      0.673916000000000
H       2.981522000000000      6.754338000000000      0.781621000000000
O       2.777732000000000     -5.355305000000000     -2.130041000000000
O       3.125107000000000     -4.818010000000000      0.014548000000000
H       2.788558000000000     -5.725305000000000      0.118804000000000
O      -0.894779000000000     -2.645480000000000      4.316410000000000
O      -0.797448000000000     -2.879634000000000      2.081484000000000
H      -1.666587000000000     -3.315314000000000      2.225825000000000
