90

P       2.351939000000000      0.065686000000000     -0.363400000000000
C       3.568382000000000      1.441310000000000     -0.441137000000000
C       3.404002000000000     -1.401966000000000     -0.694996000000000
C       1.947819000000000     -0.059711000000000      1.424657000000000
C       4.277725000000000      1.898442000000000      0.675791000000000
C       5.193982000000000      2.935123000000000      0.544253000000000
C       5.409586000000000      3.520241000000000     -0.703523000000000
C       4.705611000000000      3.073221000000000     -1.823052000000000
C       3.784581000000000      2.041466000000000     -1.686552000000000
C       2.882454000000000     -2.440755000000000     -1.471825000000000
C       3.646436000000000     -3.575823000000000     -1.722803000000000
C       4.934083000000000     -3.675792000000000     -1.198931000000000
C       5.464637000000000     -2.640915000000000     -0.424303000000000
C       4.700970000000000     -1.507226000000000     -0.177574000000000
C       2.077381000000000     -1.251305000000000      2.141325000000000
C       1.492023000000000     -1.372361000000000      3.397557000000000
C       0.781273000000000     -0.305629000000000      3.944023000000000
C       0.691835000000000      0.907029000000000      3.256004000000000
C       1.275584000000000      1.026720000000000      2.003790000000000
H       4.107967000000000      1.448217000000000      1.649844000000000
H       5.752061000000000      3.306004000000000      1.397713000000000
C       6.401781000000000      4.627416000000000     -0.786178000000000
H       4.873782000000000      3.539012000000000     -2.787528000000000
H       3.220889000000000      1.700712000000000     -2.551966000000000
H       1.876332000000000     -2.350352000000000     -1.871095000000000
H       3.261851000000000     -4.392749000000000     -2.324477000000000
C       5.710440000000000     -4.911476000000000     -1.497998000000000
H       6.468389000000000     -2.728087000000000     -0.023756000000000
H       5.116643000000000     -0.699401000000000      0.418408000000000
H       2.596297000000000     -2.098950000000000      1.703695000000000
H       1.543589000000000     -2.302830000000000      3.953790000000000
C       0.024673000000000     -0.543029000000000      5.202579000000000
H       0.135204000000000      1.730856000000000      3.688817000000000
H       1.172418000000000      1.954774000000000      1.446249000000000
P      -1.977316000000000      0.105155000000000     -0.677289000000000
C      -2.958936000000000     -1.178466000000000     -1.545607000000000
C      -3.030772000000000      1.610161000000000     -0.805285000000000
C      -2.206221000000000     -0.390330000000000      1.091423000000000
C      -4.123466000000000     -1.731530000000000     -0.997652000000000
C      -4.841243000000000     -2.684957000000000     -1.706828000000000
C      -4.397762000000000     -3.094226000000000     -2.966598000000000
C      -3.235491000000000     -2.554410000000000     -3.516670000000000
C      -2.516709000000000     -1.600317000000000     -2.802069000000000
C      -4.302714000000000      1.619489000000000     -1.383199000000000
C      -5.031916000000000      2.803705000000000     -1.460397000000000
C      -4.497188000000000      3.984126000000000     -0.947990000000000
C      -3.227092000000000      3.985513000000000     -0.366888000000000
C      -2.496534000000000      2.808202000000000     -0.307697000000000
C      -2.834448000000000      0.425610000000000      2.037803000000000
C      -2.994449000000000     -0.014918000000000      3.348877000000000
C      -2.571553000000000     -1.291055000000000      3.714111000000000
C      -1.937664000000000     -2.111817000000000      2.777013000000000
C      -1.738791000000000     -1.653482000000000      1.481639000000000
H      -4.463985000000000     -1.415743000000000     -0.014754000000000
H      -5.745669000000000     -3.127686000000000     -1.302847000000000
C      -5.204998000000000     -4.121029000000000     -3.682790000000000
H      -2.895678000000000     -2.886204000000000     -4.491363000000000
H      -1.597037000000000     -1.185156000000000     -3.207817000000000
H      -4.730089000000000      0.705773000000000     -1.782595000000000
H      -6.016136000000000      2.811932000000000     -1.915441000000000
C      -5.238045000000000      5.274257000000000     -0.998214000000000
H      -2.829357000000000      4.917682000000000      0.020465000000000
H      -1.501050000000000      2.809529000000000      0.131736000000000
H      -3.207365000000000      1.405604000000000      1.759826000000000
H      -3.462536000000000      0.617975000000000      4.095872000000000
C      -2.764991000000000     -1.725020000000000      5.123570000000000
H      -1.585415000000000     -3.093411000000000      3.075473000000000
H      -1.218980000000000     -2.279340000000000      0.761875000000000
Rh      0.229182000000000      0.308885000000000     -1.187366000000000
C       0.312291000000000      2.086380000000000     -1.893503000000000
O       0.373337000000000      3.122692000000000     -2.379017000000000
H       0.159311000000000     -1.256350000000000     -0.737681000000000
O       7.035420000000000      5.049988000000000      0.150271000000000
O       6.531005000000000      5.123642000000000     -2.030930000000000
H       7.193718000000000      5.833823000000000     -1.973660000000000
O      -0.022306000000000     -1.614062000000000      5.767276000000000
O      -0.664335000000000      0.530211000000000      5.612407000000000
H      -1.311789000000000      0.218084000000000      6.275979000000000
O       5.302505000000000     -5.832701000000000     -2.162293000000000
O       6.937965000000000     -4.905703000000000     -0.944481000000000
H       7.355295000000000     -5.747228000000000     -1.198520000000000
O      -6.219088000000000     -4.615373000000000     -3.253840000000000
O      -4.687904000000000     -4.452622000000000     -4.880627000000000
H      -5.284332000000000     -5.121679000000000     -5.259439000000000
O      -4.822883000000000      6.319399000000000     -0.560000000000000
O      -6.443132000000000      5.164553000000000     -1.589094000000000
H      -6.837501000000000      6.053897000000000     -1.569698000000000
O      -3.012174000000000     -0.971425000000000      6.043610000000000
O      -2.637803000000000     -3.044665000000000      5.289349000000000
H      -2.663611000000000     -3.207795000000000      6.248714000000000
