72

P       2.256717000000000     -0.029376000000000      0.123928000000000
C       2.820586000000000      1.621802000000000      0.682631000000000
C       2.870061000000000     -0.137022000000000     -1.606678000000000
C       3.397288000000000     -1.177802000000000      0.994880000000000
C       3.974006000000000      2.237884000000000      0.186688000000000
C       4.372426000000000      3.483878000000000      0.660093000000000
C       3.602164000000000      4.100705000000000      1.635788000000000
C       2.451613000000000      3.519303000000000      2.148319000000000
C       2.062741000000000      2.276186000000000      1.660375000000000
C       2.031830000000000      0.274595000000000     -2.651211000000000
C       2.465554000000000      0.232776000000000     -3.971642000000000
C       3.744956000000000     -0.232426000000000     -4.237637000000000
C       4.599957000000000     -0.653848000000000     -3.230369000000000
C       4.154059000000000     -0.604528000000000     -1.913133000000000
C       3.196973000000000     -2.551564000000000      0.799847000000000
C       4.013821000000000     -3.488707000000000      1.417469000000000
C       5.029541000000000     -3.035455000000000      2.249583000000000
C       5.251247000000000     -1.686819000000000      2.473348000000000
C       4.430183000000000     -0.757779000000000      1.836576000000000
H       4.564744000000000      1.747111000000000     -0.582131000000000
H       5.258584000000000      3.983424000000000      0.285185000000000
F       3.979646000000000      5.301049000000000      2.092772000000000
H       1.878647000000000      4.043987000000000      2.904629000000000
H       1.153232000000000      1.805707000000000      2.028832000000000
H       1.030465000000000      0.626863000000000     -2.421775000000000
H       1.828919000000000      0.546804000000000     -4.791385000000000
F       4.166434000000000     -0.282661000000000     -5.507294000000000
H       5.589563000000000     -1.015451000000000     -3.485999000000000
H       4.815141000000000     -0.939877000000000     -1.119018000000000
H       2.389919000000000     -2.891285000000000      0.154028000000000
H       3.872015000000000     -4.554303000000000      1.277407000000000
F       5.816540000000000     -3.932825000000000      2.856226000000000
H       6.053297000000000     -1.380337000000000      3.135304000000000
H       4.600901000000000      0.300857000000000      2.005334000000000
P      -2.263258000000000     -0.081140000000000      0.053349000000000
C      -2.998257000000000      1.481900000000000      0.682048000000000
C      -3.396447000000000     -1.339095000000000      0.767668000000000
C      -2.702750000000000     -0.083565000000000     -1.726594000000000
C      -4.326586000000000      1.557002000000000      1.119335000000000
C      -4.863269000000000      2.760497000000000      1.565989000000000
C      -4.054152000000000      3.886978000000000      1.572152000000000
C      -2.733268000000000      3.848442000000000      1.150816000000000
C      -2.208530000000000      2.638522000000000      0.710026000000000
C      -4.362517000000000     -2.024979000000000      0.027220000000000
C      -5.183984000000000     -2.972724000000000      0.635110000000000
C      -5.030021000000000     -3.216686000000000      1.989769000000000
C      -4.081398000000000     -2.552405000000000      2.756781000000000
C      -3.263001000000000     -1.619580000000000      2.134591000000000
C      -3.838987000000000      0.556743000000000     -2.231360000000000
C      -4.133431000000000      0.512879000000000     -3.590602000000000
C      -3.277001000000000     -0.180299000000000     -4.434077000000000
C      -2.140982000000000     -0.825760000000000     -3.967703000000000
C      -1.857522000000000     -0.768768000000000     -2.607298000000000
H      -4.951149000000000      0.668091000000000      1.117907000000000
H      -5.888190000000000      2.836815000000000      1.911181000000000
F      -4.563336000000000      5.046722000000000      2.005596000000000
H      -2.136211000000000      4.753064000000000      1.180108000000000
H      -1.173523000000000      2.582201000000000      0.385617000000000
H      -4.479845000000000     -1.826685000000000     -1.033634000000000
H      -5.934820000000000     -3.519781000000000      0.076149000000000
F      -5.817778000000000     -4.124279000000000      2.579998000000000
H      -3.990857000000000     -2.781441000000000      3.812502000000000
H      -2.507047000000000     -1.099448000000000      2.719238000000000
H      -4.497746000000000      1.103784000000000     -1.562391000000000
H      -5.004382000000000      1.008137000000000     -4.004799000000000
F      -3.553543000000000     -0.221289000000000     -5.743321000000000
H      -1.497492000000000     -1.349229000000000     -4.666072000000000
H      -0.962232000000000     -1.249057000000000     -2.216993000000000
Rh     -0.003835000000000     -0.339956000000000      0.362268000000000
C      -0.005543000000000     -1.896903000000000      1.461791000000000
O      -0.007366000000000     -2.829115000000000      2.129808000000000
H      -0.002147000000000      1.008013000000000     -0.568251000000000
