84

P       2.332841000000000     -0.044633000000000     -0.115596000000000
C       3.405974000000000     -1.241902000000000     -0.993821000000000
C       2.832378000000000     -0.310910000000000      1.629796000000000
C       3.002713000000000      1.608828000000000     -0.551489000000000
C       2.937817000000000     -2.089360000000000     -2.019860000000000
C       3.860446000000000     -2.946875000000000     -2.649832000000000
C       5.188553000000000     -2.981974000000000     -2.267671000000000
C       5.649306000000000     -2.168026000000000     -1.230273000000000
C       4.752281000000000     -1.316975000000000     -0.605873000000000
C       2.623391000000000     -1.571994000000000      2.239449000000000
C       3.005908000000000     -1.742684000000000      3.579307000000000
C       3.585813000000000     -0.709844000000000      4.299223000000000
C       3.800508000000000      0.529475000000000      3.700631000000000
C       3.423925000000000      0.714858000000000      2.375300000000000
C       2.368310000000000      2.772981000000000     -0.048217000000000
C       2.801211000000000      4.026870000000000     -0.511523000000000
C       3.817874000000000      4.138316000000000     -1.445067000000000
C       4.441348000000000      2.997177000000000     -1.945744000000000
C       4.026819000000000      1.749973000000000     -1.496173000000000
N       1.603993000000000     -2.175480000000000     -2.393456000000000
H       3.502108000000000     -3.603423000000000     -3.438661000000000
H       5.870535000000000     -3.657339000000000     -2.775732000000000
H       6.686304000000000     -2.201804000000000     -0.915389000000000
H       5.092966000000000     -0.677107000000000      0.205157000000000
N       2.132131000000000     -2.656698000000000      1.526394000000000
H       2.848478000000000     -2.712320000000000      4.045462000000000
H       3.873188000000000     -0.876392000000000      5.333190000000000
H       4.259642000000000      1.341454000000000      4.253858000000000
H       3.598217000000000      1.676777000000000      1.905360000000000
N       1.389563000000000      2.727694000000000      0.931641000000000
H       2.318895000000000      4.918314000000000     -0.118761000000000
H       4.122253000000000      5.123365000000000     -1.785807000000000
H       5.235036000000000      3.074816000000000     -2.680583000000000
H       4.499655000000000      0.860070000000000     -1.897647000000000
P      -2.262589000000000     -0.053050000000000     -0.102286000000000
C      -2.856649000000000     -1.334212000000000      1.077818000000000
C      -3.398256000000000     -0.195853000000000     -1.531399000000000
C      -2.643848000000000      1.533593000000000      0.731122000000000
C      -2.609284000000000     -2.696013000000000      0.780610000000000
C      -3.070855000000000     -3.673748000000000      1.675300000000000
C      -3.736128000000000     -3.324422000000000      2.841025000000000
C      -3.953066000000000     -1.984243000000000      3.155262000000000
C      -3.508611000000000     -1.005242000000000      2.272468000000000
C      -4.810011000000000     -0.243033000000000     -1.440628000000000
C      -5.556168000000000     -0.364479000000000     -2.624762000000000
C      -4.937420000000000     -0.456941000000000     -3.860633000000000
C      -3.547442000000000     -0.441137000000000     -3.956232000000000
C      -2.800488000000000     -0.316083000000000     -2.793248000000000
C      -1.896920000000000      1.918341000000000      1.872174000000000
C      -2.146671000000000      3.174661000000000      2.448615000000000
C      -3.084833000000000      4.038593000000000      1.903920000000000
C      -3.802231000000000      3.674809000000000      0.766729000000000
C      -3.575959000000000      2.428365000000000      0.195073000000000
N      -1.975665000000000     -3.068454000000000     -0.395875000000000
H      -2.893007000000000     -4.720626000000000      1.442190000000000
H      -4.078237000000000     -4.105409000000000      3.513261000000000
H      -4.460345000000000     -1.703671000000000      4.071831000000000
H      -3.684552000000000      0.043620000000000      2.502866000000000
N      -5.481913000000000     -0.092642000000000     -0.236672000000000
H      -6.640860000000000     -0.387034000000000     -2.555568000000000
H      -5.546626000000000     -0.551982000000000     -4.754454000000000
H      -3.054448000000000     -0.525368000000000     -4.918208000000000
H      -1.715489000000000     -0.314998000000000     -2.848762000000000
N      -0.886062000000000      1.132972000000000      2.402282000000000
H      -1.578201000000000      3.466407000000000      3.328400000000000
H      -3.251590000000000      5.004646000000000      2.370866000000000
H      -4.531588000000000      4.348664000000000      0.331478000000000
H      -4.133869000000000      2.138577000000000     -0.688738000000000
Rh      0.031000000000000     -0.066061000000000     -0.466200000000000
C       0.043990000000000      1.342080000000000     -1.770080000000000
O       0.048576000000000      2.202369000000000     -2.525708000000000
H       0.007794000000000     -1.240476000000000      0.666683000000000
H       0.997981000000000     -1.405814000000000     -2.116144000000000
H       1.445191000000000     -2.486475000000000     -3.342747000000000
H       1.440528000000000     -2.427175000000000      0.816946000000000
H       1.814389000000000     -3.418658000000000      2.112891000000000
H       0.864823000000000      1.864173000000000      1.062735000000000
H       0.772885000000000      3.531102000000000      0.955962000000000
H      -1.228489000000000     -2.439864000000000     -0.690926000000000
H      -1.668419000000000     -4.033424000000000     -0.411524000000000
H      -5.008438000000000     -0.454768000000000      0.581990000000000
H      -6.451358000000000     -0.380936000000000     -0.265935000000000
H      -0.831848000000000      0.151024000000000      2.155848000000000
H      -0.607562000000000      1.331530000000000      3.353516000000000
