78

P      -2.307074000000000     -0.125661000000000      0.214853000000000
C      -3.317113000000000     -0.659438000000000      1.646332000000000
C      -2.735724000000000     -1.349919000000000     -1.097899000000000
C      -3.089805000000000      1.456902000000000     -0.301127000000000
C      -2.863854000000000     -0.310970000000000      2.919120000000000
C      -3.617186000000000     -0.647189000000000      4.042033000000000
C      -4.821313000000000     -1.339093000000000      3.897463000000000
C      -5.259662000000000     -1.693668000000000      2.628331000000000
C      -4.516094000000000     -1.360689000000000      1.496486000000000
C      -1.888595000000000     -2.461663000000000     -1.153456000000000
C      -1.979978000000000     -3.360604000000000     -2.207069000000000
C      -2.952793000000000     -3.193745000000000     -3.192284000000000
C      -3.815873000000000     -2.105289000000000     -3.116599000000000
C      -3.707740000000000     -1.173433000000000     -2.083661000000000
C      -2.231555000000000      2.483740000000000     -0.705924000000000
C      -2.737647000000000      3.721025000000000     -1.105663000000000
C      -4.118512000000000      3.931000000000000     -1.105913000000000
C      -4.970115000000000      2.913152000000000     -0.691150000000000
C      -4.469704000000000      1.678412000000000     -0.279272000000000
H      -1.906695000000000      0.197418000000000      3.023868000000000
O      -3.219520000000000     -0.337418000000000      5.303775000000000
H      -5.384181000000000     -1.597757000000000      4.787780000000000
H      -6.190027000000000     -2.242475000000000      2.519398000000000
H      -4.860103000000000     -1.654683000000000      0.509192000000000
H      -1.113106000000000     -2.602234000000000     -0.403703000000000
O      -1.054652000000000     -4.373286000000000     -2.243844000000000
H      -3.021102000000000     -3.895120000000000     -4.020313000000000
H      -4.566651000000000     -1.969224000000000     -3.888514000000000
H      -4.354544000000000     -0.301778000000000     -2.066552000000000
H      -1.155652000000000      2.324294000000000     -0.691689000000000
O      -1.934877000000000      4.740839000000000     -1.490978000000000
H      -4.499519000000000      4.897853000000000     -1.416896000000000
H      -6.041393000000000      3.089297000000000     -0.678158000000000
H      -5.144799000000000      0.903721000000000      0.072904000000000
P       2.294325000000000      0.098074000000000      0.211688000000000
C       3.331508000000000      0.377493000000000      1.697027000000000
C       2.711312000000000      1.523453000000000     -0.884964000000000
C       3.069559000000000     -1.374755000000000     -0.570973000000000
C       2.930219000000000     -0.228753000000000      2.884853000000000
C       3.713521000000000     -0.093288000000000      4.031118000000000
C       4.888650000000000      0.657475000000000      3.991939000000000
C       5.276722000000000      1.270677000000000      2.804321000000000
C       4.506983000000000      1.136895000000000      1.653343000000000
C       1.866664000000000      2.630107000000000     -0.748825000000000
C       1.947987000000000      3.688463000000000     -1.643531000000000
C       2.908216000000000      3.683234000000000     -2.654741000000000
C       3.768814000000000      2.596028000000000     -2.767832000000000
C       3.670674000000000      1.509151000000000     -1.898584000000000
C       2.207078000000000     -2.322366000000000     -1.129902000000000
C       2.709315000000000     -3.473076000000000     -1.738882000000000
C       4.090389000000000     -3.674408000000000     -1.793541000000000
C       4.946416000000000     -2.737320000000000     -1.225610000000000
C       4.450087000000000     -1.591263000000000     -0.605503000000000
H       2.001627000000000     -0.790211000000000      2.936260000000000
O       3.272939000000000     -0.705198000000000      5.162498000000000
H       5.491451000000000      0.769323000000000      4.890317000000000
H       6.187143000000000      1.861491000000000      2.781989000000000
H       4.810921000000000      1.625514000000000      0.732499000000000
H       1.099274000000000      2.646648000000000      0.021923000000000
O       1.025339000000000      4.694404000000000     -1.503291000000000
H       2.968104000000000      4.509595000000000     -3.358859000000000
H       4.509101000000000      2.586007000000000     -3.561489000000000
H       4.314679000000000      0.645638000000000     -2.032043000000000
H       1.131390000000000     -2.171744000000000     -1.073881000000000
O       1.903046000000000     -4.416102000000000     -2.279736000000000
H       4.468429000000000     -4.573717000000000     -2.267857000000000
H       6.018042000000000     -2.908966000000000     -1.257799000000000
H       5.129055000000000     -0.883037000000000     -0.138845000000000
Rh     -0.005286000000000     -0.010071000000000      0.209301000000000
C      -0.016063000000000      0.141450000000000     -1.707261000000000
O      -0.022219000000000      0.238468000000000     -2.850139000000000
H       0.005881000000000     -0.127429000000000      1.830839000000000
H      -2.362458000000000      0.111479000000000      5.263179000000000
H      -0.996788000000000      4.494129000000000     -1.392735000000000
H      -1.229089000000000     -4.947408000000000     -3.004298000000000
H       3.897704000000000     -0.536182000000000      5.881773000000000
H       1.187416000000000      5.381024000000000     -2.167101000000000
H       0.965807000000000     -4.194493000000000     -2.127305000000000
