96

P      -3.626705000000000     -1.895258000000000      0.512692000000000
C      -4.501275000000000     -0.478639000000000     -0.283787000000000
C      -4.748508000000000     -2.280938000000000      1.915403000000000
C      -3.927999000000000     -3.255907000000000     -0.685699000000000
C      -4.593890000000000      0.706484000000000      0.460216000000000
C      -5.229196000000000      1.820519000000000     -0.078872000000000
C      -5.767079000000000      1.762810000000000     -1.372303000000000
C      -5.673228000000000      0.588785000000000     -2.099983000000000
C      -5.047948000000000     -0.542310000000000     -1.562706000000000
C      -4.179455000000000     -2.809166000000000      3.069057000000000
C      -4.980626000000000     -3.121398000000000      4.173534000000000
C      -6.356300000000000     -2.899160000000000      4.122053000000000
C      -6.918323000000000     -2.364559000000000      2.960520000000000
C      -6.130863000000000     -2.051221000000000      1.861511000000000
C      -3.017702000000000     -3.369573000000000     -1.732938000000000
C      -3.185338000000000     -4.347322000000000     -2.718547000000000
C      -4.265548000000000     -5.228882000000000     -2.644015000000000
C      -5.167250000000000     -5.113834000000000     -1.586201000000000
C      -5.014947000000000     -4.135954000000000     -0.611058000000000
H      -4.143336000000000      0.741902000000000      1.445538000000000
O      -5.343688000000000      3.012663000000000      0.562168000000000
H      -6.245748000000000      2.649721000000000     -1.774105000000000
H      -6.091966000000000      0.544977000000000     -3.100636000000000
H      -4.990435000000000     -1.456396000000000     -2.143748000000000
H      -3.105377000000000     -2.972398000000000      3.132869000000000
O      -4.322098000000000     -3.620662000000000      5.254543000000000
H      -6.993294000000000     -3.127380000000000      4.968316000000000
H      -7.988977000000000     -2.187984000000000      2.926186000000000
H      -6.577780000000000     -1.623803000000000      0.968371000000000
H      -2.159368000000000     -2.705591000000000     -1.805849000000000
O      -2.247085000000000     -4.362451000000000     -3.697953000000000
H      -4.409315000000000     -6.002319000000000     -3.389008000000000
H      -6.002568000000000     -5.805058000000000     -1.528631000000000
H      -5.727824000000000     -4.063123000000000      0.203255000000000
P       0.328451000000000     -0.238053000000000      1.917026000000000
C       0.667689000000000      1.227536000000000      0.858173000000000
C       1.979066000000000     -1.048653000000000      1.986226000000000
C       0.131116000000000      0.446051000000000      3.608490000000000
C      -0.404782000000000      1.773048000000000      0.138856000000000
C      -0.189894000000000      2.865810000000000     -0.702201000000000
C       1.090633000000000      3.420177000000000     -0.814106000000000
C       2.144185000000000      2.876707000000000     -0.096635000000000
C       1.944965000000000      1.775329000000000      0.737989000000000
C       2.466739000000000     -1.585323000000000      0.796708000000000
C       3.696045000000000     -2.246438000000000      0.766218000000000
C       4.440768000000000     -2.384311000000000      1.940932000000000
C       3.942132000000000     -1.851701000000000      3.127690000000000
C       2.723128000000000     -1.182837000000000      3.163949000000000
C      -0.797406000000000     -0.187445000000000      4.441800000000000
C      -0.974647000000000      0.259575000000000      5.751453000000000
C      -0.221940000000000      1.340800000000000      6.223862000000000
C       0.692532000000000      1.966011000000000      5.389129000000000
C       0.877454000000000      1.525706000000000      4.077301000000000
H      -1.384184000000000      1.314292000000000      0.231941000000000
O      -1.154585000000000      3.443890000000000     -1.459670000000000
H       1.229085000000000      4.266442000000000     -1.478589000000000
H       3.136290000000000      3.306734000000000     -0.194055000000000
H       2.782300000000000      1.339081000000000      1.274431000000000
H       1.906590000000000     -1.502330000000000     -0.132011000000000
O       4.080785000000000     -2.721439000000000     -0.445997000000000
H       5.393585000000000     -2.899990000000000      1.942568000000000
H       4.521059000000000     -1.961665000000000      4.039671000000000
H       2.355576000000000     -0.771016000000000      4.097626000000000
H      -1.387173000000000     -1.003364000000000      4.035461000000000
O      -1.856510000000000     -0.284035000000000      6.626982000000000
H      -0.382644000000000      1.674140000000000      7.243694000000000
H       1.265614000000000      2.809691000000000      5.761297000000000
H       1.589484000000000      2.024652000000000      3.426769000000000
Rh     -1.475792000000000     -1.439226000000000      1.152315000000000
C      -0.585007000000000     -3.014441000000000      0.542135000000000
O      -0.057404000000000     -3.983932000000000      0.231799000000000
H      -2.229065000000000     -0.137367000000000      1.789610000000000
C      -4.814058000000000      3.097408000000000      1.869983000000000
H      -5.003557000000000      4.116190000000000      2.206437000000000
H      -5.308397000000000      2.388230000000000      2.544410000000000
H      -3.733528000000000      2.904282000000000      1.879101000000000
C      -2.356990000000000     -5.356265000000000     -4.691366000000000
H      -3.293440000000000     -5.256763000000000     -5.254092000000000
H      -1.513093000000000     -5.206013000000000     -5.364024000000000
H      -2.302294000000000     -6.361710000000000     -4.256693000000000
C      -5.086750000000000     -3.929427000000000      6.398575000000000
H      -5.832129000000000     -4.703974000000000      6.182319000000000
H      -4.382118000000000     -4.302254000000000      7.141983000000000
H      -5.594476000000000     -3.038900000000000      6.790351000000000
C      -2.468456000000000      2.939324000000000     -1.332803000000000
H      -2.527082000000000      1.877963000000000     -1.606460000000000
H      -2.840240000000000      3.065383000000000     -0.309267000000000
H      -3.088263000000000      3.524385000000000     -2.012552000000000
C       5.299480000000000     -3.425157000000000     -0.513087000000000
H       5.416154000000000     -3.729978000000000     -1.552822000000000
H       6.145335000000000     -2.789320000000000     -0.223483000000000
H       5.282174000000000     -4.315337000000000      0.127485000000000
C      -2.648970000000000     -1.359198000000000      6.163893000000000
H      -3.273882000000000     -1.060884000000000      5.312642000000000
H      -2.034360000000000     -2.217378000000000      5.868433000000000
H      -3.286626000000000     -1.644428000000000      7.001129000000000
