96

P      -3.910557000000000     -0.719224000000000      0.742299000000000
C      -4.721065000000000     -1.379626000000000     -0.754665000000000
C      -4.836783000000000     -0.726658000000000      2.351516000000000
C      -2.819479000000000     -2.275360000000000      1.129648000000000
C      -5.149501000000000     -0.341995000000000     -1.585442000000000
C      -5.760594000000000     -0.598188000000000     -2.816677000000000
C      -5.978036000000000     -1.916781000000000     -3.184359000000000
C      -5.584401000000000     -2.972669000000000     -2.348157000000000
C      -4.953722000000000     -2.701635000000000     -1.141922000000000
C      -6.099987000000000     -1.328811000000000      2.439798000000000
C      -6.834804000000000     -1.295925000000000      3.623560000000000
C      -6.319876000000000     -0.663501000000000      4.749160000000000
C      -5.062282000000000     -0.070075000000000      4.686517000000000
C      -4.329429000000000     -0.109782000000000      3.502735000000000
C      -2.016396000000000     -2.852352000000000      0.124092000000000
C      -1.293101000000000     -4.024945000000000      0.350731000000000
C      -1.321579000000000     -4.627867000000000      1.606031000000000
C      -2.084821000000000     -4.071036000000000      2.622793000000000
C      -2.828954000000000     -2.915526000000000      2.372337000000000
O      -4.954466000000000      0.931403000000000     -1.169169000000000
H      -6.065869000000000      0.233021000000000     -3.443718000000000
H      -6.466046000000000     -2.132493000000000     -4.130163000000000
H      -5.770185000000000     -3.999206000000000     -2.647404000000000
H      -4.640894000000000     -3.510916000000000     -0.486820000000000
O      -6.619531000000000     -1.998559000000000      1.360539000000000
H      -7.801902000000000     -1.789437000000000      3.642140000000000
H      -6.892840000000000     -0.643770000000000      5.670921000000000
H      -4.641735000000000      0.417569000000000      5.560251000000000
H      -3.341130000000000      0.336367000000000      3.474203000000000
O      -1.965253000000000     -2.203197000000000     -1.071347000000000
H      -0.697822000000000     -4.458941000000000     -0.445963000000000
H      -0.748316000000000     -5.533826000000000      1.777649000000000
H      -2.125334000000000     -4.539353000000000      3.601496000000000
H      -3.445234000000000     -2.518383000000000      3.171834000000000
P      -0.015355000000000      1.273723000000000      0.954658000000000
C       1.220294000000000      1.518973000000000     -0.395195000000000
C       0.789573000000000      0.268954000000000      2.256975000000000
C      -0.135079000000000      2.954013000000000      1.687456000000000
C       1.325768000000000      0.593441000000000     -1.446641000000000
C       2.119136000000000      0.870984000000000     -2.561884000000000
C       2.826916000000000      2.061608000000000     -2.642651000000000
C       2.755313000000000      2.980648000000000     -1.596908000000000
C       1.959416000000000      2.706142000000000     -0.492029000000000
C       2.139319000000000      0.399081000000000      2.635795000000000
C       2.698543000000000     -0.483621000000000      3.561333000000000
C       1.909517000000000     -1.488727000000000      4.120555000000000
C       0.571722000000000     -1.621586000000000      3.770368000000000
C       0.023919000000000     -0.742488000000000      2.838545000000000
C      -1.005197000000000      3.856583000000000      1.046256000000000
C      -1.238833000000000      5.122874000000000      1.576192000000000
C      -0.602726000000000      5.496218000000000      2.759771000000000
C       0.252440000000000      4.617232000000000      3.410882000000000
C       0.479755000000000      3.350399000000000      2.871965000000000
O       0.644438000000000     -0.592696000000000     -1.467416000000000
H       2.157590000000000      0.128962000000000     -3.352360000000000
H       3.437856000000000      2.268980000000000     -3.515714000000000
H       3.310162000000000      3.912115000000000     -1.645196000000000
H       1.900752000000000      3.426074000000000      0.318567000000000
O       2.825998000000000      1.418692000000000      2.062293000000000
H       3.738277000000000     -0.391953000000000      3.852933000000000
H       2.357307000000000     -2.171527000000000      4.836212000000000
H      -0.041849000000000     -2.409469000000000      4.193550000000000
H      -1.011131000000000     -0.857410000000000      2.524491000000000
O      -1.582926000000000      3.404577000000000     -0.101969000000000
H      -1.910661000000000      5.813670000000000      1.080693000000000
H      -0.788516000000000      6.483500000000000      3.171051000000000
H       0.737239000000000      4.906875000000000      4.337002000000000
H       1.135854000000000      2.658188000000000      3.387925000000000
Rh     -2.349085000000000      0.869162000000000      0.288417000000000
C      -2.072135000000000      0.456481000000000     -1.656736000000000
O      -1.994795000000000      0.244123000000000     -2.772106000000000
H      -2.612201000000000      1.173279000000000      1.823699000000000
C      -4.401157000000000      0.949778000000000      0.138054000000000
H      20.801165999999998   -404.161544999999990    177.235377999999997
H      -7.096560000000000     -0.241166000000000      0.351889000000000
H      -4.812081000000000      1.759917000000000      0.734654000000000
C      -7.528607000000000     -1.219737000000000      0.594489000000000
H      -8.469704999999999     -1.076181000000000      1.140330000000000
H      20.684611000000000   -404.888060999999993    177.194321000000002
H      -7.710556000000000     -1.772247000000000     -0.329716000000000
C      -1.679630000000000     -2.946472000000000     -2.235953000000000
H      -2.270039000000000     -3.870233000000000     -2.260843000000000
H      -1.960113000000000     -2.308165000000000     -3.074413000000000
H      -0.612464000000000     -3.187126000000000     -2.312794000000000
C       0.962885000000000     -1.533335000000000     -0.448133000000000
H       1.928848000000000     -1.297910000000000      0.012984000000000
H       0.184525000000000     -1.551884000000000      0.316681000000000
H       1.020563000000000     -2.519506000000000     -0.917672000000000
C       4.217924000000000      1.498306000000000      2.272242000000000
H       4.567409000000000      2.312614000000000      1.637350000000000
H       4.452472000000000      1.721892000000000      3.319876000000000
H       4.715781000000000      0.566742000000000      1.979275000000000
C      -2.704103000000000      4.106427000000000     -0.613104000000000
H      -2.404518000000000      5.082336000000000     -1.010126000000000
H      -3.105648000000000      3.484821000000000     -1.413467000000000
H      -3.464454000000000      4.230568000000000      0.165615000000000
