96

P       2.206103000000000      0.157962000000000      0.248959000000000
C       3.295193000000000      1.505276000000000      0.853905000000000
C       2.470161000000000      0.197676000000000     -1.566432000000000
C       3.118796000000000     -1.337707000000000      0.791764000000000
C       3.181883000000000      1.885257000000000      2.192141000000000
C       3.991133000000000      2.877545000000000      2.739108000000000
C       4.930710000000000      3.518647000000000      1.928000000000000
C       5.051237000000000      3.153703000000000      0.583067000000000
C       4.244227000000000      2.157370000000000      0.055326000000000
C       1.583597000000000      0.960914000000000     -2.343515000000000
C       1.712670000000000      1.020416000000000     -3.720120000000000
C       2.735391000000000      0.308034000000000     -4.359233000000000
C       3.626171000000000     -0.454659000000000     -3.603032000000000
C       3.484914000000000     -0.502737000000000     -2.214588000000000
C       4.500686000000000     -1.323862000000000      1.040327000000000
C       5.167514000000000     -2.478320000000000      1.414248000000000
C       4.464825000000000     -3.681310000000000      1.554983000000000
C       3.089311000000000     -3.711454000000000      1.321293000000000
C       2.429996000000000     -2.541334000000000      0.946752000000000
H       2.444689000000000      1.397779000000000      2.826767000000000
H       3.871678000000000      3.146430000000000      3.781736000000000
O       5.762920000000000      4.503503000000000      2.350532000000000
H       5.784964000000000      3.670520000000000     -0.026365000000000
H       4.351533000000000      1.884763000000000     -0.990703000000000
H       0.770433000000000      1.493300000000000     -1.853508000000000
H       1.025889000000000      1.601122000000000     -4.327636000000000
O       2.772090000000000      0.415036000000000     -5.712356000000000
H       4.421931000000000     -1.018869000000000     -4.074655000000000
H       4.177803000000000     -1.110591000000000     -1.639041000000000
H       5.059175000000000     -0.396609000000000      0.943209000000000
H       6.234481000000000     -2.478976000000000      1.610318000000000
O       5.204794000000000     -4.756093000000000      1.926327000000000
H       2.521050000000000     -4.627347000000000      1.432179000000000
H       1.357890000000000     -2.562176000000000      0.771854000000000
P      -2.284641000000000     -0.062904000000000      0.231192000000000
C      -2.933767000000000     -1.707972000000000      0.692594000000000
C      -2.660762000000000      0.090265000000000     -1.561204000000000
C      -3.510620000000000      1.089204000000000      0.968250000000000
C      -2.284736000000000     -2.414300000000000      1.703709000000000
C      -2.750692000000000     -3.655885000000000      2.135474000000000
C      -3.883511000000000     -4.207248000000000      1.534963000000000
C      -4.538405000000000     -3.513150000000000      0.509042000000000
C      -4.067201000000000     -2.278836000000000      0.095718000000000
C      -3.890423000000000      0.574098000000000     -2.035857000000000
C      -4.133349000000000      0.688702000000000     -3.394940000000000
C      -3.145317000000000      0.328874000000000     -4.319429000000000
C      -1.917077000000000     -0.154846000000000     -3.866056000000000
C      -1.687734000000000     -0.268270000000000     -2.496320000000000
C      -4.633268000000000      0.679801000000000      1.698317000000000
C      -5.511007000000000      1.611825000000000      2.233100000000000
C      -5.289277000000000      2.978743000000000      2.044013000000000
C      -4.175370000000000      3.405319000000000      1.315572000000000
C      -3.298426000000000      2.458877000000000      0.794489000000000
H      -1.389918000000000     -1.988425000000000      2.153953000000000
H      -2.222185000000000     -4.178369000000000      2.923896000000000
O      -4.421575000000000     -5.407195000000000      1.868827000000000
H      -5.410397000000000     -3.970556000000000      0.053851000000000
H      -4.580384000000000     -1.752486000000000     -0.705245000000000
H      -4.662362000000000      0.875888000000000     -1.332832000000000
H      -5.078249000000000      1.066086000000000     -3.771317000000000
O      -3.469248000000000      0.493007000000000     -5.626511000000000
H      -1.128744000000000     -0.434039000000000     -4.555599000000000
H      -0.725818000000000     -0.633968000000000     -2.149574000000000
H      -4.825037000000000     -0.377318000000000      1.855218000000000
H      -6.380605000000000      1.305684000000000      2.804852000000000
O      -6.203340000000000      3.811294000000000      2.603943000000000
H      -3.975392000000000      4.458421000000000      1.158584000000000
H      -2.429193000000000      2.800005000000000      0.235362000000000
Rh     -0.051517000000000      0.269572000000000      0.658554000000000
C      -0.139107000000000      1.854174000000000      1.703576000000000
O      -0.190931000000000      2.797106000000000      2.357597000000000
H       0.018154000000000     -1.129073000000000     -0.192814000000000
C       5.660672000000000      4.909703000000000      3.697132000000000
H       4.661220000000000      5.301929000000000      3.920163000000000
H       5.883982000000000      4.082327000000000      4.381531000000000
H       6.398795000000000      5.700065000000000      3.831759000000000
C       4.533169000000000     -5.985611000000000      2.085849000000000
H       5.292601000000000     -6.709721000000000      2.380097000000000
H       3.766980000000000     -5.922556000000000      2.867943000000000
H       4.064718000000000     -6.308711000000000      1.148375000000000
C       3.790266000000000     -0.283673000000000     -6.392888000000000
H       3.709793000000000     -1.365204000000000     -6.229602000000000
H       3.652457000000000     -0.065663000000000     -7.451758000000000
H       4.784806000000000      0.054570000000000     -6.077998000000000
C      -3.794020000000000     -6.139116000000000      2.897485000000000
H      -4.373248000000000     -7.054758000000000      3.014690000000000
H      -2.760433000000000     -6.392941000000000      2.632613000000000
H      -3.796914000000000     -5.582111000000000      3.842167000000000
C      -2.486756000000000      0.165682000000000     -6.584226000000000
H      -2.930772000000000      0.374762000000000     -7.557263000000000
H      -1.584717000000000      0.776210000000000     -6.455139000000000
H      -2.212840000000000     -0.894621000000000     -6.528012000000000
C      -6.003098000000000      5.198159000000000      2.446918000000000
H      -6.018788000000000      5.486570000000000      1.388851000000000
H      -6.828678000000000      5.684101000000000      2.966498000000000
H      -5.053297000000000      5.516864000000000      2.892882000000000
