132

P      -3.654198000000000     -1.145209000000000      0.918780000000000
C      -5.203344000000000     -0.152186000000000      0.987699000000000
C      -4.014363000000000     -2.667851000000000      1.868508000000000
C      -3.643016000000000     -1.618752000000000     -0.851547000000000
C      -5.535405000000000      0.645619000000000     -0.107345000000000
C      -6.572715000000000      1.578722000000000     -0.047963000000000
C      -7.302571000000000      1.694700000000000      1.138971000000000
C      -6.985652000000000      0.897662000000000      2.235957000000000
C      -5.935011000000000     -0.015026000000000      2.171945000000000
C      -2.932937000000000     -3.198965000000000      2.573505000000000
C      -3.073066000000000     -4.295394000000000      3.427635000000000
C      -4.338526000000000     -4.883820000000000      3.535425000000000
C      -5.420786000000000     -4.381262000000000      2.816123000000000
C      -5.271434000000000     -3.268340000000000      1.990408000000000
C      -2.970681000000000     -0.761569000000000     -1.724351000000000
C      -3.047040000000000     -0.927700000000000     -3.109925000000000
C      -3.775652000000000     -2.015643000000000     -3.607108000000000
C      -4.420378000000000     -2.894352000000000     -2.742510000000000
C      -4.371191000000000     -2.692876000000000     -1.364781000000000
H      -4.956118000000000      0.578859000000000     -1.023069000000000
C      -6.830920000000000      2.438050000000000     -1.229495000000000
H      -8.126234999999999      2.400576000000000      1.197576000000000
H      -7.558412000000000      0.992008000000000      3.153293000000000
H      -5.680442000000000     -0.612729000000000      3.043846000000000
H      -1.962129000000000     -2.724503000000000      2.459194000000000
C      -1.901186000000000     -4.764952000000000      4.208136000000000
H      -4.487812000000000     -5.717593000000000      4.215559000000000
H      -6.396752000000000     -4.844622000000000      2.922948000000000
H      -6.130336000000000     -2.854456000000000      1.467918000000000
H      -2.409123000000000      0.075860000000000     -1.313547000000000
C      -2.383284000000000      0.039375000000000     -4.017028000000000
H      -3.813414000000000     -2.186567000000000     -4.679120000000000
H      -4.966936000000000     -3.741745000000000     -3.144745000000000
H      -4.890844000000000     -3.371951000000000     -0.695035000000000
P       0.386109000000000      0.540664000000000      2.173882000000000
C       0.738708000000000      2.093368000000000      1.270507000000000
C       1.751882000000000     -0.616659000000000      1.779524000000000
C       0.758686000000000      0.912401000000000      3.938456000000000
C      -0.094351000000000      2.343425000000000      0.178612000000000
C      -0.028143000000000      3.536008000000000     -0.545564000000000
C       0.937422000000000      4.477137000000000     -0.169395000000000
C       1.795057000000000      4.228424000000000      0.900220000000000
C       1.695534000000000      3.046620000000000      1.632699000000000
C       1.506977000000000     -1.973535000000000      1.997465000000000
C       2.526600000000000     -2.923565000000000      1.893617000000000
C       3.801888000000000     -2.487353000000000      1.512859000000000
C       4.047047000000000     -1.140962000000000      1.263263000000000
C       3.030918000000000     -0.198739000000000      1.409052000000000
C       1.281213000000000     -0.098683000000000      4.744690000000000
C       1.394598000000000      0.051740000000000      6.128672000000000
C       0.987978000000000      1.257313000000000      6.707760000000000
C       0.474529000000000      2.277987000000000      5.911272000000000
C       0.346924000000000      2.109332000000000      4.534459000000000
H      -0.828268000000000      1.588678000000000     -0.092688000000000
C      -0.998310000000000      3.775610000000000     -1.642809000000000
H       0.993599000000000      5.427886000000000     -0.691879000000000
H       2.528543000000000      4.976821000000000      1.184053000000000
H       2.336938000000000      2.880291000000000      2.494685000000000
H       0.507603000000000     -2.289960000000000      2.290051000000000
C       2.251387000000000     -4.349835000000000      2.191211000000000
H       4.598388000000000     -3.214876000000000      1.385654000000000
H       5.037313000000000     -0.822362000000000      0.952667000000000
H       3.232599000000000      0.852969000000000      1.227645000000000
H       1.575427000000000     -1.046717000000000      4.305219000000000
C       1.901543000000000     -1.087412000000000      6.932580000000000
H       1.086943000000000      1.399548000000000      7.780218000000000
H       0.164677000000000      3.213001000000000      6.367520000000000
H      -0.078524000000000      2.904554000000000      3.927116000000000
Rh     -1.776137000000000     -0.125578000000000      1.744507000000000
C      -2.641142000000000      1.060299000000000      2.980468000000000
O      -3.165088000000000      1.770528000000000      3.712549000000000
H      -1.060935000000000     -1.133609000000000      0.684803000000000
C      -7.100342000000000      3.802431000000000     -1.076619000000000
C      -6.744190000000000      1.910977000000000     -2.524856000000000
C      -7.168684000000000      4.089686000000000     -3.472522000000000
C      -6.910284000000000      2.730339000000000     -3.637103000000000
C      -7.267003000000000      4.621638000000000     -2.188872000000000
H      -7.141009000000000      4.227498000000000     -0.077707000000000
H      -7.458929000000000      5.681267000000000     -2.052542000000000
H      -7.293064000000000      4.730751000000000     -4.339551000000000
H      -6.837409000000000      2.305229000000000     -4.633513000000000
H      -6.548248000000000      0.850132000000000     -2.657430000000000
C      -1.154916000000000      0.617720000000000     -3.673136000000000
C      -2.985175000000000      0.408739000000000     -5.224703000000000
C      -1.146082000000000      1.885537000000000     -5.726068000000000
C      -2.370643000000000      1.323225000000000     -6.074516000000000
C      -0.541675000000000      1.531861000000000     -4.521528000000000
H      -0.667990000000000      0.331781000000000     -2.744006000000000
H       0.408585000000000      1.972903000000000     -4.237559000000000
H      -0.668045000000000      2.604573000000000     -6.384390000000000
H      -2.854354000000000      1.602917000000000     -7.005566000000000
H      -3.954161000000000     -0.007211000000000     -5.487196000000000
C      -0.918024000000000     -3.853407000000000      4.619252000000000
C      -1.743672000000000     -6.113835000000000      4.545571000000000
C       0.348114000000000     -5.627480000000000      5.649776000000000
C      -0.630696000000000     -6.540289000000000      5.263279000000000
C       0.200179000000000     -4.280786000000000      5.328078000000000
H      -1.040968000000000     -2.793751000000000      4.405028000000000
H       0.950938000000000     -3.559837000000000      5.640579000000000
H       1.224428000000000     -5.960290000000000      6.197406000000000
H      -0.518671000000000     -7.593158000000000      5.505189000000000
H      -2.483775000000000     -6.838880000000000      4.217455000000000
C      -2.289851000000000      3.234213000000000     -1.569573000000000
C      -0.654402000000000      4.533052000000000     -2.767924000000000
C      -2.845075000000000      4.174595000000000     -3.718698000000000
C      -1.571306000000000      4.733461000000000     -3.795035000000000
C      -3.203823000000000      3.425973000000000     -2.600740000000000
H      -2.592582000000000      2.678187000000000     -0.684555000000000
H      -4.201236000000000      3.000912000000000     -2.526002000000000
H      -3.557281000000000      4.318299000000000     -4.525372000000000
H      -1.283040000000000      5.313360000000000     -4.666935000000000
H       0.348598000000000      4.942907000000000     -2.852408000000000
C       1.020052000000000     -4.925776000000000      1.853313000000000
C       3.210001000000000     -5.141287000000000      2.832650000000000
C       1.727434000000000     -7.042203000000000      2.770666000000000
C       2.951430000000000     -6.478309000000000      3.118707000000000
C       0.761735000000000     -6.260851000000000      2.139657000000000
H       0.269278000000000     -4.327649000000000      1.342689000000000
H      -0.199143000000000     -6.689922000000000      1.873659000000000
H       1.521220000000000     -8.083561000000000      2.998674000000000
H       3.704680000000000     -7.076994000000000      3.621928000000000
H       4.156412000000000     -4.697581000000000      3.129755000000000
C       1.289906000000000     -1.438588000000000      8.140834000000000
C       2.960941000000000     -1.874049000000000      6.461308000000000
C       2.764201000000000     -3.336212000000000      8.371324000000000
C       3.387948000000000     -2.989979000000000      7.174329000000000
C       1.716849000000000     -2.554586000000000      8.853776000000000
H       0.449312000000000     -0.852252000000000      8.501120999999999
H       1.220106000000000     -2.823172000000000      9.780780000000000
H       3.092536000000000     -4.209999000000000      8.925274000000000
H       4.209037000000000     -3.589568000000000      6.793352000000000
H       3.452760000000000     -1.604128000000000      5.530400000000000
