132

P      -3.338836000000000     -3.092304000000000      0.653234000000000
C      -3.093573000000000     -4.237836000000000     -0.760542000000000
C      -4.080301000000000     -1.605877000000000     -0.130866000000000
C      -4.742234000000000     -3.874752000000000      1.537047000000000
C      -2.321672000000000     -5.385039000000000     -0.546094000000000
C      -2.119623000000000     -6.304078000000000     -1.566863000000000
C      -2.671758000000000     -6.097084000000000     -2.837646000000000
C      -3.436972000000000     -4.945518000000000     -3.049755000000000
C      -3.649718000000000     -4.027845000000000     -2.025402000000000
C      -3.225747000000000     -0.748406000000000     -0.837577000000000
C      -3.686903000000000      0.464496000000000     -1.327381000000000
C      -5.011775000000000      0.868787000000000     -1.111531000000000
C      -5.867515000000000     -0.006184000000000     -0.435435000000000
C      -5.411509000000000     -1.229687000000000      0.049307000000000
C      -4.855198000000000     -3.707809000000000      2.920387000000000
C      -5.926709000000000     -4.262752000000000      3.612271000000000
C      -6.909059000000000     -5.001131000000000      2.943759000000000
C      -6.787500000000000     -5.170284000000000      1.558379000000000
C      -5.718548000000000     -4.618561000000000      0.863926000000000
H      -1.880537000000000     -5.560995000000000      0.432684000000000
H      -1.539568000000000     -7.202062000000000     -1.375275000000000
C      -2.447090000000000     -7.072326000000000     -3.931919000000000
H      -3.849650000000000     -4.753159000000000     -4.036039000000000
H      -4.243904000000000     -3.138461000000000     -2.215925000000000
H      -2.177228000000000     -1.013897000000000     -0.955652000000000
H      -2.992027000000000      1.143246000000000     -1.815030000000000
C      -5.483095000000000      2.203928000000000     -1.552371000000000
H      -6.908890000000000      0.267435000000000     -0.292919000000000
H      -6.096476000000000     -1.881135000000000      0.583828000000000
H      -4.090083000000000     -3.146094000000000      3.449292000000000
H      -5.986154000000000     -4.148719000000000      4.690877000000000
C      -8.048273000000000     -5.596817000000000      3.682846000000000
H      -7.551765000000000     -5.722261000000000      1.018773000000000
H      -5.646351000000000     -4.761451000000000     -0.211081000000000
P      -0.436240000000000     -0.509004000000000      2.726167000000000
C      -0.815215000000000     -0.060901000000000      4.459331000000000
C      -0.956216000000000      0.993812000000000      1.792049000000000
C       1.399737000000000     -0.417276000000000      2.660895000000000
C      -1.180868000000000     -1.077553000000000      5.344916000000000
C      -1.450227000000000     -0.788480000000000      6.677907000000000
C      -1.375249000000000      0.525098000000000      7.155448000000000
C      -1.018943000000000      1.541938000000000      6.260071000000000
C      -0.740727000000000      1.254243000000000      4.929114000000000
C      -2.315453000000000      1.337039000000000      1.779146000000000
C      -2.767674000000000      2.414886000000000      1.031043000000000
C      -1.884097000000000      3.168940000000000      0.247253000000000
C      -0.526882000000000      2.834754000000000      0.278700000000000
C      -0.064940000000000      1.768521000000000      1.045704000000000
C       2.033823000000000     -0.830974000000000      1.482122000000000
C       3.415876000000000     -0.781883000000000      1.361166000000000
C       4.212783000000000     -0.336041000000000      2.423719000000000
C       3.577836000000000      0.065007000000000      3.602948000000000
C       2.191508000000000      0.030491000000000      3.721333000000000
H      -1.259364000000000     -2.098463000000000      4.977055000000000
H      -1.707107000000000     -1.591938000000000      7.362167000000000
C      -1.673921000000000      0.835301000000000      8.574673000000001
H      -0.988829000000000      2.571162000000000      6.605963000000000
H      -0.476972000000000      2.057844000000000      4.245719000000000
H      -3.028303000000000      0.727562000000000      2.328111000000000
H      -3.831658000000000      2.635932000000000      0.999370000000000
C      -2.369631000000000      4.284070000000000     -0.601123000000000
H       0.184260000000000      3.432125000000000     -0.284632000000000
H       0.997542000000000      1.547379000000000      1.057897000000000
H       1.435918000000000     -1.197405000000000      0.650800000000000
H       3.887533000000000     -1.128666000000000      0.446344000000000
C       5.689925000000000     -0.296145000000000      2.301493000000000
H       4.175423000000000      0.434439000000000      4.431464000000000
H       1.729794000000000      0.357279000000000      4.647632000000000
Rh     -1.538468000000000     -2.301344000000000      1.818828000000000
C      -0.133928000000000     -3.340034000000000      1.061597000000000
O       0.697567000000000     -4.014122000000000      0.645898000000000
H      -2.758274000000000     -1.509119000000000      2.564997000000000
C      -3.470748000000000     -7.380038000000000     -4.835714000000000
C      -1.207604000000000     -7.704883000000000     -4.083331000000000
C      -2.023760000000000     -8.917448000000000     -6.003537000000000
C      -0.997669000000000     -8.619441000000000     -5.110144000000000
C      -3.261418000000000     -8.294302999999999     -5.862691000000000
H      -4.445406000000000     -6.915909000000000     -4.714483000000000
H      -4.069424000000000     -8.526700000000000     -6.549448000000000
H      -1.859904000000000     -9.631031999999999     -6.804765000000000
H      -0.027394000000000     -9.094298000000000     -5.217391000000000
H      -0.396222000000000     -7.456292000000000     -3.405207000000000
C      -4.993447000000000      2.790999000000000     -2.725934000000000
C      -6.430765000000000      2.909164000000000     -0.799820000000000
C      -6.414891000000000      4.713419000000000     -2.400072000000000
C      -6.896186000000000      4.150871000000000     -1.221758000000000
C      -5.455069000000000      4.032667000000000     -3.145864000000000
H      -4.264747000000000      2.255910000000000     -3.327734000000000
H      -5.062832000000000      4.471180000000000     -4.058083000000000
H      -6.773216000000000      5.684114000000000     -2.729275000000000
H      -7.631228000000000      4.681330000000000     -0.623966000000000
H      -6.794061000000000      2.485740000000000      0.132499000000000
C      -8.533865000000000     -6.865482000000000      3.345204000000000
C      -8.660874000000000     -4.902571000000000      4.732677000000000
C     -10.204751999999999     -6.724111000000000      5.080121000000000
C      -9.730117000000000     -5.460918000000000      5.425151000000000
C      -9.602531000000001     -7.424681000000000      4.037839000000000
H      -8.050649000000000     -7.426575000000000      2.550461000000000
H      -9.960260999999999     -8.413468999999999      3.768116000000000
H     -11.038907000000000     -7.160086000000000      5.620606000000000
H     -10.198726000000001     -4.904656000000000      6.231027000000000
H      -8.309927999999999     -3.906934000000000      4.988849000000000
C      -2.706022000000000      0.172846000000000      9.249419000000000
C      -0.929478000000000      1.796483000000000      9.268482000000001
C      -2.237648000000000      1.420707000000000     11.260845000000000
C      -1.208409000000000      2.086763000000000     10.599837000000001
C      -2.985620000000000      0.462670000000000     10.580724000000000
H      -3.309000000000000     -0.556340000000000      8.715925000000000
H      -3.795039000000000     -0.055319000000000     11.085644000000000
H      -2.455545000000000      1.646951000000000     12.299758000000001
H      -0.615088000000000      2.829161000000000     11.124498000000001
H      -0.109327000000000      2.300436000000000      8.765086999999999
C      -3.413425000000000      5.112203000000000     -0.171431000000000
C      -1.781186000000000      4.542664000000000     -1.845497000000000
C      -3.226611000000000      6.445692000000000     -2.174879000000000
C      -2.204313000000000      5.614613000000000     -2.624987000000000
C      -3.833718000000000      6.185423000000000     -0.948542000000000
H      -3.877251000000000      4.929898000000000      0.793609000000000
H      -4.639948000000000      6.820588000000000     -0.594264000000000
H      -3.555242000000000      7.285302000000000     -2.779839000000000
H      -1.735223000000000      5.798707000000000     -3.586841000000000
H      -0.994020000000000      3.887806000000000     -2.208926000000000
C       6.297464000000000      0.087547000000000      1.100209000000000
C       6.506782000000000     -0.641295000000000      3.384519000000000
C       8.485526999999999     -0.219111000000000      2.069694000000000
C       7.892412000000000     -0.603059000000000      3.269964000000000
C       7.682974000000000      0.125996000000000      0.984934000000000
H       5.676065000000000      0.381172000000000      0.258957000000000
H       8.136782999999999      0.433383000000000      0.047902000000000
H       9.566768000000000     -0.189848000000000      1.979841000000000
H       8.510247000000000     -0.882639000000000      4.117632000000000
H       6.049043000000000     -0.967744000000000      4.313927000000000
