96

P      -3.631843000000000     -2.048929000000000      0.999988000000000
C      -5.178486000000000     -1.611188000000000      0.111608000000000
C      -4.165384000000000     -3.234298000000000      2.290502000000000
C      -2.759316000000000     -3.127328000000000     -0.218321000000000
C      -5.065677000000000     -0.614310000000000     -0.867688000000000
C      -6.175265000000000     -0.216620000000000     -1.609580000000000
C      -7.416527000000000     -0.818538000000000     -1.352552000000000
C      -7.529204000000000     -1.797214000000000     -0.377816000000000
C      -6.414103000000000     -2.204667000000000      0.358356000000000
C      -4.128170000000000     -2.790436000000000      3.616330000000000
C      -4.501421000000000     -3.641376000000000      4.658323000000000
C      -4.918484000000000     -4.944571000000000      4.354228000000000
C      -4.954022000000000     -5.382716000000000      3.036636000000000
C      -4.573622000000000     -4.535066000000000      1.996446000000000
C      -3.302478000000000     -3.430267000000000     -1.464304000000000
C      -2.580090000000000     -4.196135000000000     -2.393812000000000
C      -1.317991000000000     -4.679150000000000     -2.052881000000000
C      -0.784797000000000     -4.394176000000000     -0.794350000000000
C      -1.485789000000000     -3.617466000000000      0.116197000000000
H      -4.093331000000000     -0.161197000000000     -1.039650000000000
S      -6.130413000000000      1.023491000000000     -2.870618000000000
H      -8.290628000000000     -0.506463000000000     -1.917028000000000
H      -8.496295999999999     -2.250747000000000     -0.184344000000000
H      -6.515967000000000     -2.972042000000000      1.118420000000000
H      -3.776697000000000     -1.780103000000000      3.808474000000000
S      -4.432016000000000     -3.191044000000000      6.369040000000000
H      -5.204627000000000     -5.616807000000000      5.158438000000000
H      -5.271257000000000     -6.397831000000000      2.819176000000000
H      -4.585995000000000     -4.885203000000000      0.967487000000000
H      -4.288505000000000     -3.063684000000000     -1.737122000000000
S      -3.362334000000000     -4.460147000000000     -3.961594000000000
H      -0.733395000000000     -5.263650000000000     -2.753964000000000
H       0.205418000000000     -4.759388000000000     -0.541139000000000
H      -1.045584000000000     -3.365674000000000      1.075435000000000
P      -0.263680000000000      0.505743000000000      2.477296000000000
C       0.035048000000000      2.310321000000000      2.304721000000000
C       1.101264000000000     -0.259909000000000      1.517546000000000
C       0.207046000000000      0.208293000000000      4.231700000000000
C       1.174846000000000      2.840474000000000      1.708437000000000
C       1.348830000000000      4.229609000000000      1.611429000000000
C       0.371320000000000      5.079833000000000      2.127652000000000
C      -0.769644000000000      4.544731000000000      2.727225000000000
C      -0.947232000000000      3.171891000000000      2.812736000000000
C       0.786452000000000     -0.721203000000000      0.233405000000000
C       1.765352000000000     -1.307331000000000     -0.568426000000000
C       3.066979000000000     -1.440257000000000     -0.065079000000000
C       3.374169000000000     -0.992364000000000      1.212735000000000
C       2.397294000000000     -0.397570000000000      2.012398000000000
C      -0.206104000000000     -0.992190000000000      4.821590000000000
C       0.122406000000000     -1.286089000000000      6.144772000000000
C       0.864054000000000     -0.357870000000000      6.887431000000000
C       1.267850000000000      0.835444000000000      6.304876000000000
C       0.947374000000000      1.126674000000000      4.978082000000000
H       1.940704000000000      2.179578000000000      1.310275000000000
S       2.838329000000000      4.777511000000000      0.824705000000000
H       0.480251000000000      6.156493000000000      2.065880000000000
H      -1.528136000000000      5.214307000000000      3.120610000000000
H      -1.844051000000000      2.760775000000000      3.270200000000000
H      -0.241248000000000     -0.631248000000000     -0.108341000000000
S       1.456760000000000     -1.926060000000000     -2.199100000000000
H       3.836547000000000     -1.897091000000000     -0.681113000000000
H       4.385636000000000     -1.105701000000000      1.590219000000000
H       2.642747000000000     -0.051214000000000      3.012587000000000
H      -0.798084000000000     -1.679774000000000      4.227531000000000
S      -0.399123000000000     -2.767671000000000      6.965212000000000
H       1.123718000000000     -0.578745000000000      7.918861000000000
H       1.843591000000000      1.547803000000000      6.887653000000000
H       1.270908000000000      2.063297000000000      4.534461000000000
Rh     -2.256795000000000     -0.380544000000000      1.759007000000000
C      -3.161063000000000      1.184137000000000      1.165941000000000
O      -3.711275000000000      2.130135000000000      0.817111000000000
H      -1.500283000000000     -1.720031000000000      2.307126000000000
C      -4.418175000000000      1.601627000000000     -2.785051000000000
H      -4.183660000000000      1.994539000000000     -1.793161000000000
H      -3.715252000000000      0.810467000000000     -3.057445000000000
H      -4.339596000000000      2.408862000000000     -3.515214000000000
C      -2.143333000000000     -5.466219000000000     -4.839569000000000
H      -1.967427000000000     -6.415582000000000     -4.328992000000000
H      -2.573255000000000     -5.667791000000000     -5.822135000000000
H      -1.200985000000000     -4.929206000000000     -4.970062000000000
C      -3.811990000000000     -1.492849000000000      6.300496000000000
H      -2.825168000000000     -1.438344000000000      5.830969000000000
H      -4.512703000000000     -0.834243000000000      5.782213000000000
H      -3.714394000000000     -1.172191000000000      7.338936000000000
C       2.685992000000000      6.576937000000000      0.908955000000000
H       1.812446000000000      6.929553000000000      0.356174000000000
H       2.644686000000000      6.926762000000000      1.942888000000000
H       3.585844000000000      6.975683000000000      0.437582000000000
C      -0.237270000000000     -1.371377000000000     -2.514907000000000
H      -0.945048000000000     -1.829587000000000     -1.819435000000000
H      -0.304506000000000     -0.281504000000000     -2.466731000000000
H      -0.477614000000000     -1.702750000000000     -3.527451000000000
C      -0.910871000000000     -3.809019000000000      5.574800000000000
H      -1.794368000000000     -3.416259000000000      5.065130000000000
H      -0.091380000000000     -3.931242000000000      4.862457000000000
H      -1.169506000000000     -4.777763000000000      6.005706000000000
