144

P      -3.332319000000000     -0.756158000000000     -0.735875000000000
C      -2.334141000000000     -1.860508000000000     -1.807402000000000
C      -4.308778000000000      0.246728000000000     -1.923991000000000
C      -4.638892000000000     -1.807571000000000      0.018466000000000
C      -0.952242000000000     -1.681413000000000     -1.793024000000000
C      -0.088459000000000     -2.485684000000000     -2.545621000000000
C      -0.662519000000000     -3.484670000000000     -3.333796000000000
C      -2.046721000000000     -3.670791000000000     -3.365770000000000
C      -2.887484000000000     -2.866070000000000     -2.606975000000000
C      -5.282575000000000      1.088543000000000     -1.381605000000000
C      -6.078636000000000      1.914445000000000     -2.179120000000000
C      -5.853653000000000      1.890639000000000     -3.559845000000000
C      -4.876180000000000      1.067227000000000     -4.113003000000000
C      -4.102897000000000      0.238552000000000     -3.304930000000000
C      -4.476231000000000     -2.163521000000000      1.357374000000000
C      -5.460038000000000     -2.859899000000000      2.068551000000000
C      -6.618210000000000     -3.224961000000000      1.380387000000000
C      -6.789934000000000     -2.889988000000000      0.035281000000000
C      -5.815826000000000     -2.171828000000000     -0.647039000000000
H      -0.543626000000000     -0.909425000000000     -1.144201000000000
C       1.419767000000000     -2.247183000000000     -2.437949000000000
H      -0.035765000000000     -4.139047000000000     -3.930421000000000
H      -2.466116000000000     -4.459258000000000     -3.983397000000000
H      -3.962467000000000     -3.025614000000000     -2.623999000000000
H      -5.424259000000000      1.089275000000000     -0.301318000000000
C      -7.150223000000000      2.784564000000000     -1.518336000000000
H      -6.440534000000000      2.520228000000000     -4.219518000000000
H      -4.719177000000000      1.069121000000000     -5.187500000000000
H      -3.348721000000000     -0.406396000000000     -3.745297000000000
H      -3.562811000000000     -1.856341000000000      1.860431000000000
C      -5.222349000000000     -3.148337000000000      3.552672000000000
H      -7.411219000000000     -3.763290000000000      1.888777000000000
H      -7.704698000000000     -3.176759000000000     -0.474813000000000
H      -5.979676000000000     -1.870144000000000     -1.678481000000000
P      -0.576534000000000      0.206471000000000      2.635193000000000
C      -0.590257000000000     -1.328023000000000      3.660242000000000
C      -0.559760000000000      1.511964000000000      3.922553000000000
C       1.122309000000000      0.229545000000000      1.935377000000000
C      -0.230264000000000     -2.539816000000000      3.048801000000000
C      -0.243676000000000     -3.747462000000000      3.742196000000000
C      -0.664273000000000     -3.723163000000000      5.082703000000000
C      -1.039476000000000     -2.536919000000000      5.694998000000000
C      -0.993697000000000     -1.329874000000000      4.992601000000000
C      -1.782587000000000      2.090725000000000      4.257533000000000
C      -1.900791000000000      3.030819000000000      5.289975000000000
C      -0.734705000000000      3.391576000000000      5.967771000000000
C       0.498682000000000      2.828668000000000      5.633824000000000
C       0.593943000000000      1.884348000000000      4.620577000000000
C       2.173195000000000     -0.514496000000000      2.467725000000000
C       3.439925000000000     -0.543075000000000      1.868078000000000
C       3.637303000000000      0.236440000000000      0.727217000000000
C       2.600673000000000      1.004913000000000      0.194909000000000
C       1.341651000000000      0.993982000000000      0.781293000000000
H       0.066490000000000     -2.517791000000000      2.004399000000000
C       0.153354000000000     -5.073986000000000      3.088998000000000
H      -0.707479000000000     -4.648371000000000      5.651422000000000
H      -1.364576000000000     -2.542590000000000      6.731080000000000
H      -1.273460000000000     -0.403974000000000      5.486665000000000
H      -2.665392000000000      1.789371000000000      3.695929000000000
C      -3.278719000000000      3.608511000000000      5.619162000000000
H      -0.772858000000000      4.122456000000000      6.768152000000000
H       1.389357000000000      3.131803000000000      6.175957000000000
H       1.553872000000000      1.441607000000000      4.368559000000000
H       1.994311000000000     -1.108538000000000      3.360125000000000
C       4.524232000000000     -1.434595000000000      2.475924000000000
H       4.601298000000000      0.244556000000000      0.229840000000000
H       2.775491000000000      1.596785000000000     -0.698681000000000
H       0.519251000000000      1.557013000000000      0.345547000000000
Rh     -2.112529000000000      0.229133000000000      0.945667000000000
C      -2.792537000000000      2.007113000000000      0.920030000000000
O      -3.214315000000000      3.075920000000000      0.886996000000000
H      -1.530476000000000     -1.291138000000000      0.929454000000000
C       1.863369000000000     -2.467492000000000     -0.979551000000000
H       1.659741000000000     -3.498386000000000     -0.670006000000000
H       2.940011000000000     -2.281146000000000     -0.881463000000000
H       1.347334000000000     -1.790855000000000     -0.286696000000000
C       2.216569000000000     -3.197841000000000     -3.335899000000000
H       2.053673000000000     -4.244761000000000     -3.058133000000000
H       1.949247000000000     -3.074069000000000     -4.391000000000000
H       3.286315000000000     -2.988270000000000     -3.234248000000000
C       1.739678000000000     -0.800955000000000     -2.850712000000000
H       1.218269000000000     -0.079151000000000     -2.214742000000000
H       2.815662000000000     -0.612916000000000     -2.754898000000000
H       1.446390000000000     -0.618067000000000     -3.889919000000000
C      -3.972156000000000     -4.029437000000000      3.702203000000000
H      -3.081829000000000     -3.534850000000000      3.297674000000000
H      -3.778226000000000     -4.240502000000000      4.760646000000000
H      -4.105055000000000     -4.982474000000000      3.178452000000000
C      -4.988293000000000     -1.820818000000000      4.296806000000000
H      -4.819401000000000     -2.013417000000000      5.362655000000000
H      -4.109047000000000     -1.293367000000000      3.910205000000000
H      -5.855756000000000     -1.159245000000000      4.197112000000000
C      -6.412088000000000     -3.866869000000000      4.194964000000000
H      -7.326779000000000     -3.267423000000000      4.131578000000000
H      -6.600262000000000     -4.836151000000000      3.720549000000000
H      -6.203069000000000     -4.048703000000000      5.254096000000000
C      -6.493506000000000      3.708315000000000     -0.478652000000000
H      -5.994583000000000      3.142174000000000      0.313087000000000
H      -5.743383000000000      4.352658000000000     -0.948365000000000
H      -7.252834000000000      4.344903000000000     -0.010547000000000
C      -7.893715000000000      3.654320000000000     -2.536812000000000
H      -8.413499000000000      3.046247000000000     -3.284948000000000
H      -8.644515000000000      4.261079000000000     -2.020498000000000
H      -7.212105000000000      4.335871000000000     -3.056907000000000
C      -8.172713999999999      1.871854000000000     -0.819304000000000
H      -8.660950000000000      1.211071000000000     -1.543436000000000
H      -7.698029000000000      1.244203000000000     -0.058431000000000
H      -8.944519000000000      2.475159000000000     -0.328105000000000
C       0.644516000000000     -4.879760000000000      1.651144000000000
H       0.931541000000000     -5.848059000000000      1.227555000000000
H      -0.133253000000000     -4.450218000000000      1.009110000000000
H       1.520068000000000     -4.222164000000000      1.614482000000000
C       1.282378000000000     -5.729588000000000      3.901775000000000
H       2.164947000000000     -5.081989000000000      3.937018000000000
H       0.974590000000000     -5.938501000000000      4.930881000000000
H       1.573690000000000     -6.679498000000000      3.440075000000000
C      -1.065708000000000     -6.010441000000000      3.060487000000000
H      -1.858894000000000     -5.588836000000000      2.435328000000000
H      -0.782736000000000     -6.985088000000000      2.646836000000000
H      -1.475735000000000     -6.172878000000000      4.062940000000000
C      -4.225058000000000      2.461924000000000      6.016167000000000
H      -5.216914000000000      2.859343000000000      6.258716000000000
H      -4.343716000000000      1.736306000000000      5.205272000000000
H      -3.843694000000000      1.929673000000000      6.894162000000000
C      -3.220886000000000      4.609952000000000      6.776661000000000
H      -2.848712000000000      4.144059000000000      7.695534000000000
H      -2.580003000000000      5.465282000000000      6.537565000000000
H      -4.226131000000000      4.992960000000000      6.979391000000000
C      -3.838283000000000      4.326847000000000      4.379509000000000
H      -3.940159000000000      3.648756000000000      3.527082000000000
H      -4.827703000000000      4.742615000000000      4.600969000000000
H      -3.179683000000000      5.147232000000000      4.076430000000000
C       4.013517000000000     -2.885745000000000      2.509688000000000
H       3.795479000000000     -3.242195000000000      1.496315000000000
H       4.767957000000000     -3.545723000000000      2.953055000000000
H       3.096069000000000     -2.975049000000000      3.101807000000000
C       5.822628000000000     -1.397838000000000      1.664927000000000
H       6.250508000000000     -0.390220000000000      1.633184000000000
H       6.562283000000000     -2.060468000000000      2.125562000000000
H       5.662051000000000     -1.738499000000000      0.636094000000000
C       4.826297000000000     -0.964793000000000      3.908723000000000
H       5.597041000000000     -1.598945000000000      4.360801000000000
H       5.187123000000000      0.069024000000000      3.909264000000000
H       3.935940000000000     -1.013641000000000      4.543494000000000
