144

P      -4.379216000000000     -1.400346000000000      0.729196000000000
C      -6.049752000000000     -0.925308000000000      1.328499000000000
C      -4.681690000000000     -2.995846000000000     -0.113837000000000
C      -4.122704000000000     -0.212728000000000     -0.654543000000000
C      -6.174729000000000      0.299668000000000      1.999234000000000
C      -7.401458000000000      0.716594000000000      2.489976000000000
C      -8.553629000000001     -0.073642000000000      2.350417000000000
C      -8.417688000000000     -1.294174000000000      1.690061000000000
C      -7.186674000000000     -1.715619000000000      1.181081000000000
C      -4.253463000000000     -4.168736000000000      0.505152000000000
C      -4.496414000000000     -5.411252000000000     -0.079546000000000
C      -5.162612000000000     -5.517331000000000     -1.302306000000000
C      -5.580227000000000     -4.328581000000000     -1.919880000000000
C      -5.347856000000000     -3.088732000000000     -1.340545000000000
C      -2.824803000000000     -0.012094000000000     -1.142308000000000
C      -2.583363000000000      0.908352000000000     -2.152058000000000
C      -3.617550000000000      1.664304000000000     -2.721283000000000
C      -4.911076000000000      1.442868000000000     -2.243860000000000
C      -5.162655000000000      0.523075000000000     -1.225071000000000
H      -5.298870000000000      0.931881000000000      2.132701000000000
H      -7.460519000000000      1.673156000000000      3.002108000000000
C      -9.882915000000001      0.421640000000000      2.922925000000000
H      -9.276227000000000     -1.943451000000000      1.558152000000000
H      -7.124725000000000     -2.671433000000000      0.669510000000000
H      -3.713750000000000     -4.103543000000000      1.448018000000000
H      -4.147993000000000     -6.300775000000000      0.433388000000000
C      -5.441096000000000     -6.859175000000000     -1.983153000000000
H      -6.095217000000000     -4.370039000000000     -2.876018000000000
H      -5.680296000000000     -2.185466000000000     -1.846504000000000
H      -1.998893000000000     -0.569575000000000     -0.710862000000000
H      -1.557998000000000      1.045276000000000     -2.487633000000000
C      -3.291979000000000      2.709904000000000     -3.789217000000000
H      -5.748361000000000      1.996594000000000     -2.654426000000000
H      -6.180889000000000      0.394115000000000     -0.868137000000000
P      -0.407955000000000     -1.143735000000000      2.799211000000000
C       0.479625000000000     -0.160730000000000      1.526837000000000
C       0.592276000000000     -2.677541000000000      2.935130000000000
C       0.016963000000000     -0.279662000000000      4.362334000000000
C       1.800986000000000     -0.396843000000000      1.152642000000000
C       2.401908000000000      0.363789000000000      0.148394000000000
C       1.705943000000000      1.378946000000000     -0.511417000000000
C       0.380604000000000      1.615608000000000     -0.117483000000000
C      -0.223994000000000      0.862916000000000      0.879488000000000
C       0.237712000000000     -3.795466000000000      2.170665000000000
C       0.997188000000000     -4.956422000000000      2.228040000000000
C       2.128470000000000     -5.056269000000000      3.049645000000000
C       2.468271000000000     -3.938186000000000      3.814855000000000
C       1.713538000000000     -2.767064000000000      3.761873000000000
C      -0.617559000000000     -0.704799000000000      5.536672000000000
C      -0.329515000000000     -0.105077000000000      6.752761000000000
C       0.589715000000000      0.951211000000000      6.849167000000000
C       1.211658000000000      1.371504000000000      5.673139000000000
C       0.935054000000000      0.764840000000000      4.446147000000000
H       2.369546000000000     -1.188720000000000      1.632783000000000
H       3.428914000000000      0.141721000000000     -0.119750000000000
C       2.318077000000000      2.206479000000000     -1.643529000000000
H      -0.204029000000000      2.390640000000000     -0.608013000000000
H      -1.263690000000000      1.046196000000000      1.144511000000000
H      -0.641070000000000     -3.745566000000000      1.533649000000000
H       0.693931000000000     -5.806108000000000      1.622000000000000
C       2.927493000000000     -6.360712000000000      3.082888000000000
H       3.331378000000000     -3.965263000000000      4.470807000000000
H       2.005678000000000     -1.918356000000000      4.374672000000000
H      -1.344556000000000     -1.513338000000000      5.493025000000000
H      -0.840421000000000     -0.460115000000000      7.643660000000000
C       0.862495000000000      1.592615000000000      8.211052000000000
H       1.927995000000000      2.185403000000000      5.693965000000000
H       1.443281000000000      1.115569000000000      3.552403000000000
Rh     -2.612716000000000     -1.335499000000000      2.192682000000000
C      -3.462129000000000     -0.603434000000000      3.731146000000000
O      -3.976472000000000     -0.188776000000000      4.670023000000000
H      -1.892807000000000     -2.023214000000000      0.893319000000000
C     -10.251938000000001      1.762234000000000      2.265393000000000
H     -11.201461000000000      2.131788000000000      2.668627000000000
H      -9.489411000000000      2.525215000000000      2.448808000000000
H     -10.360115000000000      1.645938000000000      1.182009000000000
C     -11.024805000000001     -0.568247000000000      2.672466000000000
H     -11.188756000000000     -0.731959000000000      1.602040000000000
H     -10.829045000000001     -1.536665000000000      3.144669000000000
H     -11.952828999999999     -0.171121000000000      3.096219000000000
C      -9.737999000000000      0.619832000000000      4.441372000000000
H     -10.683375000000000      0.974137000000000      4.867552000000000
H      -9.469897000000000     -0.321897000000000      4.930955000000000
H      -8.964064000000000      1.355313000000000      4.680415000000000
C      -4.916523000000000     -8.043075000000000     -1.164640000000000
H      -3.831271000000000     -7.989437000000000     -1.028600000000000
H      -5.387236000000000     -8.090532000000000     -0.177032000000000
H      -5.142037000000000     -8.977755999999999     -1.688095000000000
C      -6.958894000000000     -7.031231000000000     -2.163719000000000
H      -7.384765000000000     -6.234784000000000     -2.781445000000000
H      -7.174638000000000     -7.987983000000000     -2.652334000000000
H      -7.468592000000000     -7.016841000000000     -1.194820000000000
C      -4.756425000000000     -6.882006000000000     -3.360268000000000
H      -3.673969000000000     -6.754934000000000     -3.256795000000000
H      -4.945608000000000     -7.838868000000000     -3.859668000000000
H      -5.128947000000000     -6.084078000000000     -4.009640000000000
C      -4.554169000000000      3.345093000000000     -4.381272000000000
H      -5.130501000000000      3.883303000000000     -3.621701000000000
H      -4.273194000000000      4.065080000000000     -5.156656000000000
H      -5.204252000000000      2.592271000000000     -4.839792000000000
C      -2.444906000000000      3.821511000000000     -3.145521000000000
H      -2.994220000000000      4.305377000000000     -2.331276000000000
H      -1.512981000000000      3.421878000000000     -2.731384000000000
H      -2.185307000000000      4.583286000000000     -3.889430000000000
C      -2.495591000000000      2.060802000000000     -4.933321000000000
H      -3.068967000000000      1.250731000000000     -5.395468000000000
H      -2.270481000000000      2.806768000000000     -5.703577000000000
H      -1.545109000000000      1.645749000000000     -4.584269000000000
C       3.781665000000000      1.837082000000000     -1.904643000000000
H       3.885226000000000      0.790993000000000     -2.211221000000000
H       4.178789000000000      2.462104000000000     -2.710928000000000
H       4.401782000000000      2.000592000000000     -1.016886000000000
C       1.518429000000000      1.957627000000000     -2.934148000000000
H       1.949505000000000      2.526780000000000     -3.765510000000000
H       1.527365000000000      0.895159000000000     -3.199762000000000
H       0.475058000000000      2.270108000000000     -2.821320000000000
C       2.251318000000000      3.700363000000000     -1.285046000000000
H       2.808446000000000      3.904159000000000     -0.364901000000000
H       2.686244000000000      4.301192000000000     -2.091560000000000
H       1.219990000000000      4.034972000000000     -1.136862000000000
C       2.013650000000000     -7.503584000000000      3.556722000000000
H       2.572255000000000     -8.445881999999999      3.585852000000000
H       1.627783000000000     -7.300336000000000      4.560918000000000
H       1.158488000000000     -7.639631000000000      2.887913000000000
C       3.446536000000000     -6.674164000000000      1.669344000000000
H       2.626357000000000     -6.787723000000000      0.954202000000000
H       4.099421000000000     -5.872373000000000      1.309336000000000
H       4.019422000000000     -7.608238000000000      1.676423000000000
C       4.128709000000000     -6.279918000000000      4.030236000000000
H       4.828443000000000     -5.493700000000000      3.727543000000000
H       3.816278000000000     -6.086839000000000      5.061876000000000
H       4.669303000000000     -7.231802000000000      4.017312000000000
C       1.891873000000000      2.723584000000000      8.121934000000000
H       2.055206000000000      3.148672000000000      9.117493000000000
H       2.856618000000000      2.362306000000000      7.750095000000000
H       1.548137000000000      3.530327000000000      7.466052000000000
C      -0.447903000000000      2.173641000000000      8.768972000000000
H      -0.852279000000000      2.934961000000000      8.094189000000000
H      -1.210074000000000      1.399363000000000      8.898019000000000
H      -0.269256000000000      2.637319000000000      9.745687000000000
C       1.400377000000000      0.524094000000000      9.177827000000001
H       2.334417000000000      0.094862000000000      8.800732999999999
H       1.597175000000000      0.968522000000000     10.159910999999999
H       0.685092000000000     -0.292279000000000      9.315621999999999
