96

P      -2.214189000000000      0.175659000000000      0.558075000000000
C      -2.460384000000000      1.639689000000000     -0.523832000000000
C      -3.505870000000000      0.373797000000000      1.851093000000000
C      -2.880388000000000     -1.221656000000000     -0.443107000000000
C      -1.579369000000000      2.708713000000000     -0.356255000000000
C      -1.678040000000000      3.853393000000000     -1.151435000000000
C      -2.670854000000000      3.897192000000000     -2.129704000000000
C      -3.564218000000000      2.838099000000000     -2.320735000000000
C      -3.451347000000000      1.710686000000000     -1.506909000000000
C      -3.456407000000000     -0.496285000000000      2.946904000000000
C      -4.412894000000000     -0.420101000000000      3.953234000000000
C      -5.423133000000000      0.538305000000000      3.883266000000000
C      -5.473224000000000      1.413766000000000      2.802849000000000
C      -4.521258000000000      1.331259000000000      1.787294000000000
C      -2.024571000000000     -1.884592000000000     -1.332259000000000
C      -2.494609000000000     -2.913529000000000     -2.146669000000000
C      -3.835599000000000     -3.293453000000000     -2.040372000000000
C      -4.704950000000000     -2.663190000000000     -1.152407000000000
C      -4.216157000000000     -1.619257000000000     -0.359985000000000
H      -0.788620000000000      2.633129000000000      0.390011000000000
C      -0.728152000000000      5.005419000000000     -0.939593000000000
H      -2.749516000000000      4.776425000000000     -2.767488000000000
C      -4.612847000000000      2.913595000000000     -3.402038000000000
H      -4.131157000000000      0.873584000000000     -1.652650000000000
H      -2.659432000000000     -1.234592000000000      3.008164000000000
H      -4.363708000000000     -1.100906000000000      4.797255000000000
H      -6.164807000000000      0.605274000000000      4.673165000000000
H      -6.254808000000000      2.165298000000000      2.746726000000000
H      -4.569731000000000      2.015766000000000      0.945598000000000
H      -0.979818000000000     -1.590271000000000     -1.389773000000000
C      -1.579748000000000     -3.587847000000000     -3.138719000000000
H      -4.209920000000000     -4.102813000000000     -2.665459000000000
C      -6.139619000000000     -3.109862000000000     -1.023530000000000
H      -4.892620000000000     -1.118604000000000      0.328980000000000
P       2.214168000000000     -0.175653000000000      0.558091000000000
C       2.880385000000000      1.221640000000000     -0.443115000000000
C       2.460398000000000     -1.639709000000000     -0.523777000000000
C       3.505829000000000     -0.373741000000000      1.851150000000000
C       4.216171000000000      1.619210000000000     -0.360007000000000
C       4.704977000000000      2.663127000000000     -1.152431000000000
C       3.835629000000000      3.293414000000000     -2.040390000000000
C       2.494635000000000      2.913525000000000     -2.146673000000000
C       2.024580000000000      1.884595000000000     -1.332254000000000
C       3.451435000000000     -1.710751000000000     -1.506785000000000
C       3.564359000000000     -2.838195000000000     -2.320555000000000
C       2.670972000000000     -3.897280000000000     -2.129547000000000
C       1.678073000000000     -3.853423000000000     -1.151375000000000
C       1.579354000000000     -2.708708000000000     -0.356242000000000
C       4.521364000000000     -1.331052000000000      1.787320000000000
C       5.473308000000000     -1.413486000000000      2.802898000000000
C       5.423051000000000     -0.538103000000000      3.883376000000000
C       4.412670000000000      0.420143000000000      3.953378000000000
C       3.456203000000000      0.496253000000000      2.947018000000000
H       4.892624000000000      1.118543000000000      0.328956000000000
C       6.139638000000000      3.109821000000000     -1.023546000000000
H       4.209972000000000      4.102757000000000     -2.665484000000000
C       1.579777000000000      3.587840000000000     -3.138727000000000
H       0.979820000000000      1.590300000000000     -1.389771000000000
H       4.131266000000000     -0.873662000000000     -1.652502000000000
C       4.613014000000000     -2.913710000000000     -3.401830000000000
H       2.749694000000000     -4.776544000000000     -2.767280000000000
C       0.728151000000000     -5.005423000000000     -0.939549000000000
H       0.788554000000000     -2.633096000000000      0.389965000000000
H       4.569956000000000     -2.015503000000000      0.945585000000000
H       6.255005000000000     -2.164898000000000      2.746753000000000
H       6.164711000000000     -0.605021000000000      4.673293000000000
H       4.363351000000000      1.100882000000000      4.797445000000000
H       2.659114000000000      1.234434000000000      3.008303000000000
Rh      0.000007000000000     -0.000002000000000      1.113746000000000
C      -0.000110000000000     -0.000034000000000      3.018270000000000
O      -0.000239000000000     -0.000072000000000      4.166594000000000
H       0.000059000000000     -0.000005000000000     -0.514130000000000
H      -1.063727000000000      5.640318000000000     -0.112172000000000
H      -0.655973000000000      5.631654000000000     -1.833418000000000
H       0.274814000000000      4.642248000000000     -0.691371000000000
H      -1.827923000000000     -3.286957000000000     -4.162531000000000
H      -1.670839000000000     -4.677740000000000     -3.086539000000000
H      -0.534373000000000     -3.321422000000000     -2.955065000000000
H      -4.152116000000000      2.916166000000000     -4.395546000000000
H      -5.205887000000000      3.829498000000000     -3.314556000000000
H      -5.294463000000000      2.060882000000000     -3.351562000000000
H      -6.249775000000000     -3.838137000000000     -0.212405000000000
H      -6.492522000000000     -3.583219000000000     -1.943774000000000
H      -6.797928000000000     -2.266434000000000     -0.797214000000000
H       6.249725000000000      3.838404000000000     -0.212687000000000
H       6.492642000000000      3.582829000000000     -1.943932000000000
H       6.797908000000000      2.266471000000000     -0.796827000000000
H       5.205534000000000     -3.829988000000000     -3.314795000000000
H       5.295093000000000     -2.061396000000000     -3.350881000000000
H       4.152333000000000     -2.915509000000000     -4.395366000000000
H       1.827919000000000      3.286905000000000     -4.162534000000000
H       1.670907000000000      4.677732000000000     -3.086590000000000
H       0.534398000000000      3.321455000000000     -2.955043000000000
H       0.655942000000000     -5.631638000000000     -1.833385000000000
H      -0.274801000000000     -4.642221000000000     -0.691312000000000
H       1.063712000000000     -5.640349000000000     -0.112143000000000
