72

P      -2.250198000000000     -0.392129000000000      0.717454000000000
C      -2.450890000000000      1.246749000000000     -0.100170000000000
C      -3.236170000000000     -0.252025000000000      2.255822000000000
C      -3.322564000000000     -1.478331000000000     -0.316084000000000
C      -1.556805000000000      1.551012000000000     -1.133248000000000
C      -1.657851000000000      2.772592000000000     -1.784728000000000
C      -2.622273000000000      3.710837000000000     -1.427267000000000
C      -3.495160000000000      3.390117000000000     -0.395526000000000
C      -3.426796000000000      2.169856000000000      0.273775000000000
C      -2.572267000000000      0.016708000000000      3.457208000000000
C      -3.294523000000000      0.158406000000000      4.639543000000000
C      -4.680297000000000      0.026013000000000      4.632526000000000
C      -5.347240000000000     -0.250412000000000      3.440598000000000
C      -4.629777000000000     -0.391836000000000      2.256698000000000
C      -4.156189000000000     -0.994239000000000     -1.324440000000000
C      -4.927054000000000     -1.894355000000000     -2.056646000000000
C      -4.894036000000000     -3.259754000000000     -1.805143000000000
C      -4.058438000000000     -3.719652000000000     -0.790764000000000
C      -3.269192000000000     -2.850204000000000     -0.050345000000000
H      -0.777194000000000      0.845732000000000     -1.410213000000000
Cl     -0.539646000000000      3.151955000000000     -3.060802000000000
H      -2.681147000000000      4.668335000000000     -1.931192000000000
Cl     -4.703427000000000      4.550520000000000      0.075257000000000
H      -4.121898000000000      1.959462000000000      1.080064000000000
H      -1.490081000000000      0.110631000000000      3.456767000000000
H      -2.771297000000000      0.366583000000000      5.567339000000000
H      -5.241456000000000      0.132425000000000      5.555542000000000
H      -6.426968000000000     -0.359813000000000      3.431945000000000
H      -5.156313000000000     -0.613318000000000      1.332099000000000
H      -4.214136000000000      0.065805000000000     -1.548196000000000
Cl     -5.962660000000000     -1.294965000000000     -3.319282000000000
H      -5.496574000000000     -3.948434000000000     -2.385255000000000
Cl     -3.997501000000000     -5.424923000000000     -0.459351000000000
H      -2.614922000000000     -3.240330000000000      0.724915000000000
P       2.185982000000000     -0.202728000000000      0.791157000000000
C       2.412184000000000      1.446891000000000     -0.013742000000000
C       3.376753000000000     -1.238835000000000     -0.161066000000000
C       3.008964000000000      0.009637000000000      2.409973000000000
C       1.470148000000000      2.447422000000000      0.250061000000000
C       1.634839000000000      3.705017000000000     -0.316053000000000
C       2.703602000000000      3.996462000000000     -1.157589000000000
C       3.625436000000000      2.988736000000000     -1.409445000000000
C       3.498869000000000      1.721004000000000     -0.848116000000000
C       4.551099000000000     -1.750052000000000      0.389713000000000
C       5.371866000000000     -2.558468000000000     -0.394657000000000
C       5.058705000000000     -2.861330000000000     -1.712533000000000
C       3.882238000000000     -2.337399000000000     -2.243414000000000
C       3.036602000000000     -1.540478000000000     -1.485146000000000
C       2.468601000000000     -0.664039000000000      3.508824000000000
C       3.077685000000000     -0.567052000000000      4.757713000000000
C       4.221938000000000      0.210323000000000      4.914765000000000
C       4.759824000000000      0.892094000000000      3.823948000000000
C       4.156500000000000      0.792934000000000      2.574168000000000
H       0.614653000000000      2.243815000000000      0.885607000000000
Cl      0.468126000000000      4.949719000000000      0.024454000000000
H       2.810898000000000      4.977095000000000     -1.605616000000000
Cl      4.977168000000000      3.323321000000000     -2.453270000000000
H       4.245161000000000      0.965980000000000     -1.071112000000000
H       4.834191000000000     -1.533535000000000      1.413980000000000
Cl      6.833954000000000     -3.203350000000000      0.293008000000000
H       5.707332000000000     -3.490184000000000     -2.310515000000000
Cl      3.466178000000000     -2.704272000000000     -3.890469000000000
H       2.119995000000000     -1.155139000000000     -1.924789000000000
H       1.563381000000000     -1.253338000000000      3.377473000000000
H       2.654319000000000     -1.092873000000000      5.607475000000000
H       4.694110000000000      0.290476000000000      5.888823000000000
H       5.648048000000000      1.503335000000000      3.947262000000000
H       4.576881000000000      1.327835000000000      1.726031000000000
Rh     -0.008337000000000     -0.832760000000000      0.799184000000000
C       0.074216000000000     -2.421943000000000     -0.270037000000000
O       0.121009000000000     -3.387408000000000     -0.883522000000000
H      -0.079197000000000      0.475281000000000      1.769992000000000
