88

P      -2.277686000000000      0.214047000000000      0.608520000000000
C      -2.680880000000000      1.603314000000000     -0.533172000000000
C      -3.255391000000000      0.602928000000000      2.111236000000000
C      -3.152022000000000     -1.247002000000000     -0.090686000000000
C      -3.675938000000000      1.549288000000000     -1.502359000000000
C      -3.806254000000000      2.603167000000000     -2.421850000000000
C      -2.929627000000000      3.689523000000000     -2.359066000000000
C      -1.931230000000000      3.740101000000000     -1.383435000000000
C      -1.820047000000000      2.702069000000000     -0.458054000000000
C      -2.878002000000000      0.008384000000000      3.318824000000000
C      -3.622248000000000      0.232467000000000      4.473233000000000
C      -4.739343000000000      1.064642000000000      4.434662000000000
C      -5.111678000000000      1.671627000000000      3.237854000000000
C      -4.374258000000000      1.441435000000000      2.078331000000000
C      -4.530830000000000     -1.419067000000000      0.044387000000000
C      -5.143555000000000     -2.544401000000000     -0.521027000000000
C      -4.371252000000000     -3.482748000000000     -1.211118000000000
C      -2.988239000000000     -3.319125000000000     -1.341645000000000
C      -2.380552000000000     -2.190941000000000     -0.766433000000000
H      -4.333452000000000      0.686775000000000     -1.573592000000000
N      -4.834333000000000      2.581464000000000     -3.364969000000000
H      -3.015775000000000      4.492480000000000     -3.088169000000000
N      -0.978401000000000      4.775995000000000     -1.384108000000000
H      -1.019297000000000      2.713040000000000      0.279361000000000
H      -1.985959000000000     -0.611892000000000      3.345420000000000
H      -3.321788000000000     -0.232853000000000      5.407056000000000
H      -5.313505000000000      1.247146000000000      5.338024000000000
H      -5.975520000000000      2.328729000000000      3.205438000000000
H      -4.665661000000000      1.917897000000000      1.145701000000000
H      -5.130813000000000     -0.696832000000000      0.592180000000000
N      -6.531563000000000     -2.699961000000000     -0.442661000000000
H      -4.854827000000000     -4.349135000000000     -1.658062000000000
N      -2.228536000000000     -4.227080000000000     -2.061024000000000
H      -1.303281000000000     -2.070501000000000     -0.839311000000000
P       2.301342000000000     -0.216238000000000      0.611836000000000
C       3.202921000000000      1.250426000000000     -0.036663000000000
C       2.648483000000000     -1.582914000000000     -0.574048000000000
C       3.282132000000000     -0.685678000000000      2.088498000000000
C       2.431104000000000      2.302628000000000     -0.524413000000000
C       3.047872000000000      3.449817000000000     -1.047066000000000
C       4.443012000000000      3.516563000000000     -1.069729000000000
C       5.220708000000000      2.468911000000000     -0.565035000000000
C       4.597020000000000      1.330533000000000     -0.041026000000000
C       3.560745000000000     -1.505448000000000     -1.619418000000000
C       3.625319000000000     -2.544289000000000     -2.563530000000000
C       2.771080000000000     -3.643367000000000     -2.443308000000000
C       1.857630000000000     -3.716994000000000     -1.389690000000000
C       1.804286000000000     -2.690898000000000     -0.448013000000000
C       2.912234000000000     -0.150338000000000      3.325460000000000
C       3.658527000000000     -0.438403000000000      4.464450000000000
C       4.768914000000000     -1.275903000000000      4.379477000000000
C       5.132802000000000     -1.825079000000000      3.152336000000000
C       4.393532000000000     -1.530890000000000      2.008909000000000
H       1.346737000000000      2.249110000000000     -0.483343000000000
N       2.271417000000000      4.523277000000000     -1.470928000000000
H       4.933617000000000      4.401096000000000     -1.470929000000000
N       6.616117000000000      2.536955000000000     -0.635746000000000
H       5.201471000000000      0.522967000000000      0.365130000000000
H       4.203280000000000     -0.636289000000000     -1.731246000000000
N       4.571616000000000     -2.496983000000000     -3.587337000000000
H       2.809544000000000     -4.438217000000000     -3.185161000000000
N       0.925839000000000     -4.774707000000000     -1.316118000000000
H       1.057217000000000     -2.716537000000000      0.343546000000000
H       2.024697000000000      0.474244000000000      3.386221000000000
H       3.364802000000000     -0.018852000000000      5.421740000000000
H       5.344447000000000     -1.508239000000000      5.270414000000000
H       5.990814000000000     -2.487104000000000      3.084386000000000
H       4.674642000000000     -1.965660000000000      1.052780000000000
Rh      0.014071000000000      0.014354000000000      0.592481000000000
C       0.034863000000000      0.122574000000000     -1.326920000000000
O       0.053662000000000      0.189851000000000     -2.471878000000000
H       0.002431000000000     -0.074613000000000      2.217760000000000
H      -4.637834000000000      3.103212000000000     -4.209614000000000
H      -5.172562000000000      1.651849000000000     -3.580101000000000
H      -6.843018000000000     -3.661537000000000     -0.496509000000000
H      -6.949208000000000     -2.228387000000000      0.349874000000000
H      -0.590892000000000      4.959084000000000     -0.463967000000000
H      -1.319198000000000      5.638358000000000     -1.793990000000000
H      -2.619724000000000     -5.154749000000000     -2.145830000000000
H      -1.225899000000000     -4.231517000000000     -1.885972000000000
H       2.716758000000000      5.127500000000000     -2.148966000000000
H       1.312747000000000      4.302491000000000     -1.729412000000000
H       4.883249000000000     -1.561044000000000     -3.814566000000000
H       4.311907000000000     -3.008492000000000     -4.421112000000000
H       7.085524000000000      1.959672000000000      0.050897000000000
H       6.983175000000000      3.480326000000000     -0.624044000000000
H       0.672814000000000     -4.994173000000000     -0.357966000000000
H       1.244889000000000     -5.615437000000000     -1.785505000000000
