80

P      -2.272432000000000     -0.243739000000000      0.506121000000000
C      -3.087174000000000      1.225750000000000     -0.237597000000000
C      -3.495283000000000     -0.763538000000000      1.774171000000000
C      -2.429999000000000     -1.539901000000000     -0.788482000000000
C      -4.473401000000000      1.393418000000000     -0.181505000000000
C      -5.047296000000000      2.518089000000000     -0.778713000000000
C      -4.258039000000000      3.473168000000000     -1.412034000000000
C      -2.875563000000000      3.304415000000000     -1.449276000000000
C      -2.285362000000000      2.172934000000000     -0.872729000000000
C      -3.504623000000000     -0.063152000000000      2.986196000000000
C      -4.416950000000000     -0.391348000000000      3.982705000000000
C      -5.322273000000000     -1.432999000000000      3.783504000000000
C      -5.314695000000000     -2.138390000000000      2.583975000000000
C      -4.407206000000000     -1.804159000000000      1.579288000000000
C      -1.511666000000000     -2.587741000000000     -0.712883000000000
C      -1.468474000000000     -3.529297000000000     -1.734198000000000
C      -2.342287000000000     -3.468307000000000     -2.813008000000000
C      -3.269768000000000     -2.430316000000000     -2.864145000000000
C      -3.319224000000000     -1.460612000000000     -1.856248000000000
H      -5.101078000000000      0.665815000000000      0.328434000000000
O      -6.390282000000000      2.735796000000000     -0.763250000000000
H      -4.712845000000000      4.353526000000000     -1.850600000000000
O      -2.147077000000000      4.268349000000000     -2.053336000000000
H      -1.209658000000000      2.029251000000000     -0.921997000000000
H      -2.792079000000000      0.743121000000000      3.146358000000000
H      -4.415085000000000      0.158980000000000      4.918192000000000
H      -6.028179000000000     -1.696370000000000      4.564962000000000
H      -6.015293000000000     -2.952642000000000      2.426301000000000
H      -4.410246000000000     -2.355329000000000      0.643205000000000
H      -0.783260000000000     -2.612262000000000      0.096895000000000
O      -0.511389000000000     -4.515173000000000     -1.749678000000000
H      -2.295119000000000     -4.202032000000000     -3.608895000000000
O      -4.106468000000000     -2.403808000000000     -3.932346000000000
H      -4.022634000000000     -0.633837000000000     -1.927608000000000
P       2.182472000000000      0.231032000000000      0.539090000000000
C       2.466651000000000      1.582434000000000     -0.679558000000000
C       2.987945000000000     -1.220223000000000     -0.265836000000000
C       3.365045000000000      0.629114000000000      1.887187000000000
C       1.536204000000000      2.618377000000000     -0.698097000000000
C       1.661498000000000      3.627958000000000     -1.649234000000000
C       2.717226000000000      3.640655000000000     -2.551597000000000
C       3.657910000000000      2.610985000000000     -2.503909000000000
C       3.536060000000000      1.576300000000000     -1.576379000000000
C       4.354045000000000     -1.445316000000000     -0.103813000000000
C       4.951994000000000     -2.520666000000000     -0.766658000000000
C       4.198131000000000     -3.367059000000000     -1.569012000000000
C       2.826951000000000     -3.143263000000000     -1.717331000000000
C       2.213066000000000     -2.066711000000000     -1.070057000000000
C       4.237496000000000      1.718950000000000      1.853744000000000
C       5.098192000000000      1.960562000000000      2.924472000000000
C       5.099944000000000      1.113393000000000      4.027616000000000
C       4.232960000000000      0.021674000000000      4.065747000000000
C       3.365983000000000     -0.213743000000000      3.005694000000000
H       0.699741000000000      2.626363000000000     -0.004811000000000
O       0.679312000000000      4.584405000000000     -1.669861000000000
H       2.820763000000000      4.415443000000000     -3.305525000000000
O       4.671408000000000      2.666584000000000     -3.405081000000000
H       4.258373000000000      0.763206000000000     -1.569611000000000
H       4.971312000000000     -0.812847000000000      0.525458000000000
O       6.289023000000000     -2.691620000000000     -0.587304000000000
H       4.644448000000000     -4.214757000000000     -2.081306000000000
O       2.166104000000000     -4.017616000000000     -2.508600000000000
H       1.149755000000000     -1.874632000000000     -1.198996000000000
H       4.248522000000000      2.382087000000000      0.994010000000000
H       5.768967000000000      2.813471000000000      2.891523000000000
H       5.771661000000000      1.303435000000000      4.858811000000000
H       4.226542000000000     -0.640936000000000      4.925343000000000
H       2.683768000000000     -1.060606000000000      3.041373000000000
Rh     -0.042965000000000     -0.002051000000000      1.015639000000000
C      -0.037752000000000     -0.071783000000000      2.923819000000000
O      -0.033508000000000     -0.113438000000000      4.070451000000000
H      -0.038851000000000      0.063335000000000     -0.614150000000000
H      -6.815381000000000      2.042233000000000     -0.239008000000000
H      -0.146383000000000     -4.615762000000000     -0.856082000000000
H      -1.197009000000000      4.141485000000000     -1.873905000000000
H      -4.659517000000000     -1.610776000000000     -3.883928000000000
H       0.892202000000000      5.259850000000000     -2.331164000000000
H       6.577596000000000     -3.474317000000000     -1.077978000000000
H       5.231674000000000      1.883883000000000     -3.300869000000000
H       1.201557000000000     -3.891202000000000     -2.459214000000000
