152

P      -1.864401000000000     -1.558936000000000      0.904277000000000
C      -1.929569000000000      0.237405000000000      1.348878000000000
C      -2.100345000000000     -2.444098000000000      2.488927000000000
C      -3.508645000000000     -1.689015000000000      0.087470000000000
C      -0.745040000000000      0.968422000000000      1.453176000000000
C      -0.767414000000000      2.353371000000000      1.664173000000000
C      -2.002260000000000      2.999743000000000      1.756676000000000
C      -3.201687000000000      2.291932000000000      1.645588000000000
C      -3.151803000000000      0.908158000000000      1.461343000000000
C      -3.026364000000000     -2.026503000000000      3.452274000000000
C      -3.190126000000000     -2.754221000000000      4.626320000000000
C      -2.429522000000000     -3.902580000000000      4.847529000000000
C      -1.501902000000000     -4.318158000000000      3.897230000000000
C      -1.334602000000000     -3.588664000000000      2.721253000000000
C      -4.572151000000000     -2.450488000000000      0.560728000000000
C      -5.836159000000000     -2.366736000000000     -0.044701000000000
C      -6.017259000000000     -1.489980000000000     -1.116137000000000
C      -4.952262000000000     -0.733342000000000     -1.619551000000000
C      -3.698580000000000     -0.865897000000000     -1.026008000000000
H       0.203046000000000      0.462665000000000      1.299154000000000
C       0.500832000000000      3.120114000000000      1.704990000000000
H      -2.032757000000000      4.078887000000000      1.879061000000000
C      -4.509728000000000      2.991591000000000      1.652724000000000
H      -4.086213000000000      0.360793000000000      1.379539000000000
H      -3.615601000000000     -1.127972000000000      3.285872000000000
H      -3.906634000000000     -2.423148000000000      5.371727000000000
H      -2.557791000000000     -4.468264000000000      5.765234000000000
H      -0.902551000000000     -5.206150000000000      4.071443000000000
H      -0.599385000000000     -3.891638000000000      1.979008000000000
H      -4.431050000000000     -3.117239000000000      1.406357000000000
C      -6.967541000000000     -3.173891000000000      0.475080000000000
H      -7.003043000000000     -1.384686000000000     -1.561882000000000
C      -5.135884000000000      0.272201000000000     -2.694578000000000
H      -2.876281000000000     -0.251675000000000     -1.390465000000000
P       2.068143000000000     -1.447738000000000     -1.161397000000000
C       3.566161000000000     -1.626114000000000     -0.104103000000000
C       2.073117000000000      0.383321000000000     -1.388433000000000
C       2.666695000000000     -2.115293000000000     -2.762983000000000
C       4.692557000000000     -2.342262000000000     -0.496716000000000
C       5.863044000000000     -2.320195000000000      0.276990000000000
C       5.889126000000000     -1.546620000000000      1.437677000000000
C       4.761045000000000     -0.829116000000000      1.853908000000000
C       3.598000000000000     -0.898985000000000      1.088908000000000
C       0.866923000000000      1.024347000000000     -1.681065000000000
C       0.795542000000000      2.417809000000000     -1.775068000000000
C       1.956704000000000      3.164177000000000     -1.548241000000000
C       3.174160000000000      2.546857000000000     -1.251433000000000
C       3.223147000000000      1.150562000000000     -1.200244000000000
C       3.552896000000000     -1.412842000000000     -3.587287000000000
C       4.032484000000000     -1.995144000000000     -4.756532000000000
C       3.636350000000000     -3.284885000000000     -5.109427000000000
C       2.754548000000000     -3.989067000000000     -4.294872000000000
C       2.267569000000000     -3.403834000000000     -3.127613000000000
H       4.674343000000000     -2.928285000000000     -1.410845000000000
C       7.059971000000000     -3.081329000000000     -0.158430000000000
H       6.802741000000000     -1.490219000000000      2.023898000000000
C       4.801692000000000      0.057105000000000      3.043012000000000
H       2.729634000000000     -0.313616000000000      1.384154000000000
H      -0.029987000000000      0.426922000000000     -1.823332000000000
C      -0.499028000000000      3.084499000000000     -2.065129000000000
H       1.891909000000000      4.247888000000000     -1.525026000000000
C       4.378062000000000      3.343932000000000     -0.911681000000000
H       4.171457000000000      0.666788000000000     -0.986632000000000
H       3.864119000000000     -0.407774000000000     -3.315617000000000
H       4.713803000000000     -1.440961000000000     -5.394737000000000
H       4.011622000000000     -3.736967000000000     -6.022249000000000
H       2.439019000000000     -4.990717000000000     -4.568973000000000
H       1.573177000000000     -3.947803000000000     -2.490953000000000
Rh     -0.017806000000000     -1.998733000000000     -0.352056000000000
C      -0.890832000000000     -2.477785000000000     -1.980125000000000
O      -1.439111000000000     -2.750657000000000     -2.950803000000000
H       0.692670000000000     -1.615513000000000      1.067514000000000
C       1.658659000000000      2.554679000000000      2.255504000000000
C       0.573652000000000      4.413345000000000      1.175828000000000
C       2.918275000000000      4.545898000000000      1.743196000000000
C       1.772644000000000      5.121371000000000      1.200641000000000
C       2.857523000000000      3.257748000000000      2.273766000000000
H       1.612187000000000      1.564013000000000      2.700336000000000
H       3.745408000000000      2.798666000000000      2.702067000000000
H       3.861417000000000      5.085250000000000      1.731698000000000
H       1.816765000000000      6.118247000000000      0.771203000000000
H      -0.300918000000000      4.847116000000000      0.697495000000000
C      -7.111311000000000     -3.397908000000000      1.849687000000000
C      -7.913926000000000     -3.724473000000000     -0.396480000000000
C      -9.110957000000001     -4.691850000000000      1.461918000000000
C      -8.977100999999999     -4.476517000000000      0.092528000000000
C      -8.173622999999999     -4.150588000000000      2.338593000000000
H      -6.394942000000000     -2.961018000000000      2.540414000000000
H      -8.273292000000000     -4.308627000000000      3.407948000000000
H      -9.939830000000001     -5.279420000000000      1.843737000000000
H      -9.697018000000000     -4.903303000000000     -0.598853000000000
H      -7.798042000000000     -3.582500000000000     -1.467192000000000
C      -5.534748000000000      2.570016000000000      0.795329000000000
C      -4.742105000000000      4.090651000000000      2.486196000000000
C      -6.976544000000000      4.327581000000000      1.603970000000000
C      -5.965698000000000      4.752475000000000      2.462885000000000
C      -6.756284000000000      3.233763000000000      0.769992000000000
H      -5.361748000000000      1.728852000000000      0.126586000000000
H      -7.534856000000000      2.900740000000000      0.090089000000000
H      -7.929813000000000      4.846186000000000      1.584386000000000
H      -6.131843000000000      5.599200000000000      3.121667000000000
H      -3.963500000000000      4.414261000000000      3.171245000000000
C      -6.239268000000000      1.133078000000000     -2.678927000000000
C      -4.165353000000000      0.434275000000000     -3.690039000000000
C      -5.383949000000000      2.303850000000000     -4.607663000000000
C      -4.289672000000000      1.442031000000000     -4.639778000000000
C      -6.360539000000000      2.145280000000000     -3.626925000000000
H      -6.988918000000000      1.023724000000000     -1.898774000000000
H      -7.213636000000000      2.816010000000000     -3.592867000000000
H      -5.473705000000000      3.097540000000000     -5.342706000000000
H      -3.524768000000000      1.560934000000000     -5.400431000000000
H      -3.312708000000000     -0.239500000000000     -3.717537000000000
C       7.886243000000000     -3.713925000000000      0.777234000000000
C       7.387165000000000     -3.178125000000000     -1.516475000000000
C       9.327367000000001     -4.511752000000000     -0.985876000000000
C       8.510854999999999     -3.887750000000000     -1.926166000000000
C       9.010897999999999     -4.422590000000000      0.367433000000000
H       7.628026000000000     -3.670223000000000      1.831519000000000
H       9.636015000000000     -4.914072000000000      1.106451000000000
H      10.204272000000000     -5.065444000000000     -1.306059000000000
H       8.753268000000000     -3.947092000000000     -2.982651000000000
H       6.766040000000000     -2.675822000000000     -2.253393000000000
C      -0.545455000000000      4.263098000000000     -2.819463000000000
C      -1.705303000000000      2.542604000000000     -1.600873000000000
C      -2.953344000000000      4.322476000000000     -2.645921000000000
C      -2.921427000000000      3.152017000000000     -1.891714000000000
C      -1.761061000000000      4.877606000000000     -3.105316000000000
H       0.376974000000000      4.683530000000000     -3.210381000000000
H      -1.776617000000000      5.785909000000000     -3.700113000000000
H      -3.904275000000000      4.792758000000000     -2.875972000000000
H      -3.847216000000000      2.711879000000000     -1.529093000000000
H      -1.687341000000000      1.651039000000000     -0.979572000000000
C       3.712170000000000      0.125978000000000      3.919349000000000
C       5.911086000000000      0.877195000000000      3.281918000000000
C       4.833858000000000      1.817691000000000      5.226689000000000
C       5.927043000000000      1.751419000000000      4.365456000000000
C       3.727397000000000      1.000965000000000      5.001380000000000
H       2.854542000000000     -0.521592000000000      3.753246000000000
H       2.873114000000000      1.044483000000000      5.669649000000000
H       4.842279000000000      2.504460000000000      6.066874000000000
H       6.790027000000000      2.389258000000000      4.530572000000000
H       6.754040000000000      0.843568000000000      2.595888000000000
C       4.617711000000000      4.589894000000000     -1.499158000000000
C       5.271069000000000      2.881871000000000      0.064767000000000
C       6.585777000000000      4.895894000000000     -0.134153000000000
C       6.362697000000000      3.650305000000000      0.450982000000000
C       5.710755000000000      5.360617000000000     -1.112997000000000
H       3.947353000000000      4.953298000000000     -2.272988000000000
H       5.881330000000000      6.325001000000000     -1.581606000000000
H       7.435189000000000      5.499237000000000      0.170253000000000
H       7.030025000000000      3.282973000000000      1.225276000000000
H       5.075881000000000      1.935330000000000      0.564208000000000
