72

P      -2.256612000000000     -0.850420000000000      0.013327000000000
C      -3.405513000000000      0.584624000000000     -0.070978000000000
C      -2.897905000000000     -1.750400000000000      1.484089000000000
C      -2.791530000000000     -1.881939000000000     -1.405679000000000
C      -4.421242000000000      0.710467000000000     -1.020489000000000
C      -5.252141000000000      1.830108000000000     -1.028876000000000
C      -5.065546000000000      2.821255000000000     -0.074727000000000
C      -4.059125000000000      2.719936000000000      0.882296000000000
C      -3.231369000000000      1.604871000000000      0.872725000000000
C      -2.057708000000000     -2.658562000000000      2.138738000000000
C      -2.519777000000000     -3.376085000000000      3.238760000000000
C      -3.819831000000000     -3.189382000000000      3.701705000000000
C      -4.659798000000000     -2.282613000000000      3.059959000000000
C      -4.202322000000000     -1.565049000000000      1.957611000000000
C      -2.034826000000000     -1.811153000000000     -2.580259000000000
C      -2.410330000000000     -2.543145000000000     -3.703326000000000
C      -3.538479000000000     -3.359143000000000     -3.657372000000000
C      -4.291151000000000     -3.440754000000000     -2.487793000000000
C      -3.921139000000000     -2.704107000000000     -1.364999000000000
H      -4.574360000000000     -0.065432000000000     -1.764374000000000
H      -6.038312000000000      1.929488000000000     -1.768717000000000
Br     -6.195648000000000      4.338704000000000     -0.075242000000000
H      -3.923504000000000      3.507025000000000      1.615054000000000
H      -2.437078000000000      1.525744000000000      1.612259000000000
H      -1.040934000000000     -2.794119000000000      1.781461000000000
H      -1.857745000000000     -4.076945000000000      3.737994000000000
H      -4.176751000000000     -3.744794000000000      4.563476000000000
H      -5.672739000000000     -2.128857000000000      3.418756000000000
H      -4.863356000000000     -0.855248000000000      1.467739000000000
H      -1.143327000000000     -1.186796000000000     -2.599174000000000
H      -1.817024000000000     -2.481905000000000     -4.610424000000000
H      -3.828324000000000     -3.935886000000000     -4.530232000000000
H      -5.166352000000000     -4.081675000000000     -2.447148000000000
H      -4.508351000000000     -2.775408000000000     -0.453298000000000
P       2.256531000000000     -0.850611000000000     -0.011714000000000
C       3.405634000000000      0.584324000000000      0.072042000000000
C       2.894619000000000     -1.748538000000000     -1.485143000000000
C       2.794519000000000     -1.883922000000000      1.404778000000000
C       3.230105000000000      1.605371000000000     -0.870546000000000
C       4.057774000000000      2.720494000000000     -0.880321000000000
C       5.065527000000000      2.821064000000000      0.075381000000000
C       5.253514000000000      1.829120000000000      1.028418000000000
C       4.422678000000000      0.709427000000000      1.020233000000000
C       2.052924000000000     -2.655442000000000     -2.139619000000000
C       2.512617000000000     -3.371196000000000     -3.241789000000000
C       3.811777000000000     -3.184007000000000     -3.707033000000000
C       4.653238000000000     -2.278507000000000     -3.065441000000000
C       4.198125000000000     -1.562681000000000     -1.960994000000000
C       2.040041000000000     -1.815035000000000      2.580889000000000
C       2.418231000000000     -2.548097000000000      3.702359000000000
C       3.546795000000000     -3.363322000000000      3.653222000000000
C       4.297207000000000     -3.443118000000000      2.482060000000000
C       3.924547000000000     -2.705354000000000      1.360887000000000
H       2.434784000000000      1.526826000000000     -1.609035000000000
H       3.921083000000000      3.508194000000000     -1.612223000000000
Br      6.195540000000000      4.338583000000000      0.075600000000000
H       6.040708000000000      1.927917000000000      1.767248000000000
H       4.576898000000000     -0.067087000000000      1.763245000000000
H       1.036845000000000     -2.791437000000000     -1.780539000000000
H       1.849411000000000     -4.071069000000000     -3.740857000000000
H       4.166840000000000     -3.738045000000000     -4.570453000000000
H       5.665495000000000     -2.124377000000000     -3.426003000000000
H       4.860268000000000     -0.853781000000000     -1.471311000000000
H       1.148204000000000     -1.191247000000000      2.602266000000000
H       1.826712000000000     -2.488293000000000      4.610716000000000
H       3.838728000000000     -3.940887000000000      4.524841000000000
H       5.172718000000000     -4.083454000000000      2.438940000000000
H       4.510024000000000     -2.775189000000000      0.447956000000000
Rh      0.000013000000000     -0.443363000000000      0.002552000000000
C       0.000141000000000      1.462412000000000      0.003430000000000
O       0.000267000000000      2.609587000000000      0.004117000000000
H       0.000029000000000     -2.079715000000000      0.002130000000000
