78

P       2.309845000000000     -0.827959000000000      0.176726000000000
C       2.256211000000000      0.997232000000000     -0.073880000000000
C       3.485184000000000     -1.380430000000000     -1.123576000000000
C       3.308932000000000     -1.021147000000000      1.706496000000000
C       1.275915000000000      1.482937000000000     -0.944301000000000
C       1.152119000000000      2.847265000000000     -1.171011000000000
C       2.004603000000000      3.752491000000000     -0.541734000000000
C       2.983687000000000      3.273806000000000      0.321390000000000
C       3.110336000000000      1.904398000000000      0.557348000000000
C       4.285130000000000     -0.506534000000000     -1.864662000000000
C       5.158023000000000     -1.003964000000000     -2.831295000000000
C       5.243081000000000     -2.374131000000000     -3.059537000000000
C       4.448928000000000     -3.251652000000000     -2.322935000000000
C       3.570352000000000     -2.756464000000000     -1.365840000000000
C       4.708968000000000     -1.019863000000000      1.680603000000000
C       5.433450000000000     -1.130872000000000      2.864239000000000
C       4.768386000000000     -1.247682000000000      4.082922000000000
C       3.376531000000000     -1.256962000000000      4.115066000000000
C       2.648435000000000     -1.148889000000000      2.932880000000000
H       0.584736000000000      0.788418000000000     -1.415741000000000
C       0.112187000000000      3.338069000000000     -2.136933000000000
H       1.881169000000000      4.817781000000000     -0.706400000000000
H       3.643480000000000      3.970269000000000      0.828232000000000
H       3.869093000000000      1.544799000000000      1.246896000000000
H       4.227225000000000      0.564262000000000     -1.691355000000000
H       5.770461000000000     -0.316724000000000     -3.406704000000000
H       5.921520000000000     -2.758470000000000     -3.814679000000000
H       4.505413000000000     -4.320596000000000     -2.502303000000000
H       2.937555000000000     -3.439723000000000     -0.802867000000000
H       5.234645000000000     -0.935170000000000      0.733376000000000
H       6.518592000000000     -1.129884000000000      2.833095000000000
H       5.335080000000000     -1.337584000000000      5.004526000000000
H       2.853455000000000     -1.355826000000000      5.061084000000000
H       1.562691000000000     -1.167156000000000      2.950345000000000
P      -2.120731000000000     -1.065867000000000      0.134475000000000
C      -2.412627000000000      0.759043000000000      0.079880000000000
C      -3.044688000000000     -1.581203000000000      1.629493000000000
C      -3.175951000000000     -1.652216000000000     -1.251274000000000
C      -1.548505000000000      1.589546000000000      0.800862000000000
C      -1.727566000000000      2.966067000000000      0.788291000000000
C      -2.762462000000000      3.546343000000000      0.056989000000000
C      -3.628070000000000      2.726582000000000     -0.655301000000000
C      -3.457450000000000      1.341799000000000     -0.643651000000000
C      -4.267594000000000     -1.004588000000000      1.988768000000000
C      -4.944093000000000     -1.447710000000000      3.120672000000000
C      -4.404179000000000     -2.469739000000000      3.900806000000000
C      -3.185802000000000     -3.044801000000000      3.550772000000000
C      -2.504553000000000     -2.598621000000000      2.420072000000000
C      -4.316040000000000     -2.438457000000000     -1.076808000000000
C      -5.041130000000000     -2.878424000000000     -2.184879000000000
C      -4.640203000000000     -2.529298000000000     -3.469628000000000
C      -3.503244000000000     -1.741433000000000     -3.651370000000000
C      -2.771985000000000     -1.313798000000000     -2.550345000000000
H      -0.721100000000000      1.156423000000000      1.352634000000000
C      -0.819996000000000      3.843065000000000      1.602012000000000
H      -2.873139000000000      4.625933000000000      0.035784000000000
H      -4.435748000000000      3.163498000000000     -1.233311000000000
H      -4.137684000000000      0.716349000000000     -1.214441000000000
H      -4.687941000000000     -0.204537000000000      1.384166000000000
H      -5.890231000000000     -0.993223000000000      3.397351000000000
H      -4.932191000000000     -2.812180000000000      4.785379000000000
H      -2.760068000000000     -3.834916000000000      4.161235000000000
H      -1.541488000000000     -3.025098000000000      2.147497000000000
H      -4.641172000000000     -2.713880000000000     -0.078279000000000
H      -5.922569000000000     -3.494784000000000     -2.037769000000000
H      -5.207310000000000     -2.871839000000000     -4.329405000000000
H      -3.181849000000000     -1.467736000000000     -4.651268000000000
H      -1.881403000000000     -0.703952000000000     -2.694703000000000
Rh      0.119216000000000     -1.517429000000000      0.048052000000000
C       0.192286000000000     -2.540992000000000     -1.564845000000000
O       0.236851000000000     -3.190971000000000     -2.508002000000000
H       0.047665000000000     -0.732253000000000      1.475285000000000
F       0.627398000000000      3.526741000000000     -3.363009000000000
F      -0.412100000000000      4.511530000000000     -1.753580000000000
F      -0.898489000000000      2.465493000000000     -2.268486000000000
F      -0.439487000000000      4.935598000000000      0.918521000000000
F       0.290110000000000      3.200986000000000      1.988339000000000
F      -1.431297000000000      4.283501000000000      2.713933000000000
