78

P       1.725438000000000      0.400177000000000      0.842528000000000
C       3.365274000000000      0.068776000000000      0.068694000000000
C       2.140117000000000      0.498257000000000      2.624379000000000
C       1.425311000000000      2.141167000000000      0.330566000000000
C       4.526290000000000     -0.178652000000000      0.802052000000000
C       5.724286000000000     -0.466692000000000      0.148794000000000
C       5.762452000000000     -0.500883000000000     -1.238948000000000
C       4.609341000000000     -0.254622000000000     -1.985220000000000
C       3.418220000000000      0.021839000000000     -1.331768000000000
C       2.761347000000000      1.610502000000000      3.199707000000000
C       3.092815000000000      1.604503000000000      4.552082000000000
C       2.811943000000000      0.487306000000000      5.336135000000000
C       2.191115000000000     -0.623049000000000      4.768981000000000
C       1.849941000000000     -0.615099000000000      3.419053000000000
C       0.107489000000000      2.605956000000000      0.245131000000000
C      -0.153891000000000      3.916999000000000     -0.145808000000000
C       0.898068000000000      4.775569000000000     -0.455030000000000
C       2.212698000000000      4.321407000000000     -0.374564000000000
C       2.476445000000000      3.010082000000000      0.011693000000000
H       4.503680000000000     -0.150962000000000      1.886901000000000
H       6.624099000000000     -0.667893000000000      0.720053000000000
C       7.055132000000000     -0.756519000000000     -1.958246000000000
H       4.646673000000000     -0.295841000000000     -3.069024000000000
H       2.515258000000000      0.203435000000000     -1.910775000000000
H       2.978614000000000      2.485709000000000      2.593508000000000
H       3.568596000000000      2.474268000000000      4.994204000000000
H       3.071523000000000      0.485412000000000      6.390217000000000
H       1.964243000000000     -1.491995000000000      5.378749000000000
H       1.345408000000000     -1.468714000000000      2.970378000000000
H      -0.712605000000000      1.932018000000000      0.477047000000000
H      -1.181311000000000      4.260543000000000     -0.219229000000000
H       0.693895000000000      5.795737000000000     -0.765009000000000
H       3.035706000000000      4.985322000000000     -0.620169000000000
H       3.504514000000000      2.659901000000000      0.054900000000000
P      -2.244417000000000     -1.438980000000000     -0.020740000000000
C      -3.020071000000000      0.175935000000000     -0.442998000000000
C      -3.254312000000000     -2.055565000000000      1.381309000000000
C      -2.779087000000000     -2.524934000000000     -1.402164000000000
C      -2.493667000000000      0.878939000000000     -1.536479000000000
C      -2.944830000000000      2.156153000000000     -1.836823000000000
C      -3.922118000000000      2.746317000000000     -1.034300000000000
C      -4.456547000000000      2.058857000000000      0.048871000000000
C      -4.008714000000000      0.771411000000000      0.340783000000000
C      -4.535036000000000     -2.586372000000000      1.184898000000000
C      -5.291201000000000     -3.013579000000000      2.271592000000000
C      -4.773924000000000     -2.919666000000000      3.562796000000000
C      -3.498993000000000     -2.399107000000000      3.764394000000000
C      -2.739035000000000     -1.969666000000000      2.678173000000000
C      -3.819983000000000     -2.202795000000000     -2.278633000000000
C      -4.180984000000000     -3.086326000000000     -3.294037000000000
C      -3.511471000000000     -4.298481000000000     -3.437710000000000
C      -2.476195000000000     -4.628157000000000     -2.565123000000000
C      -2.108493000000000     -3.743212000000000     -1.557085000000000
H      -1.708114000000000      0.427109000000000     -2.137650000000000
H      -2.533705000000000      2.700844000000000     -2.680815000000000
C      -4.344616000000000      4.158486000000000     -1.313802000000000
H      -5.220859000000000      2.524683000000000      0.661722000000000
H      -4.423773000000000      0.240212000000000      1.191652000000000
H      -4.939859000000000     -2.669245000000000      0.179783000000000
H      -6.283144000000000     -3.423804000000000      2.110169000000000
H      -5.364048000000000     -3.257039000000000      4.409246000000000
H      -3.090656000000000     -2.329519000000000      4.767713000000000
H      -1.742760000000000     -1.562149000000000      2.825782000000000
H      -4.349151000000000     -1.259793000000000     -2.171830000000000
H      -4.986380000000000     -2.824799000000000     -3.973266000000000
H      -3.792420000000000     -4.983618000000000     -4.231325000000000
H      -1.947405000000000     -5.569422000000000     -2.676011000000000
H      -1.291280000000000     -3.994947000000000     -0.884800000000000
Rh     -0.026300000000000     -0.965674000000000      0.292633000000000
C       0.782820000000000     -2.036787000000000     -1.061252000000000
O       1.278945000000000     -2.689141000000000     -1.863999000000000
H      -0.693926000000000     -0.071405000000000      1.490254000000000
F       6.870358000000000     -1.514122000000000     -3.049016000000000
F       7.950121000000000     -1.377281000000000     -1.177662000000000
F       7.620994000000000      0.388236000000000     -2.373780000000000
F      -5.562735000000000      4.425912000000000     -0.826103000000000
F      -4.362785000000000      4.421065000000000     -2.627695000000000
F      -3.498373000000000      5.045817000000000     -0.755331000000000
