78

P       2.249576000000000      0.059896000000000      0.149399000000000
C       2.767188000000000     -1.332973000000000     -0.926718000000000
C       3.437616000000000     -0.014358000000000      1.550885000000000
C       2.835357000000000      1.550972000000000     -0.760601000000000
C       1.969029000000000     -2.480002000000000     -0.920193000000000
C       2.280916000000000     -3.587417000000000     -1.710605000000000
C       3.416882000000000     -3.523328000000000     -2.520827000000000
C       4.220466000000000     -2.385902000000000     -2.537149000000000
C       3.899876000000000     -1.287708000000000     -1.743373000000000
C       3.256306000000000      0.906630000000000      2.590814000000000
C       4.116300000000000      0.918494000000000      3.682402000000000
C       5.161116000000000     -0.002402000000000      3.756459000000000
C       5.341386000000000     -0.927399000000000      2.733554000000000
C       4.486490000000000     -0.932791000000000      1.631065000000000
C       4.118943000000000      2.076655000000000     -0.574392000000000
C       4.536390000000000      3.192133000000000     -1.297281000000000
C       3.677785000000000      3.794313000000000     -2.212818000000000
C       2.397756000000000      3.278265000000000     -2.402715000000000
C       1.974740000000000      2.167291000000000     -1.677792000000000
H       1.073339000000000     -2.493229000000000     -0.299210000000000
C       1.409665000000000     -4.817524000000000     -1.678977000000000
H       3.668593000000000     -4.370545000000000     -3.154076000000000
H       5.094333000000000     -2.350612000000000     -3.180550000000000
H       4.519220000000000     -0.394954000000000     -1.769842000000000
H       2.433832000000000      1.617574000000000      2.540322000000000
H       3.965395000000000      1.638630000000000      4.480394000000000
H       5.827997000000000     -0.000523000000000      4.612999000000000
H       6.150043000000000     -1.649696000000000      2.788598000000000
H       4.638714000000000     -1.655905000000000      0.835555000000000
H       4.795329000000000      1.616868000000000      0.140891000000000
H       5.534114000000000      3.590703000000000     -1.141284000000000
H       4.003625000000000      4.664922000000000     -2.773608000000000
H       1.721608000000000      3.743259000000000     -3.114142000000000
H       0.972795000000000      1.770548000000000     -1.817006000000000
P      -2.249668000000000     -0.060069000000000      0.149323000000000
C      -2.766899000000000      1.332951000000000     -0.926794000000000
C      -3.437688000000000      0.014420000000000      1.550810000000000
C      -2.835813000000000     -1.550970000000000     -0.760708000000000
C      -1.968297000000000      2.479693000000000     -0.920374000000000
C      -2.279792000000000      3.587166000000000     -1.710829000000000
C      -3.415849000000000      3.523473000000000     -2.520983000000000
C      -4.219873000000000      2.386373000000000     -2.537177000000000
C      -3.899650000000000      1.288084000000000     -1.743355000000000
C      -3.256807000000000     -0.906894000000000      2.590524000000000
C      -4.116756000000000     -0.918560000000000      3.682146000000000
C      -5.161097000000000      0.002856000000000      3.756455000000000
C      -5.340935000000000      0.928175000000000      2.733766000000000
C      -4.486082000000000      0.933378000000000      1.631241000000000
C      -1.975232000000000     -2.167682000000000     -1.677653000000000
C      -2.398542000000000     -3.278507000000000     -2.402641000000000
C      -3.678834000000000     -3.793997000000000     -2.213046000000000
C      -4.537414000000000     -3.191425000000000     -1.297734000000000
C      -4.119670000000000     -2.076108000000000     -0.574783000000000
H      -1.072561000000000      2.492597000000000     -0.299451000000000
C      -1.408070000000000      4.816944000000000     -1.679370000000000
H      -3.667250000000000      4.370754000000000     -3.154270000000000
H      -5.093796000000000      2.351365000000000     -3.180516000000000
H      -4.519346000000000      0.395573000000000     -1.769755000000000
H      -2.434698000000000     -1.618249000000000      2.539841000000000
H      -3.966187000000000     -1.638953000000000      4.479970000000000
H      -5.827945000000000      0.001122000000000      4.613021000000000
H      -6.149221000000000      1.650873000000000      2.789006000000000
H      -4.637970000000000      1.656745000000000      0.835898000000000
H      -0.973089000000000     -1.771356000000000     -1.816634000000000
H      -1.722421000000000     -3.743814000000000     -3.113885000000000
H      -4.004912000000000     -4.664484000000000     -2.773887000000000
H      -5.535343000000000     -3.589574000000000     -1.141972000000000
H      -4.796018000000000     -1.616014000000000      0.140342000000000
Rh     -0.000053000000000     -0.000201000000000      0.587324000000000
C      -0.000242000000000     -0.000217000000000      2.492122000000000
O      -0.000442000000000     -0.000277000000000      3.639699000000000
H       0.000006000000000     -0.000384000000000     -1.048232000000000
H       1.757472000000000     -5.524451000000000     -0.917557000000000
H       1.421522000000000     -5.337221000000000     -2.641325000000000
H       0.374089000000000     -4.558608000000000     -1.438774000000000
H      -0.372659000000000      4.557714000000000     -1.438783000000000
H      -1.755834000000000      5.524270000000000     -0.918299000000000
H      -1.419453000000000      5.336314000000000     -2.641902000000000
