80

P       2.266148000000000     -0.497614000000000      0.056640000000000
C       2.367245000000000      1.338707000000000      0.093929000000000
C       3.430771000000000     -0.941707000000000     -1.295163000000000
C       3.204412000000000     -1.026236000000000      1.546568000000000
C       1.487832000000000      2.038737000000000     -0.738039000000000
C       1.499923000000000      3.435498000000000     -0.798016000000000
C       2.426653000000000      4.124724000000000     -0.004541000000000
C       3.298459000000000      3.439498000000000      0.833013000000000
C       3.274226000000000      2.046038000000000      0.886995000000000
C       4.288584000000000     -0.023832000000000     -1.906769000000000
C       5.150741000000000     -0.438569000000000     -2.921254000000000
C       5.167047000000000     -1.769614000000000     -3.326632000000000
C       4.314366000000000     -2.690746000000000     -2.719757000000000
C       3.447089000000000     -2.276984000000000     -1.715095000000000
C       2.503321000000000     -1.341693000000000      2.715050000000000
C       3.189961000000000     -1.714789000000000      3.868120000000000
C       4.580363000000000     -1.784022000000000      3.863250000000000
C       5.285633000000000     -1.480658000000000      2.700528000000000
C       4.602526000000000     -1.106214000000000      1.546876000000000
H       0.783601000000000      1.476946000000000     -1.348713000000000
C       0.565311000000000      4.192363000000000     -1.651217000000000
H       2.443672000000000      5.211303000000000     -0.035527000000000
H       4.002513000000000      3.990112000000000      1.449354000000000
H       3.958690000000000      1.515518000000000      1.542367000000000
H       4.284096000000000      1.016350000000000     -1.593669000000000
H       5.809664000000000      0.282952000000000     -3.394429000000000
H       5.837969000000000     -2.089231000000000     -4.117895000000000
H       4.317340000000000     -3.728827000000000     -3.036785000000000
H       2.770660000000000     -2.992531000000000     -1.251682000000000
H       1.418146000000000     -1.295853000000000      2.709361000000000
H       2.635001000000000     -1.958590000000000      4.768743000000000
H       5.114320000000000     -2.080029000000000      4.761025000000000
H       6.369602000000000     -1.539466000000000      2.689182000000000
H       5.158749000000000     -0.877477000000000      0.641739000000000
P      -2.187253000000000     -0.621554000000000      0.073626000000000
C      -2.517425000000000      1.193284000000000      0.131368000000000
C      -2.980428000000000     -1.248173000000000      1.601714000000000
C      -3.335316000000000     -1.169053000000000     -1.255112000000000
C      -1.609732000000000      2.021939000000000      0.801284000000000
C      -1.799328000000000      3.404683000000000      0.876861000000000
C      -2.940348000000000      3.957130000000000      0.278700000000000
C      -3.847846000000000      3.145831000000000     -0.387752000000000
C      -3.641646000000000      1.767739000000000     -0.469506000000000
C      -4.138171000000000     -0.677983000000000      2.140358000000000
C      -4.713260000000000     -1.215326000000000      3.288561000000000
C      -4.137739000000000     -2.325703000000000      3.904270000000000
C      -2.982778000000000     -2.895427000000000      3.374677000000000
C      -2.402233000000000     -2.354764000000000      2.229915000000000
C      -4.489574000000000     -1.919555000000000     -1.023386000000000
C      -5.296725000000000     -2.314311000000000     -2.090877000000000
C      -4.964156000000000     -1.955445000000000     -3.392515000000000
C      -3.813902000000000     -1.203363000000000     -3.631620000000000
C      -3.002021000000000     -0.820915000000000     -2.571090000000000
H      -0.723049000000000      1.582298000000000      1.250406000000000
C      -0.773013000000000      4.222670000000000      1.545352000000000
H      -3.118818000000000      5.026464000000000      0.339514000000000
H      -4.727814000000000      3.584200000000000     -0.848584000000000
H      -4.358279000000000      1.146426000000000     -0.998549000000000
H      -4.586094000000000      0.190532000000000      1.663642000000000
H      -5.608865000000000     -0.764972000000000      3.705167000000000
H      -4.587026000000000     -2.741604000000000      4.800831000000000
H      -2.527823000000000     -3.754918000000000      3.857054000000000
H      -1.486771000000000     -2.776620000000000      1.819902000000000
H      -4.762137000000000     -2.201853000000000     -0.011099000000000
H      -6.188123000000000     -2.903605000000000     -1.899162000000000
H      -5.594369000000000     -2.263771000000000     -4.220794000000000
H      -3.544328000000000     -0.924348000000000     -4.645367000000000
H      -2.098749000000000     -0.243524000000000     -2.760618000000000
Rh      0.049103000000000     -1.042869000000000     -0.162813000000000
C       0.075983000000000     -1.924634000000000     -1.853071000000000
O       0.096584000000000     -2.489430000000000     -2.851495000000000
H       0.028172000000000     -0.366408000000000      1.324601000000000
C      -0.583198000000000      3.731042000000000     -2.148976000000000
H       0.851481000000000      5.224320000000000     -1.850377000000000
H      -0.947325000000000      2.727004000000000     -1.941078000000000
H      -1.216809000000000      4.360392000000000     -2.764957000000000
C      -0.638766000000000      5.546227000000000      1.446513000000000
H      -0.047133000000000      3.662176000000000      2.133565000000000
H      -1.302495000000000      6.155464000000000      0.839730000000000
H       0.159555000000000      6.064900000000000      1.966600000000000
