76

P       2.252400000000000     -0.374689000000000      0.027560000000000
C       3.398921000000000      1.066414000000000     -0.040447000000000
C       2.889313000000000     -1.466572000000000     -1.299396000000000
C       2.789000000000000     -1.197231000000000      1.582925000000000
C       4.439708000000000      1.181228000000000     -0.969663000000000
C       5.249422000000000      2.311522000000000     -0.976525000000000
C       5.030000000000000      3.333056000000000     -0.052118000000000
C       3.993664000000000      3.224459000000000      0.877402000000000
C       3.178822000000000      2.100590000000000      0.878980000000000
C       2.205554000000000     -1.473035000000000     -2.519427000000000
C       2.667337000000000     -2.249563000000000     -3.578952000000000
C       3.808333000000000     -3.033014000000000     -3.422302000000000
C       4.488051000000000     -3.038192000000000     -2.206019000000000
C       4.032381000000000     -2.256649000000000     -1.147362000000000
C       4.058382000000000     -0.986811000000000      2.134944000000000
C       4.435571000000000     -1.643862000000000      3.303429000000000
C       3.549552000000000     -2.514446000000000      3.933418000000000
C       2.284501000000000     -2.727028000000000      3.391347000000000
C       1.902723000000000     -2.070518000000000      2.224397000000000
H       4.617068000000000      0.386995000000000     -1.688068000000000
H       6.060081000000000      2.420819000000000     -1.690431000000000
C       5.896584000000000      4.536507000000000     -0.058025000000000
H       3.822846000000000      4.025763000000000      1.592511000000000
H       2.364236000000000      2.019132000000000      1.595650000000000
H       1.303965000000000     -0.872251000000000     -2.624577000000000
H       2.131651000000000     -2.247998000000000     -4.523121000000000
H       4.165500000000000     -3.643860000000000     -4.245574000000000
H       5.373284000000000     -3.653517000000000     -2.079521000000000
H       4.563496000000000     -2.267413000000000     -0.199313000000000
H       4.754833000000000     -0.304718000000000      1.654750000000000
H       5.422025000000000     -1.471526000000000      3.722481000000000
H       3.843792000000000     -3.022222000000000      4.846709000000000
H       1.586955000000000     -3.400894000000000      3.879388000000000
H       0.913346000000000     -2.227788000000000      1.804539000000000
P      -2.255249000000000     -0.369909000000000     -0.096240000000000
C      -3.393857000000000      1.076889000000000     -0.024268000000000
C      -2.763276000000000     -1.364084000000000      1.358823000000000
C      -2.931748000000000     -1.296598000000000     -1.532333000000000
C      -3.238758000000000      2.060417000000000     -1.009844000000000
C      -4.055929000000000      3.182775000000000     -1.013735000000000
C      -5.028811000000000      3.340323000000000     -0.024640000000000
C      -5.183111000000000      2.369244000000000      0.965273000000000
C      -4.371430000000000      1.240503000000000      0.964650000000000
C      -1.993668000000000     -1.249907000000000      2.521885000000000
C      -2.344726000000000     -1.955905000000000      3.669142000000000
C      -3.461946000000000     -2.788280000000000      3.659834000000000
C      -4.228039000000000     -2.911494000000000      2.502866000000000
C      -3.882271000000000     -2.201330000000000      1.355431000000000
C      -2.101578000000000     -2.204835000000000     -2.198896000000000
C      -2.590067000000000     -2.945271000000000     -3.272217000000000
C      -3.906365000000000     -2.780853000000000     -3.695622000000000
C      -4.736773000000000     -1.873835000000000     -3.041510000000000
C      -4.253139000000000     -1.133713000000000     -1.965827000000000
H      -2.472535000000000      1.941334000000000     -1.773037000000000
H      -3.935756000000000      3.945151000000000     -1.779912000000000
C      -5.897222000000000      4.542529000000000     -0.024802000000000
H      -5.945361000000000      2.516253000000000      1.724318000000000
H      -4.497481000000000      0.485239000000000      1.734234000000000
H      -1.111593000000000     -0.611981000000000      2.513673000000000
H      -1.741232000000000     -1.860813000000000      4.566628000000000
H      -3.733137000000000     -3.344568000000000      4.551722000000000
H      -5.095299000000000     -3.564213000000000      2.491071000000000
H      -4.480249000000000     -2.306032000000000      0.454197000000000
H      -1.072679000000000     -2.322809000000000     -1.871061000000000
H      -1.936656000000000     -3.646772000000000     -3.781606000000000
H      -4.284014000000000     -3.354317000000000     -4.536455000000000
H      -5.762593000000000     -1.738378000000000     -3.369685000000000
H      -4.907149000000000     -0.424960000000000     -1.464883000000000
Rh      0.001507000000000      0.034665000000000     -0.110547000000000
C       0.003492000000000      1.940667000000000     -0.159448000000000
O       0.003863000000000      3.087246000000000     -0.196054000000000
H       0.000382000000000     -1.601189000000000     -0.084631000000000
O       6.819240000000000      4.703176000000000     -0.820130000000000
H       5.642009000000000      5.301786000000000      0.704873000000000
O      -6.766698000000000      4.750167000000000      0.788065000000000
H      -5.697625000000000      5.265499000000000     -0.843288000000000
