72

P       2.263079000000000     -0.543842000000000     -0.101953000000000
C       2.368612000000000      1.292693000000000     -0.019388000000000
C       3.193426000000000     -0.964805000000000     -1.629141000000000
C       3.430666000000000     -1.074343000000000      1.214791000000000
C       1.465862000000000      1.939953000000000      0.833236000000000
C       1.502420000000000      3.322831000000000      0.945881000000000
C       2.408926000000000      4.085482000000000      0.214258000000000
C       3.297273000000000      3.437012000000000     -0.636326000000000
C       3.284535000000000      2.047244000000000     -0.753986000000000
C       2.485853000000000     -1.149229000000000     -2.821797000000000
C       3.164129000000000     -1.436621000000000     -4.003567000000000
C       4.551738000000000     -1.551426000000000     -4.003895000000000
C       5.262441000000000     -1.378657000000000     -2.818146000000000
C       4.588101000000000     -1.088590000000000     -1.635235000000000
C       4.290788000000000     -0.198795000000000      1.882668000000000
C       5.153426000000000     -0.678588000000000      2.867499000000000
C       5.168694000000000     -2.032953000000000      3.186368000000000
C       4.315206000000000     -2.912462000000000      2.521726000000000
C       3.447101000000000     -2.434253000000000      1.546845000000000
H       0.728761000000000      1.364561000000000      1.388883000000000
Cl      0.376618000000000      4.118433000000000      2.012891000000000
H       2.403770000000000      5.165938000000000      0.306368000000000
H       4.003891000000000      4.021352000000000     -1.216991000000000
H       3.981619000000000      1.555091000000000     -1.425482000000000
H       1.402625000000000     -1.068967000000000     -2.812724000000000
H       2.605059000000000     -1.577861000000000     -4.923279000000000
H       5.078993000000000     -1.781343000000000     -4.924616000000000
H       6.343866000000000     -1.473470000000000     -2.811727000000000
H       5.148417000000000     -0.960804000000000     -0.713005000000000
H       4.288751000000000      0.859309000000000      1.637365000000000
H       5.813292000000000      0.010593000000000      3.385304000000000
H       5.839594000000000     -2.403230000000000      3.955179000000000
H       4.317869000000000     -3.968872000000000      2.770788000000000
H       2.771034000000000     -3.118913000000000      1.038652000000000
P      -2.191915000000000     -0.649724000000000     -0.063467000000000
C      -2.521832000000000      1.165952000000000      0.044749000000000
C      -3.313211000000000     -1.313712000000000      1.233806000000000
C      -3.023375000000000     -1.118326000000000     -1.627215000000000
C      -1.662647000000000      2.038918000000000     -0.634041000000000
C      -1.908067000000000      3.405031000000000     -0.598189000000000
C      -2.978454000000000      3.935286000000000      0.115542000000000
C      -3.824765000000000      3.064870000000000      0.792530000000000
C      -3.605479000000000      1.688683000000000      0.757249000000000
C      -4.476973000000000     -2.034127000000000      0.957667000000000
C      -5.262706000000000     -2.525129000000000      2.000848000000000
C      -4.899387000000000     -2.292356000000000      3.322772000000000
C      -3.739486000000000     -1.571270000000000      3.606260000000000
C      -2.948089000000000     -1.093623000000000      2.568860000000000
C      -2.456279000000000     -2.140139000000000     -2.393458000000000
C      -3.069275000000000     -2.554653000000000     -3.573752000000000
C      -4.245499000000000     -1.942930000000000     -3.999086000000000
C      -4.810770000000000     -0.916381000000000     -3.244003000000000
C      -4.203010000000000     -0.505120000000000     -2.061579000000000
H      -0.806744000000000      1.653520000000000     -1.179211000000000
Cl     -0.839586000000000      4.482037000000000     -1.458346000000000
H      -3.135526000000000      5.007905000000000      0.139474000000000
H      -4.664147000000000      3.462604000000000      1.354022000000000
H      -4.279212000000000      1.024894000000000      1.289871000000000
H      -4.773488000000000     -2.218371000000000     -0.070251000000000
H      -6.161611000000000     -3.090015000000000      1.774183000000000
H      -5.513426000000000     -2.674678000000000      4.132126000000000
H      -3.446394000000000     -1.389975000000000      4.635458000000000
H      -2.038291000000000     -0.539521000000000      2.792504000000000
H      -1.525029000000000     -2.595221000000000     -2.062185000000000
H      -2.622980000000000     -3.348620000000000     -4.164281000000000
H      -4.719680000000000     -2.260472000000000     -4.922610000000000
H      -5.723307000000000     -0.433040000000000     -3.578669000000000
H      -4.643020000000000      0.298240000000000     -1.475742000000000
Rh      0.045906000000000     -1.097076000000000      0.088909000000000
C       0.088959000000000     -2.142878000000000      1.684866000000000
O       0.117682000000000     -2.802378000000000      2.622645000000000
H       0.007998000000000     -0.273227000000000     -1.321143000000000
