74

P       2.214245000000000     -0.209540000000000      0.112461000000000
C       2.276404000000000      0.686029000000000     -1.504639000000000
C       3.230451000000000     -1.706383000000000     -0.192860000000000
C       3.345107000000000      0.801456000000000      1.152466000000000
C       1.655957000000000      1.946143000000000     -1.633465000000000
C       1.620166000000000      2.610872000000000     -2.862503000000000
C       2.187415000000000      2.024051000000000     -3.988162000000000
C       2.788320000000000      0.774466000000000     -3.879049000000000
C       2.835219000000000      0.117266000000000     -2.649666000000000
C       4.613730000000000     -1.641015000000000     -0.401381000000000
C       5.343618000000000     -2.803442000000000     -0.623252000000000
C       4.699665000000000     -4.041175000000000     -0.626411000000000
C       3.328169000000000     -4.113594000000000     -0.404378000000000
C       2.592256000000000     -2.949495000000000     -0.186519000000000
C       3.346654000000000      0.539096000000000      2.526689000000000
C       4.195512000000000      1.238267000000000      3.377790000000000
C       5.044918000000000      2.216965000000000      2.865731000000000
C       5.048233000000000      2.486105000000000      1.500313000000000
C       4.205439000000000      1.779270000000000      0.644956000000000
C       1.012105000000000      2.598527000000000     -0.518712000000000
H       1.128157000000000      3.575868000000000     -2.924812000000000
H       2.152512000000000      2.538361000000000     -4.942884000000000
H       3.227950000000000      0.303561000000000     -4.752716000000000
H       3.306793000000000     -0.857647000000000     -2.584886000000000
H       5.118780000000000     -0.678053000000000     -0.384269000000000
H       6.415535000000000     -2.746275000000000     -0.785297000000000
H       5.272299000000000     -4.948523000000000     -0.792681000000000
H       2.827105000000000     -5.076298000000000     -0.390820000000000
H       1.522772000000000     -2.996932000000000      0.003453000000000
H       2.676362000000000     -0.216769000000000      2.929625000000000
H       4.185259000000000      1.026119000000000      4.442113000000000
H       5.699390000000000      2.771546000000000      3.530824000000000
H       5.706316000000000      3.249352000000000      1.096705000000000
H       4.220377000000000      1.995590000000000     -0.419877000000000
P      -2.141817000000000     -0.095101000000000      0.080297000000000
C      -3.134166000000000     -1.605839000000000     -0.305278000000000
C      -2.355776000000000      0.901918000000000     -1.456187000000000
C      -3.226470000000000      0.798963000000000      1.263236000000000
C      -2.762314000000000     -2.848436000000000      0.238881000000000
C      -3.515104000000000     -4.000632000000000     -0.022428000000000
C      -4.639504000000000     -3.926531000000000     -0.833179000000000
C      -5.014380000000000     -2.703496000000000     -1.384336000000000
C      -4.267428000000000     -1.558994000000000     -1.120683000000000
C      -3.418187000000000      1.800373000000000     -1.614617000000000
C      -3.556951000000000      2.527430000000000     -2.794321000000000
C      -2.638467000000000      2.365552000000000     -3.828670000000000
C      -1.577730000000000      1.476369000000000     -3.677313000000000
C      -1.431640000000000      0.752930000000000     -2.496250000000000
C      -4.429373000000000      0.295091000000000      1.761533000000000
C      -5.167668000000000      1.031734000000000      2.688235000000000
C      -4.715687000000000      2.276240000000000      3.113205000000000
C      -3.516301000000000      2.785969000000000      2.615610000000000
C      -2.770300000000000      2.050567000000000      1.702506000000000
C      -1.597490000000000     -3.014475000000000      1.078127000000000
H      -3.203277000000000     -4.944781000000000      0.411236000000000
H      -5.217717000000000     -4.821396000000000     -1.037589000000000
H      -5.889435000000000     -2.639518000000000     -2.023223000000000
H      -4.564692000000000     -0.610728000000000     -1.559269000000000
H      -4.136135000000000      1.939987000000000     -0.811450000000000
H      -4.382405000000000      3.224353000000000     -2.901412000000000
H      -2.746838000000000      2.935468000000000     -4.746452000000000
H      -0.849090000000000      1.351165000000000     -4.472797000000000
H      -0.590715000000000      0.076609000000000     -2.368902000000000
H      -4.796737000000000     -0.673122000000000      1.434661000000000
H      -6.097932000000000      0.627651000000000      3.075474000000000
H      -5.292174000000000      2.847458000000000      3.834141000000000
H      -3.154051000000000      3.754073000000000      2.946494000000000
H      -1.829060000000000      2.449166000000000      1.325476000000000
Rh      0.030337000000000     -0.446595000000000      0.668084000000000
C       0.029951000000000      0.482792000000000      2.351808000000000
O       0.035100000000000      1.042912000000000      3.349862000000000
H       0.037454000000000     -1.207581000000000     -0.775551000000000
N       0.484234000000000      3.179197000000000      0.332562000000000
N      -0.693567000000000     -3.269369000000000      1.757398000000000
