74

P       2.133290000000000     -0.535935000000000      0.198664000000000
C       3.561422000000000      0.296257000000000     -0.617205000000000
C       2.309572000000000     -2.274875000000000     -0.350198000000000
C       2.678471000000000     -0.556014000000000      1.954793000000000
C       4.441986000000000     -0.355107000000000     -1.483903000000000
C       5.480850000000000      0.345264000000000     -2.090469000000000
C       5.648656000000000      1.705878000000000     -1.825136000000000
C       4.771174000000000      2.369154000000000     -0.957515000000000
C       3.733637000000000      1.664948000000000     -0.367243000000000
C       1.469637000000000     -2.721786000000000     -1.375415000000000
C       1.587485000000000     -4.020740000000000     -1.863079000000000
C       2.536976000000000     -4.884067000000000     -1.321449000000000
C       3.369879000000000     -4.447402000000000     -0.293154000000000
C       3.259171000000000     -3.146560000000000      0.190992000000000
C       4.027442000000000     -0.455354000000000      2.316466000000000
C       4.401714000000000     -0.495694000000000      3.657114000000000
C       3.434163000000000     -0.634078000000000      4.649363000000000
C       2.090356000000000     -0.732245000000000      4.297476000000000
C       1.711786000000000     -0.690172000000000      2.958361000000000
H       4.321764000000000     -1.413884000000000     -1.690290000000000
H       6.164012000000000     -0.158127000000000     -2.766129000000000
C       6.727043000000000      2.429522000000000     -2.445488000000000
H       4.905531000000000      3.427348000000000     -0.761527000000000
H       3.044739000000000      2.180979000000000      0.298127000000000
H       0.717614000000000     -2.045134000000000     -1.777212000000000
H       0.932683000000000     -4.360182000000000     -2.659525000000000
H       2.624520000000000     -5.899166000000000     -1.695941000000000
H       4.104776000000000     -5.121349000000000      0.135689000000000
H       3.907067000000000     -2.812263000000000      0.996920000000000
H       4.790234000000000     -0.340479000000000      1.551031000000000
H       5.450533000000000     -0.415194000000000      3.925006000000000
H       3.727524000000000     -0.660928000000000      5.694149000000000
H       1.330357000000000     -0.835836000000000      5.065883000000000
H       0.663539000000000     -0.757751000000000      2.681969000000000
P      -2.213146000000000      0.667367000000000      0.073876000000000
C      -3.287243000000000     -0.664275000000000     -0.618369000000000
C      -2.975887000000000      2.172537000000000     -0.652227000000000
C      -2.722456000000000      0.733984000000000      1.834549000000000
C      -4.543651000000000     -0.392030000000000     -1.172661000000000
C      -5.338063000000000     -1.421691000000000     -1.663416000000000
C      -4.877568000000000     -2.740208000000000     -1.602905000000000
C      -3.622748000000000     -3.023529000000000     -1.053588000000000
C      -2.833310000000000     -1.988206000000000     -0.570331000000000
C      -2.695660000000000      2.446819000000000     -1.997043000000000
C      -3.246421000000000      3.560803000000000     -2.619560000000000
C      -4.072207000000000      4.423650000000000     -1.899584000000000
C      -4.347234000000000      4.163423000000000     -0.560980000000000
C      -3.805864000000000      3.039279000000000      0.062467000000000
C      -1.780866000000000      1.187286000000000      2.764912000000000
C      -2.114709000000000      1.282461000000000      4.113013000000000
C      -3.388565000000000      0.916930000000000      4.542541000000000
C      -4.329032000000000      0.460006000000000      3.621939000000000
C      -3.999233000000000      0.369823000000000      2.271642000000000
H      -4.906114000000000      0.630282000000000     -1.224843000000000
H      -6.311209000000000     -1.211292000000000     -2.093902000000000
C      -5.696106000000000     -3.809017000000000     -2.112490000000000
H      -3.271428000000000     -4.049105000000000     -1.015531000000000
H      -1.851786000000000     -2.198751000000000     -0.156144000000000
H      -2.041736000000000      1.780908000000000     -2.556830000000000
H      -3.023020000000000      3.761822000000000     -3.662415000000000
H      -4.494967000000000      5.299396000000000     -2.381693000000000
H      -4.985529000000000      4.835015000000000      0.004578000000000
H      -4.029941000000000      2.842644000000000      1.106535000000000
H      -0.782060000000000      1.452059000000000      2.422804000000000
H      -1.376982000000000      1.634676000000000      4.827435000000000
H      -3.647646000000000      0.983210000000000      5.594623000000000
H      -5.320431000000000      0.169144000000000      3.954667000000000
H      -4.736795000000000      0.009301000000000      1.559411000000000
Rh      0.048282000000000      0.346230000000000     -0.147088000000000
C       0.506043000000000      1.877019000000000     -1.190952000000000
O       0.791197000000000      2.793837000000000     -1.817544000000000
H      -0.330076000000000     -0.971833000000000      0.744924000000000
N       7.596666000000000      3.009699000000000     -2.941316000000000
N      -6.354303000000000     -4.668272000000000     -2.521276000000000
