78

P       2.214949000000000      0.370037000000000     -0.076473000000000
C       3.473393000000000     -0.877732000000000     -0.645287000000000
C       2.560566000000000      0.452142000000000      1.728216000000000
C       2.922228000000000      1.936646000000000     -0.729126000000000
C       3.234384000000000     -2.263464000000000     -0.543448000000000
C       4.135962000000000     -3.186210000000000     -1.075316000000000
C       5.308200000000000     -2.755808000000000     -1.685501000000000
C       5.561805000000000     -1.393106000000000     -1.786264000000000
C       4.648789000000000     -0.467871000000000     -1.283068000000000
C       1.526210000000000      0.761508000000000      2.615564000000000
C       1.771394000000000      0.834909000000000      3.984319000000000
C       3.049612000000000      0.595986000000000      4.481384000000000
C       4.083494000000000      0.276411000000000      3.604197000000000
C       3.839697000000000      0.199218000000000      2.235582000000000
C       2.482002000000000      2.352096000000000     -1.991451000000000
C       2.983906000000000      3.514852000000000     -2.567241000000000
C       3.919126000000000      4.285531000000000     -1.879242000000000
C       4.348354000000000      3.889050000000000     -0.615630000000000
C       3.854680000000000      2.718606000000000     -0.042041000000000
C       2.007397000000000     -2.790014000000000      0.119554000000000
H       3.906224000000000     -4.243727000000000     -1.002173000000000
H       6.010589000000000     -3.479106000000000     -2.086193000000000
H       6.468872000000000     -1.040070000000000     -2.267045000000000
H       4.857913000000000      0.590703000000000     -1.394770000000000
H       0.523989000000000      0.928045000000000      2.232283000000000
H       0.954002000000000      1.069681000000000      4.659609000000000
H       3.239369000000000      0.649279000000000      5.549032000000000
H       5.080836000000000      0.078866000000000      3.985052000000000
H       4.650158000000000     -0.065021000000000      1.560788000000000
H       1.729208000000000      1.761689000000000     -2.510003000000000
H       2.635445000000000      3.825928000000000     -3.547181000000000
H       4.305026000000000      5.197930000000000     -2.323303000000000
H       5.067938000000000      4.492365000000000     -0.070760000000000
H       4.192540000000000      2.420573000000000      0.945854000000000
P      -2.247579000000000      0.304021000000000     -0.132643000000000
C      -3.378990000000000     -1.143983000000000     -0.443404000000000
C      -3.092748000000000      1.668086000000000     -1.026597000000000
C      -2.622313000000000      0.725371000000000      1.622243000000000
C      -2.984691000000000     -2.475805000000000     -0.194705000000000
C      -3.807424000000000     -3.544730000000000     -0.551975000000000
C      -5.052329000000000     -3.319485000000000     -1.125401000000000
C      -5.461317000000000     -2.012762000000000     -1.364025000000000
C      -4.629658000000000     -0.943525000000000     -1.037120000000000
C      -2.613253000000000      2.002723000000000     -2.296769000000000
C      -3.218638000000000      3.017642000000000     -3.033437000000000
C      -4.299909000000000      3.714792000000000     -2.500684000000000
C      -4.775453000000000      3.396225000000000     -1.229956000000000
C      -4.175282000000000      2.377659000000000     -0.494749000000000
C      -3.431029000000000     -0.071605000000000      2.434082000000000
C      -3.683204000000000      0.294522000000000      3.755419000000000
C      -3.139168000000000      1.464434000000000      4.275024000000000
C      -2.339662000000000      2.271865000000000      3.466903000000000
C      -2.079734000000000      1.902938000000000      2.151321000000000
C      -1.669582000000000     -2.848374000000000      0.405776000000000
H      -3.447214000000000     -4.552163000000000     -0.371572000000000
H      -5.690625000000000     -4.155770000000000     -1.390450000000000
H      -6.427480000000000     -1.816411000000000     -1.818383000000000
H      -4.962279000000000      0.063444000000000     -1.262261000000000
H      -1.751143000000000      1.470798000000000     -2.693685000000000
H      -2.838179000000000      3.270594000000000     -4.018089000000000
H      -4.767412000000000      4.511611000000000     -3.070863000000000
H      -5.612912000000000      3.943756000000000     -0.808750000000000
H      -4.547306000000000      2.133037000000000      0.496899000000000
H      -3.860658000000000     -0.988559000000000      2.043165000000000
H      -4.306756000000000     -0.340319000000000      4.377233000000000
H      -3.336108000000000      1.747539000000000      5.304380000000000
H      -1.912872000000000      3.188840000000000      3.861650000000000
H      -1.444997000000000      2.527678000000000      1.528095000000000
Rh     -0.005416000000000      0.099713000000000     -0.610184000000000
C       0.017587000000000     -1.322215000000000     -1.898287000000000
O       0.031687000000000     -2.040898000000000     -2.793219000000000
H      -0.009207000000000      1.486544000000000      0.226500000000000
O       1.470140000000000     -2.236137000000000      1.066808000000000
O       1.558576000000000     -3.907950000000000     -0.423197000000000
H       0.657691000000000     -4.089648000000000     -0.053678000000000
O      -1.075432000000000     -3.861572000000000      0.072312000000000
O      -1.237004000000000     -2.010382000000000      1.330423000000000
H      -0.261638000000000     -2.149694000000000      1.455444000000000
