84

P       2.085747000000000     -0.534603000000000     -0.305212000000000
C       3.342388000000000      0.748098000000000     -0.700877000000000
C       2.659137000000000     -2.008123000000000     -1.232254000000000
C       2.519876000000000     -0.983224000000000      1.431300000000000
C       3.083365000000000      2.049324000000000     -0.255054000000000
C       3.981472000000000      3.091419000000000     -0.482041000000000
C       5.155100000000000      2.814163000000000     -1.189308000000000
C       5.421801000000000      1.528607000000000     -1.646873000000000
C       4.522851000000000      0.491720000000000     -1.401354000000000
C       1.971375000000000     -2.367140000000000     -2.395005000000000
C       2.386457000000000     -3.465388000000000     -3.144868000000000
C       3.484633000000000     -4.215531000000000     -2.732283000000000
C       4.168736000000000     -3.868539000000000     -1.568265000000000
C       3.757537000000000     -2.769785000000000     -0.819428000000000
C       3.540858000000000     -0.348802000000000      2.144110000000000
C       3.838064000000000     -0.742324000000000      3.449427000000000
C       3.135542000000000     -1.783966000000000      4.045382000000000
C       2.122775000000000     -2.428634000000000      3.335286000000000
C       1.807596000000000     -2.023492000000000      2.043756000000000
H       2.158594000000000      2.254266000000000      0.284875000000000
C       3.651988000000000      4.497242000000000     -0.043477000000000
H       5.861304000000000      3.617998000000000     -1.383933000000000
H       6.336268000000000      1.327877000000000     -2.196715000000000
H       4.741654000000000     -0.508902000000000     -1.760105000000000
H       1.101349000000000     -1.786368000000000     -2.695378000000000
H       1.846310000000000     -3.739204000000000     -4.045808000000000
H       3.804509000000000     -5.075209000000000     -3.313062000000000
H       5.020293000000000     -4.456971000000000     -1.241015000000000
H       4.287403000000000     -2.503460000000000      0.092074000000000
H       4.110917000000000      0.452923000000000      1.685226000000000
H       4.627975000000000     -0.234628000000000      3.994458000000000
H       3.371157000000000     -2.091146000000000      5.059746000000000
H       1.564099000000000     -3.238130000000000      3.795126000000000
H       0.998011000000000     -2.505340000000000      1.503537000000000
P      -2.396106000000000     -0.019831000000000     -0.287170000000000
C      -2.740854000000000     -0.121005000000000      1.512459000000000
C      -3.382791000000000     -1.389279000000000     -1.015886000000000
C      -3.367083000000000      1.452500000000000     -0.810863000000000
C      -1.810248000000000      0.472091000000000      2.368689000000000
C      -1.992395000000000      0.475682000000000      3.753278000000000
C      -3.130490000000000     -0.143691000000000      4.272169000000000
C      -4.063783000000000     -0.744785000000000      3.429637000000000
C      -3.875824000000000     -0.734945000000000      2.050259000000000
C      -2.757312000000000     -2.612329000000000     -1.279705000000000
C      -3.487122000000000     -3.676184000000000     -1.804458000000000
C      -4.844184000000000     -3.527307000000000     -2.077799000000000
C      -5.472301000000000     -2.309530000000000     -1.826447000000000
C      -4.746098000000000     -1.244394000000000     -1.300948000000000
C      -3.219673000000000      1.881319000000000     -2.135772000000000
C      -3.928445000000000      2.980752000000000     -2.605685000000000
C      -4.784978000000000      3.674488000000000     -1.751493000000000
C      -4.930807000000000      3.260132000000000     -0.431523000000000
C      -4.227962000000000      2.150950000000000      0.038970000000000
H      -0.916078000000000      0.926042000000000      1.940810000000000
C      -0.945844000000000      1.097773000000000      4.647528000000000
H      -3.285084000000000     -0.158920000000000      5.348290000000000
H      -4.941232000000000     -1.226097000000000      3.850859000000000
H      -4.603258000000000     -1.208912000000000      1.397326000000000
H      -1.695853000000000     -2.718163000000000     -1.074613000000000
H      -2.990645000000000     -4.620193000000000     -2.006791000000000
H      -5.410812000000000     -4.355629000000000     -2.491985000000000
H      -6.528720000000000     -2.185558000000000     -2.043755000000000
H      -5.240801000000000     -0.294703000000000     -1.115485000000000
H      -2.540990000000000      1.348732000000000     -2.799281000000000
H      -3.804994000000000      3.302916000000000     -3.634847000000000
H      -5.332334000000000      4.538778000000000     -2.114538000000000
H      -5.593554000000000      3.799129000000000      0.238533000000000
H      -4.351288000000000      1.831815000000000      1.069747000000000
Rh     -0.121047000000000     -0.001626000000000     -0.617964000000000
C       0.058869000000000      1.691777000000000     -1.464329000000000
O       0.163807000000000      2.702170000000000     -2.000188000000000
H      -0.286372000000000     -1.485212000000000      0.053769000000000
H       3.059607000000000      4.464801000000000      0.877706000000000
H       4.576896000000000      5.036564000000000      0.190191000000000
C       2.872294000000000      5.250778000000000     -1.127412000000000
H       2.629960000000000      6.267013000000000     -0.803248000000000
H       3.459827000000000      5.314350000000000     -2.048623000000000
H       1.939656000000000      4.729468000000000     -1.362461000000000
H      -0.744521000000000      2.122560000000000      4.312800000000000
H      -1.336085000000000      1.170464000000000      5.668756000000000
C       0.361524000000000      0.297990000000000      4.644539000000000
H       0.187740000000000     -0.727347000000000      4.985125000000000
H       0.788027000000000      0.239104000000000      3.636879000000000
H       1.106807000000000      0.757176000000000      5.301135000000000
