72

P      -2.250776000000000     -0.341766000000000     -0.024158000000000
C      -2.986656000000000      1.226521000000000     -0.636164000000000
C      -2.883560000000000     -0.474429000000000      1.697403000000000
C      -3.247303000000000     -1.621337000000000     -0.890941000000000
C      -4.162729000000000      1.760779000000000     -0.106208000000000
C      -4.663874000000000      2.935605000000000     -0.646303000000000
C      -4.043023000000000      3.595392000000000     -1.696464000000000
C      -2.870790000000000      3.054917000000000     -2.218155000000000
C      -2.339540000000000      1.880741000000000     -1.690115000000000
C      -2.097278000000000      0.012493000000000      2.748006000000000
C      -2.561256000000000     -0.049471000000000      4.059309000000000
C      -3.808837000000000     -0.602951000000000      4.335895000000000
C      -4.594388000000000     -1.095122000000000      3.296332000000000
C      -4.134723000000000     -1.033997000000000      1.983265000000000
C      -4.310414000000000     -1.328746000000000     -1.747948000000000
C      -5.011996000000000     -2.359963000000000     -2.372765000000000
C      -4.663948000000000     -3.686291000000000     -2.140274000000000
C      -3.605173000000000     -3.985641000000000     -1.283226000000000
C      -2.897628000000000     -2.959478000000000     -0.668953000000000
H      -4.688412000000000      1.289593000000000      0.718641000000000
F      -5.791805000000000      3.450817000000000     -0.135234000000000
H      -4.476701000000000      4.512292000000000     -2.079519000000000
H      -2.364799000000000      3.558432000000000     -3.035718000000000
H      -1.411388000000000      1.468663000000000     -2.079895000000000
H      -1.121081000000000      0.435775000000000      2.529113000000000
H      -1.941736000000000      0.330845000000000      4.865736000000000
H      -4.167167000000000     -0.655218000000000      5.359333000000000
H      -5.566035000000000     -1.531378000000000      3.506094000000000
H      -4.750529000000000     -1.427069000000000      1.178759000000000
H      -4.594645000000000     -0.297242000000000     -1.932662000000000
H      -5.833240000000000     -2.121307000000000     -3.041427000000000
H      -5.211738000000000     -4.486478000000000     -2.627979000000000
H      -3.324818000000000     -5.018295000000000     -1.101390000000000
H      -2.064912000000000     -3.194427000000000     -0.008797000000000
P       2.224178000000000      0.247337000000000     -0.016933000000000
C       3.526599000000000     -0.848825000000000     -0.720354000000000
C       2.725967000000000      0.397484000000000      1.740597000000000
C       2.677143000000000      1.871182000000000     -0.752348000000000
C       4.592742000000000     -1.344461000000000      0.030875000000000
C       5.516765000000000     -2.176525000000000     -0.587681000000000
C       5.426497000000000     -2.526025000000000     -1.924656000000000
C       4.360005000000000     -2.023526000000000     -2.668160000000000
C       3.413600000000000     -1.197556000000000     -2.072447000000000
C       2.052191000000000     -0.395126000000000      2.676114000000000
C       2.410404000000000     -0.353320000000000      4.020686000000000
C       3.437594000000000      0.488299000000000      4.441665000000000
C       4.106922000000000      1.286023000000000      3.516265000000000
C       3.754599000000000      1.240983000000000      2.169370000000000
C       1.700034000000000      2.869534000000000     -0.838322000000000
C       2.016471000000000      4.118372000000000     -1.366663000000000
C       3.306244000000000      4.380822000000000     -1.821178000000000
C       4.282302000000000      3.390031000000000     -1.745636000000000
C       3.970429000000000      2.140559000000000     -1.216077000000000
H       4.720984000000000     -1.102184000000000      1.080720000000000
F       6.538577000000000     -2.652295000000000      0.139374000000000
H       6.174981000000000     -3.179749000000000     -2.357720000000000
H       4.264930000000000     -2.287676000000000     -3.716340000000000
H       2.578404000000000     -0.818877000000000     -2.656954000000000
H       1.237825000000000     -1.034452000000000      2.339872000000000
H       1.881957000000000     -0.972134000000000      4.739309000000000
H       3.713538000000000      0.526813000000000      5.490900000000000
H       4.903245000000000      1.947525000000000      3.842803000000000
H       4.276438000000000      1.869474000000000      1.452713000000000
H       0.692439000000000      2.657425000000000     -0.492167000000000
H       1.249513000000000      4.884335000000000     -1.428533000000000
H       3.549896000000000      5.353035000000000     -2.238343000000000
H       5.288334000000000      3.586813000000000     -2.102927000000000
H       4.736306000000000      1.371118000000000     -1.168043000000000
Rh      0.030043000000000     -0.377244000000000     -0.250489000000000
C       0.239172000000000     -1.955972000000000     -1.298901000000000
O       0.366045000000000     -2.903431000000000     -1.932963000000000
H      -0.149212000000000      0.981681000000000      0.644182000000000
