72

P       2.216716000000000      0.249368000000000      0.203073000000000
C       3.207756000000000     -1.043717000000000     -0.646687000000000
C       3.307844000000000      0.679158000000000      1.619067000000000
C       2.366719000000000      1.713842000000000     -0.895356000000000
C       2.560733000000000     -1.936865000000000     -1.509669000000000
C       3.278858000000000     -2.911628000000000     -2.194372000000000
C       4.649471000000000     -2.988469000000000     -1.998707000000000
C       5.322487000000000     -2.126667000000000     -1.145353000000000
C       4.592674000000000     -1.154185000000000     -0.469231000000000
C       3.323749000000000     -0.202585000000000      2.706998000000000
C       4.135847000000000      0.047546000000000      3.806934000000000
C       4.932952000000000      1.191353000000000      3.838711000000000
C       4.916548000000000      2.076732000000000      2.765812000000000
C       4.110335000000000      1.821925000000000      1.656412000000000
C       3.408823000000000      1.881143000000000     -1.810758000000000
C       3.462872000000000      3.020908000000000     -2.611067000000000
C       2.479984000000000      4.001406000000000     -2.501162000000000
C       1.438254000000000      3.841509000000000     -1.589320000000000
C       1.379732000000000      2.701480000000000     -0.793118000000000
H       1.484655000000000     -1.864102000000000     -1.638456000000000
H       2.794563000000000     -3.612062000000000     -2.865543000000000
F       5.346480000000000     -3.929783000000000     -2.649026000000000
H       6.394355000000000     -2.229269000000000     -1.018529000000000
H       5.109385000000000     -0.478104000000000      0.206211000000000
H       2.693136000000000     -1.089272000000000      2.688395000000000
H       4.139206000000000     -0.643901000000000      4.643581000000000
H       5.560642000000000      1.392748000000000      4.701123000000000
H       5.532268000000000      2.970590000000000      2.787674000000000
H       4.107640000000000      2.516537000000000      0.821552000000000
H       4.175505000000000      1.117205000000000     -1.907336000000000
H       4.272523000000000      3.139278000000000     -3.324464000000000
H       2.522956000000000      4.886141000000000     -3.128794000000000
H       0.665386000000000      4.599335000000000     -1.502581000000000
H       0.557037000000000      2.558933000000000     -0.094591000000000
P      -2.235710000000000     -0.424853000000000      0.164290000000000
C      -2.917298000000000      0.992512000000000     -0.791890000000000
C      -3.413714000000000     -0.514903000000000      1.574406000000000
C      -2.679248000000000     -1.892932000000000     -0.840220000000000
C      -2.084007000000000      1.668698000000000     -1.692560000000000
C      -2.561825000000000      2.739211000000000     -2.440831000000000
C      -3.882029000000000      3.129836000000000     -2.275152000000000
C      -4.735179000000000      2.487272000000000     -1.390453000000000
C      -4.244070000000000      1.417588000000000     -0.648097000000000
C      -3.328044000000000      0.492938000000000      2.544028000000000
C      -4.183278000000000      0.494909000000000      3.639055000000000
C      -5.127711000000000     -0.520833000000000      3.787630000000000
C      -5.212703000000000     -1.530385000000000      2.835068000000000
C      -4.362501000000000     -1.527761000000000      1.728616000000000
C      -3.819333000000000     -1.942647000000000     -1.647553000000000
C      -4.121387000000000     -3.098487000000000     -2.362823000000000
C      -3.289449000000000     -4.212734000000000     -2.273895000000000
C      -2.150890000000000     -4.168988000000000     -1.472770000000000
C      -1.843318000000000     -3.011177000000000     -0.762896000000000
H      -1.050009000000000      1.354561000000000     -1.800352000000000
H      -1.926294000000000      3.273703000000000     -3.138385000000000
F      -4.347449000000000      4.165932000000000     -2.986055000000000
H      -5.758312000000000      2.831514000000000     -1.289484000000000
H      -4.902621000000000      0.915825000000000      0.055418000000000
H      -2.585191000000000      1.280879000000000      2.435043000000000
H      -4.107088000000000      1.282874000000000      4.381631000000000
H      -5.790764000000000     -0.525435000000000      4.647054000000000
H      -5.942932000000000     -2.325771000000000      2.947749000000000
H      -4.441049000000000     -2.318617000000000      0.988831000000000
H      -4.469078000000000     -1.074685000000000     -1.723280000000000
H      -5.005117000000000     -3.127491000000000     -2.992595000000000
H      -3.525923000000000     -5.112181000000000     -2.833900000000000
H      -1.496810000000000     -5.032865000000000     -1.406790000000000
H      -0.944856000000000     -2.958587000000000     -0.150765000000000
Rh      0.004930000000000     -0.212736000000000      0.601943000000000
C      -0.028730000000000     -0.100433000000000      2.504269000000000
O      -0.046415000000000     -0.048738000000000      3.650123000000000
H       0.034349000000000     -0.345230000000000     -1.029961000000000
