88

P       2.140623000000000     -0.902946000000000      0.116886000000000
C       2.494917000000000      0.902483000000000     -0.052995000000000
C       3.232422000000000     -1.625996000000000     -1.174947000000000
C       2.990078000000000     -1.343410000000000      1.679759000000000
C       1.635376000000000      1.788630000000000      0.599305000000000
C       1.823431000000000      3.181102000000000      0.535089000000000
C       2.918330000000000      3.656775000000000     -0.214236000000000
C       3.769346000000000      2.770330000000000     -0.862204000000000
C       3.576656000000000      1.391731000000000     -0.791234000000000
C       4.371031000000000     -2.383383000000000     -0.894272000000000
C       5.131317000000000     -2.921104000000000     -1.933426000000000
C       4.767580000000000     -2.699093000000000     -3.256948000000000
C       3.632741000000000     -1.940907000000000     -3.545543000000000
C       2.867308000000000     -1.416234000000000     -2.511647000000000
C       4.185863000000000     -0.735544000000000      2.075971000000000
C       4.808012000000000     -1.121747000000000      3.259380000000000
C       4.241265000000000     -2.117675000000000      4.053641000000000
C       3.048928000000000     -2.723409000000000      3.666395000000000
C       2.421668000000000     -2.333779000000000      2.484833000000000
H       0.803252000000000      1.372783000000000      1.151479000000000
N       0.946680000000000      4.053141000000000      1.175506000000000
H       3.111206000000000      4.720322000000000     -0.293372000000000
H       4.605646000000000      3.165678000000000     -1.431581000000000
H       4.255393000000000      0.716522000000000     -1.301683000000000
H       4.668162000000000     -2.559500000000000      0.134966000000000
H       6.010941000000000     -3.513995000000000     -1.702329000000000
H       5.361422000000000     -3.118044000000000     -4.063294000000000
H       3.338947000000000     -1.767829000000000     -4.576079000000000
H       1.976239000000000     -0.833057000000000     -2.738188000000000
H       4.625273000000000      0.044036000000000      1.458256000000000
H       5.733716000000000     -0.643369000000000      3.564131000000000
H       4.727154000000000     -2.416093000000000      4.977574000000000
H       2.601409000000000     -3.493200000000000      4.287340000000000
H       1.477959000000000     -2.783225000000000      2.182517000000000
P      -2.314179000000000     -0.645092000000000      0.120109000000000
C      -2.331064000000000      1.185554000000000     -0.063286000000000
C      -3.288758000000000     -0.952609000000000      1.647807000000000
C      -3.483145000000000     -1.199285000000000     -1.186602000000000
C      -1.370510000000000      1.721775000000000     -0.922667000000000
C      -1.260820000000000      3.111350000000000     -1.125131000000000
C      -2.170246000000000      3.944855000000000     -0.437289000000000
C      -3.128367000000000      3.398970000000000      0.405984000000000
C      -3.223916000000000      2.021907000000000      0.610058000000000
C      -2.611673000000000     -1.161328000000000      2.853639000000000
C      -3.323073000000000     -1.365431000000000      4.033655000000000
C      -4.715140000000000     -1.371030000000000      4.019345000000000
C      -5.396966000000000     -1.173829000000000      2.820334000000000
C      -4.688851000000000     -0.968367000000000      1.639673000000000
C      -4.290264000000000     -0.321322000000000     -1.914765000000000
C      -5.158249000000000     -0.812463000000000     -2.889288000000000
C      -5.231170000000000     -2.179695000000000     -3.138430000000000
C      -4.429877000000000     -3.061047000000000     -2.414033000000000
C      -3.556733000000000     -2.572226000000000     -1.448711000000000
H      -0.667489000000000      1.043991000000000     -1.396936000000000
N      -0.293856000000000      3.628973000000000     -1.953438000000000
H      -2.125659000000000      5.020477000000000     -0.563024000000000
H      -3.813410000000000      4.065400000000000      0.922636000000000
H      -3.969162000000000      1.614239000000000      1.285044000000000
H      -1.525436000000000     -1.166496000000000      2.855223000000000
H      -2.786736000000000     -1.527930000000000      4.963492000000000
H      -5.268978000000000     -1.535468000000000      4.938591000000000
H      -6.482448000000000     -1.183876000000000      2.802366000000000
H      -5.226876000000000     -0.821647000000000      0.706927000000000
H      -4.240805000000000      0.746534000000000     -1.721160000000000
H      -5.777797000000000     -0.122350000000000     -3.453830000000000
H      -5.906300000000000     -2.558938000000000     -3.899277000000000
H      -4.477315000000000     -4.127851000000000     -2.608733000000000
H      -2.920005000000000     -3.258506000000000     -0.893856000000000
Rh     -0.112413000000000     -1.304134000000000     -0.012892000000000
C      -0.182653000000000     -2.376499000000000     -1.584788000000000
O      -0.229901000000000     -3.058303000000000     -2.506781000000000
H      -0.059494000000000     -0.469160000000000      1.394152000000000
C      -0.001608000000000      3.480517000000000      2.117653000000000
H      -0.628527000000000      2.733830000000000      1.624363000000000
H       0.494866000000000      3.012802000000000      2.982855000000000
H      -0.663205000000000      4.273335000000000      2.471515000000000
C       1.453236000000000      5.368978000000000      1.520653000000000
H       1.692989000000000      5.947353000000000      0.623235000000000
H       0.675488000000000      5.913217000000000      2.059233000000000
H       2.354548000000000      5.324521000000000      2.151598000000000
C      -0.021457000000000      5.046700000000000     -1.926941000000000
H      -0.816828000000000      5.633626000000000     -2.408205000000000
H       0.089363000000000      5.395669000000000     -0.892156000000000
H       0.912635000000000      5.240612000000000     -2.456542000000000
C       0.561952000000000      2.737299000000000     -2.708821000000000
H       1.208915000000000      3.332521000000000     -3.354438000000000
H       1.197356000000000      2.118576000000000     -2.061723000000000
H      -0.036542000000000      2.073488000000000     -3.345923000000000
