76

P       2.226329000000000     -0.314388000000000      0.031368000000000
C       2.898638000000000      1.396021000000000      0.135530000000000
C       2.730529000000000     -0.890033000000000     -1.637061000000000
C       3.369713000000000     -1.233788000000000      1.142061000000000
C       2.063924000000000      2.468830000000000     -0.180803000000000
C       2.547883000000000      3.787386000000000     -0.158014000000000
C       3.890002000000000      4.001449000000000      0.188423000000000
C       4.715941000000000      2.931855000000000      0.507411000000000
C       4.233555000000000      1.625928000000000      0.491684000000000
C       3.828002000000000     -0.367764000000000     -2.326327000000000
C       4.169513000000000     -0.869378000000000     -3.580597000000000
C       3.422310000000000     -1.896647000000000     -4.151806000000000
C       2.326309000000000     -2.420879000000000     -3.469658000000000
C       1.978204000000000     -1.915611000000000     -2.220367000000000
C       3.212478000000000     -1.047287000000000      2.521272000000000
C       4.038266000000000     -1.707443000000000      3.422939000000000
C       5.025547000000000     -2.575611000000000      2.957229000000000
C       5.183213000000000     -2.772768000000000      1.589597000000000
C       4.362091000000000     -2.102134000000000      0.682697000000000
H       1.030530000000000      2.282428000000000     -0.465009000000000
N       1.726139000000000      4.846030000000000     -0.519335000000000
H       4.278816000000000      5.016561000000000      0.209141000000000
H       5.750238000000000      3.120372000000000      0.779813000000000
H       4.885592000000000      0.798592000000000      0.753079000000000
H       4.411012000000000      0.437062000000000     -1.887083000000000
H       5.019090000000000     -0.453201000000000     -4.113176000000000
H       3.690193000000000     -2.283734000000000     -5.130151000000000
H       1.736075000000000     -3.216764000000000     -3.913558000000000
H       1.110095000000000     -2.303053000000000     -1.689898000000000
H       2.435695000000000     -0.378251000000000      2.886415000000000
H       3.906091000000000     -1.552613000000000      4.489183000000000
H       5.665743000000000     -3.098872000000000      3.660623000000000
H       5.948257000000000     -3.449412000000000      1.221365000000000
H       4.497846000000000     -2.258380000000000     -0.383274000000000
P      -2.280749000000000     -0.224404000000000      0.028925000000000
C      -2.681739000000000      1.563592000000000     -0.108114000000000
C      -3.476854000000000     -0.833170000000000      1.286071000000000
C      -2.970272000000000     -0.934775000000000     -1.521937000000000
C      -1.795791000000000      2.451203000000000      0.500410000000000
C      -2.002732000000000      3.830483000000000      0.427180000000000
C      -3.120075000000000      4.314291000000000     -0.259315000000000
C      -4.006326000000000      3.427068000000000     -0.861385000000000
C      -3.796173000000000      2.051742000000000     -0.795229000000000
C      -4.466127000000000     -0.036831000000000      1.867221000000000
C      -5.332428000000000     -0.575979000000000      2.818389000000000
C      -5.223323000000000     -1.912264000000000      3.188938000000000
C      -4.239240000000000     -2.713827000000000      2.611136000000000
C      -3.367770000000000     -2.175306000000000      1.671961000000000
C      -2.137483000000000     -1.035265000000000     -2.642522000000000
C      -2.631426000000000     -1.542330000000000     -3.841283000000000
C      -3.956354000000000     -1.961980000000000     -3.931792000000000
C      -4.788734000000000     -1.872099000000000     -2.818929000000000
C      -4.299408000000000     -1.362435000000000     -1.618620000000000
H      -0.913842000000000      2.058462000000000      1.006440000000000
N      -1.044101000000000      4.709014000000000      0.967066000000000
H      -3.283901000000000      5.386279000000000     -0.333499000000000
H      -4.866781000000000      3.816414000000000     -1.396831000000000
H      -4.483029000000000      1.367381000000000     -1.284364000000000
H      -4.563708000000000      1.005643000000000      1.579437000000000
H      -6.094639000000000      0.053247000000000      3.267690000000000
H      -5.898881000000000     -2.329179000000000      3.929322000000000
H      -4.144391000000000     -3.755811000000000      2.899982000000000
H      -2.592660000000000     -2.798905000000000      1.230977000000000
H      -1.101842000000000     -0.716220000000000     -2.564729000000000
H      -1.975358000000000     -1.615132000000000     -4.703283000000000
H      -4.338498000000000     -2.363134000000000     -4.865483000000000
H      -5.821018000000000     -2.202421000000000     -2.881850000000000
H      -4.953604000000000     -1.302539000000000     -0.753020000000000
Rh     -0.032616000000000     -0.535885000000000      0.369021000000000
C      -0.053488000000000     -1.588127000000000      1.956540000000000
O      -0.068655000000000     -2.221798000000000      2.913488000000000
H      -0.003591000000000      0.369441000000000     -0.993341000000000
H       0.736666000000000      4.730331000000000     -0.309723000000000
H       2.063166000000000      5.754202000000000     -0.227646000000000
H      -1.423200000000000      5.617056000000000      1.212289000000000
H      -0.549425000000000      4.313203000000000      1.760203000000000
