76

P      -2.302249000000000     -0.062478000000000      0.060299000000000
C      -2.927436000000000      1.648696000000000      0.263652000000000
C      -2.904813000000000     -0.941722000000000      1.555978000000000
C      -3.377312000000000     -0.745619000000000     -1.264630000000000
C      -2.347365000000000      2.713788000000000     -0.465119000000000
C      -2.865930000000000      4.007816000000000     -0.288128000000000
C      -3.923638000000000      4.247880000000000      0.573243000000000
C      -4.499736000000000      3.201270000000000      1.291523000000000
C      -3.994650000000000      1.917929000000000      1.128886000000000
C      -4.172486000000000     -1.530794000000000      1.615977000000000
C      -4.590291000000000     -2.180994000000000      2.774670000000000
C      -3.747285000000000     -2.249267000000000      3.881368000000000
C      -2.483148000000000     -1.666960000000000      3.827407000000000
C      -2.060088000000000     -1.019673000000000      2.669670000000000
C      -3.213127000000000     -2.091579000000000     -1.616084000000000
C      -3.991962000000000     -2.659669000000000     -2.616688000000000
C      -4.934781000000000     -1.883283000000000     -3.290753000000000
C      -5.097585000000000     -0.544163000000000     -2.952752000000000
C      -4.326389000000000      0.024475000000000     -1.938838000000000
N      -1.339567000000000      2.511597000000000     -1.398684000000000
H      -2.421806000000000      4.826263000000000     -0.848969000000000
H      -4.298543000000000      5.260722000000000      0.686597000000000
H      -5.325020000000000      3.381907000000000      1.971407000000000
H      -4.434260000000000      1.100656000000000      1.692678000000000
H      -4.834050000000000     -1.481683000000000      0.755337000000000
H      -5.575487000000000     -2.635566000000000      2.810696000000000
H      -4.073654000000000     -2.759516000000000      4.782342000000000
H      -1.819560000000000     -1.722749000000000      4.684719000000000
H      -1.069874000000000     -0.574384000000000      2.616760000000000
H      -2.473128000000000     -2.696911000000000     -1.096230000000000
H      -3.858035000000000     -3.704824000000000     -2.877362000000000
H      -5.537265000000000     -2.323296000000000     -4.079300000000000
H      -5.828236000000000      0.064842000000000     -3.475947000000000
H      -4.463541000000000      1.068784000000000     -1.674532000000000
P       2.254110000000000      0.065330000000000      0.024575000000000
C       3.314133000000000     -1.228724000000000     -0.717997000000000
C       2.965367000000000      0.254711000000000      1.710671000000000
C       2.780878000000000      1.599912000000000     -0.832599000000000
C       3.084456000000000     -2.576527000000000     -0.353567000000000
C       3.868845000000000     -3.577185000000000     -0.946635000000000
C       4.853640000000000     -3.260000000000000     -1.869768000000000
C       5.084813000000000     -1.933996000000000     -2.230185000000000
C       4.313297000000000     -0.933320000000000     -1.650893000000000
C       2.293884000000000      1.041589000000000      2.653136000000000
C       2.842032000000000      1.248120000000000      3.915341000000000
C       4.057432000000000      0.657875000000000      4.255743000000000
C       4.726055000000000     -0.133367000000000      3.326214000000000
C       4.186755000000000     -0.331283000000000      2.056870000000000
C       3.776703000000000      2.439536000000000     -0.328199000000000
C       4.141291000000000      3.590843000000000     -1.024443000000000
C       3.521477000000000      3.907198000000000     -2.229936000000000
C       2.532463000000000      3.069189000000000     -2.743273000000000
C       2.159886000000000      1.924437000000000     -2.045565000000000
N       2.165488000000000     -2.916666000000000      0.631635000000000
H       3.695501000000000     -4.613095000000000     -0.666557000000000
H       5.442959000000000     -4.057065000000000     -2.312874000000000
H       5.853063000000000     -1.681865000000000     -2.952778000000000
H       4.487829000000000      0.102381000000000     -1.927081000000000
H       1.337806000000000      1.485724000000000      2.392571000000000
H       2.313563000000000      1.864168000000000      4.636276000000000
H       4.479672000000000      0.811485000000000      5.244093000000000
H       5.671112000000000     -0.599955000000000      3.586166000000000
H       4.717158000000000     -0.945387000000000      1.335253000000000
H       4.266560000000000      2.196797000000000      0.610383000000000
H       4.912412000000000      4.240194000000000     -0.621852000000000
H       3.807712000000000      4.804581000000000     -2.769593000000000
H       2.048542000000000      3.307714000000000     -3.685489000000000
H       1.385474000000000      1.270722000000000     -2.442000000000000
Rh     -0.014877000000000     -0.269128000000000     -0.184563000000000
C       0.058505000000000     -1.504717000000000     -1.642172000000000
O       0.117840000000000     -2.226676000000000     -2.530947000000000
H      -0.088235000000000      0.839255000000000      1.008195000000000
H      -0.795558000000000      3.342509000000000     -1.600655000000000
H      -0.728801000000000      1.716190000000000     -1.205621000000000
H       1.886029000000000     -3.889574000000000      0.624707000000000
H       1.363711000000000     -2.296689000000000      0.735043000000000
