76

P      -2.260506000000000     -0.453186000000000      0.113562000000000
C      -2.849479000000000      1.118248000000000     -0.617120000000000
C      -2.995485000000000     -0.505387000000000      1.794094000000000
C      -3.275023000000000     -1.688409000000000     -0.801107000000000
C      -2.007373000000000      2.238128000000000     -0.611161000000000
C      -2.418111000000000      3.446306000000000     -1.154375000000000
C      -3.690774000000000      3.574871000000000     -1.726983000000000
C      -4.534876000000000      2.455253000000000     -1.743572000000000
C      -4.115910000000000      1.248509000000000     -1.201343000000000
C      -2.327387000000000     -1.249288000000000      2.771814000000000
C      -2.858121000000000     -1.364681000000000      4.053732000000000
C      -4.054520000000000     -0.725921000000000      4.371924000000000
C      -4.719068000000000      0.026636000000000      3.405940000000000
C      -4.193516000000000      0.135484000000000      2.120666000000000
C      -2.979121000000000     -1.883896000000000     -2.156607000000000
C      -3.697970000000000     -2.801524000000000     -2.912548000000000
C      -4.716804000000000     -3.547786000000000     -2.320106000000000
C      -5.012231000000000     -3.365578000000000     -0.973705000000000
C      -4.297946000000000     -2.436987000000000     -0.215558000000000
H      -1.014309000000000      2.155144000000000     -0.178019000000000
H      -1.741178000000000      4.297182000000000     -1.148414000000000
N      -4.083254000000000      4.768135000000000     -2.324060000000000
H      -5.518719000000000      2.534146000000000     -2.198847000000000
H      -4.784727000000000      0.392178000000000     -1.241357000000000
H      -1.381607000000000     -1.725210000000000      2.519093000000000
H      -2.332729000000000     -1.945009000000000      4.805984000000000
H      -4.465552000000000     -0.808444000000000      5.373421000000000
H      -5.647266000000000      0.532427000000000      3.653752000000000
H      -4.712362000000000      0.727379000000000      1.371358000000000
H      -2.180214000000000     -1.307600000000000     -2.619187000000000
H      -3.458365000000000     -2.941171000000000     -3.962030000000000
H      -5.273985000000000     -4.270887000000000     -2.907603000000000
H      -5.802227000000000     -3.945116000000000     -0.505856000000000
H      -4.541080000000000     -2.300238000000000      0.833784000000000
P       2.190956000000000      0.107469000000000      0.265546000000000
C       3.508402000000000     -0.650218000000000     -0.754863000000000
C       2.950653000000000      0.135775000000000      1.940030000000000
C       2.241184000000000      1.867753000000000     -0.266473000000000
C       4.470068000000000      0.087009000000000     -1.453473000000000
C       5.459247000000000     -0.547413000000000     -2.194079000000000
C       5.519335000000000     -1.945824000000000     -2.253052000000000
C       4.561702000000000     -2.689119000000000     -1.547723000000000
C       3.572676000000000     -2.047428000000000     -0.819272000000000
C       4.338653000000000      0.186120000000000      2.116190000000000
C       4.884258000000000      0.234972000000000      3.395766000000000
C       4.050106000000000      0.227457000000000      4.512143000000000
C       2.669357000000000      0.169048000000000      4.344954000000000
C       2.120305000000000      0.120230000000000      3.065544000000000
C       2.872923000000000      2.877217000000000      0.462032000000000
C       2.832956000000000      4.197471000000000      0.012758000000000
C       2.166640000000000      4.517957000000000     -1.165816000000000
C       1.534311000000000      3.514074000000000     -1.899531000000000
C       1.567595000000000      2.198439000000000     -1.450189000000000
H       4.446434000000000      1.173142000000000     -1.424526000000000
H       6.196464000000000      0.042009000000000     -2.733091000000000
N       6.537467000000000     -2.584951000000000     -2.953339000000000
H       4.593769000000000     -3.774773000000000     -1.583438000000000
H       2.831486000000000     -2.642749000000000     -0.290495000000000
H       4.994349000000000      0.181701000000000      1.249534000000000
H       5.962036000000000      0.273506000000000      3.520679000000000
H       4.477350000000000      0.260686000000000      5.509759000000000
H       2.015148000000000      0.155731000000000      5.211307000000000
H       1.043844000000000      0.070532000000000      2.927608000000000
H       3.391843000000000      2.638176000000000      1.385624000000000
H       3.323272000000000      4.975410000000000      0.590000000000000
H       2.135975000000000      5.546745000000000     -1.511511000000000
H       1.004111000000000      3.756431000000000     -2.815673000000000
H       1.050422000000000      1.417900000000000     -2.004934000000000
Rh      0.025084000000000     -0.627824000000000      0.068175000000000
C       0.235279000000000     -2.052833000000000     -1.170739000000000
O       0.356124000000000     -2.908544000000000     -1.903468000000000
H      -0.171553000000000      0.581112000000000      1.157454000000000
H      -5.083135000000000      4.904258000000000     -2.392488000000000
H      -3.612727000000000      5.593283000000000     -1.976575000000000
H       6.944899000000000     -2.042385000000000     -3.703489000000000
H       6.324706000000000     -3.529584000000000     -3.245964000000000
