74

P      -2.201323000000000      0.253117000000000      0.137921000000000
C      -3.523970000000000     -0.658763000000000     -0.748223000000000
C      -2.444834000000000      1.980332000000000     -0.435763000000000
C      -2.842915000000000      0.276130000000000      1.863864000000000
C      -3.536591000000000     -2.052962000000000     -0.631778000000000
C      -4.516736000000000     -2.815667000000000     -1.252168000000000
C      -5.500233000000000     -2.187540000000000     -2.019003000000000
C      -5.499312000000000     -0.799343000000000     -2.151230000000000
C      -4.519692000000000     -0.045180000000000     -1.516377000000000
C      -3.398728000000000      2.839413000000000      0.116125000000000
C      -3.548262000000000      4.132784000000000     -0.380417000000000
C      -2.749789000000000      4.575367000000000     -1.432146000000000
C      -1.795554000000000      3.724090000000000     -1.985873000000000
C      -1.639658000000000      2.434282000000000     -1.486499000000000
C      -1.953581000000000      0.524083000000000      2.916016000000000
C      -2.413986000000000      0.572736000000000      4.229130000000000
C      -3.762908000000000      0.366481000000000      4.507354000000000
C      -4.652794000000000      0.111745000000000      3.466823000000000
C      -4.196380000000000      0.064726000000000      2.151768000000000
H      -2.768291000000000     -2.551238000000000     -0.044398000000000
H      -4.511615000000000     -3.898616000000000     -1.152845000000000
O      -6.479423000000000     -2.877877000000000     -2.659351000000000
H      -6.269748000000000     -0.332096000000000     -2.754951000000000
H      -4.532726000000000      1.035264000000000     -1.625286000000000
H      -4.021665000000000      2.501247000000000      0.939859000000000
H      -4.288001000000000      4.795532000000000      0.057897000000000
H      -2.867839000000000      5.583972000000000     -1.816186000000000
H      -1.166752000000000      4.065980000000000     -2.802413000000000
H      -0.882290000000000      1.769635000000000     -1.898368000000000
H      -0.900192000000000      0.672782000000000      2.696414000000000
H      -1.713520000000000      0.765090000000000      5.036097000000000
H      -4.119491000000000      0.398599000000000      5.532322000000000
H      -5.704798000000000     -0.054784000000000      3.677173000000000
H      -4.896201000000000     -0.140781000000000      1.346368000000000
P       2.266282000000000     -0.414973000000000      0.071567000000000
C       3.095616000000000      1.057520000000000     -0.639443000000000
C       3.220667000000000     -1.784275000000000     -0.703092000000000
C       2.830779000000000     -0.459809000000000      1.817339000000000
C       4.411826000000000      1.015897000000000     -1.121948000000000
C       5.023759000000000      2.150962000000000     -1.634008000000000
C       4.319946000000000      3.356162000000000     -1.677068000000000
C       3.007279000000000      3.413657000000000     -1.209303000000000
C       2.402267000000000      2.270833000000000     -0.698564000000000
C       4.144896000000000     -2.571633000000000     -0.013275000000000
C       4.823561000000000     -3.597425000000000     -0.672031000000000
C       4.590725000000000     -3.838825000000000     -2.021644000000000
C       3.670341000000000     -3.054978000000000     -2.717335000000000
C       2.985918000000000     -2.039755000000000     -2.060367000000000
C       1.998280000000000     -1.083405000000000      2.752783000000000
C       2.385418000000000     -1.177655000000000      4.086776000000000
C       3.602683000000000     -0.639540000000000      4.498368000000000
C       4.432191000000000     -0.008954000000000      3.573650000000000
C       4.049438000000000      0.080097000000000      2.237237000000000
H       4.965444000000000      0.080759000000000     -1.103192000000000
H       6.040422000000000      2.125769000000000     -2.011010000000000
O       4.962473000000000      4.436340000000000     -2.191626000000000
H       2.454165000000000      4.349492000000000     -1.251095000000000
H       1.376983000000000      2.315775000000000     -0.342238000000000
H       4.337995000000000     -2.388669000000000      1.039480000000000
H       5.536451000000000     -4.206434000000000     -0.124690000000000
H       5.120142000000000     -4.637596000000000     -2.531586000000000
H       3.479439000000000     -3.241234000000000     -3.769508000000000
H       2.260848000000000     -1.435476000000000     -2.602203000000000
H       1.038927000000000     -1.480387000000000      2.425443000000000
H       1.731930000000000     -1.662871000000000      4.805296000000000
H       3.902257000000000     -0.705505000000000      5.539818000000000
H       5.377794000000000      0.418266000000000      3.892891000000000
H       4.697484000000000      0.578637000000000      1.521361000000000
Rh     -0.021139000000000     -0.424184000000000     -0.108808000000000
C      -0.259507000000000     -1.954768000000000     -1.212925000000000
O      -0.401816000000000     -2.876037000000000     -1.883017000000000
H       0.194200000000000      0.898368000000000      0.834650000000000
H      -6.355645000000000     -3.825152000000000     -2.504440000000000
H       4.370360000000000      5.201489000000000     -2.165143000000000
