92

P      -3.932085000000000      1.475254000000000      1.040091000000000
C      -4.183102000000000     -0.204033000000000      1.748832000000000
C      -4.821950000000000      1.439836000000000     -0.562418000000000
C      -5.048164000000000      2.490103000000000      2.095316000000000
C      -3.179602000000000     -1.167899000000000      1.597149000000000
C      -3.317064000000000     -2.426645000000000      2.170245000000000
C      -4.454461000000000     -2.766126000000000      2.911110000000000
C      -5.467964000000000     -1.807526000000000      3.036999000000000
C      -5.332579000000000     -0.544130000000000      2.472845000000000
C      -4.363346000000000      2.279469000000000     -1.581635000000000
C      -5.031672000000000      2.334325000000000     -2.801915000000000
C      -6.155116000000000      1.539408000000000     -3.016297000000000
C      -6.610656000000000      0.691890000000000     -2.008420000000000
C      -5.949225000000000      0.643689000000000     -0.784053000000000
C      -4.692097000000000      2.648568000000000      3.441337000000000
C      -5.476601000000000      3.414066000000000      4.294832000000000
C      -6.622984000000000      4.044749000000000      3.810885000000000
C      -6.978992000000000      3.899350000000000      2.474747000000000
C      -6.198299000000000      3.121780000000000      1.618500000000000
H      -2.272986000000000     -0.919155000000000      1.051449000000000
H      -2.506451000000000     -3.143052000000000      2.075299000000000
C      -4.562354000000000     -4.093951000000000      3.564900000000000
H      -6.378028000000000     -2.054055000000000      3.575875000000000
H      -6.125886000000000      0.186608000000000      2.607270000000000
H      -3.471531000000000      2.879238000000000     -1.410881000000000
H      -4.669726000000000      2.990218000000000     -3.587618000000000
H      -6.672278000000000      1.575075000000000     -3.970190000000000
H      -7.481203000000000      0.065302000000000     -2.175948000000000
H      -6.306438000000000     -0.020570000000000     -0.001668000000000
H      -3.794940000000000      2.162697000000000      3.820141000000000
H      -5.189853000000000      3.525835000000000      5.335764000000000
H      -7.232598000000000      4.649736000000000      4.474750000000000
H      -7.868641000000000      4.389477000000000      2.091374000000000
H      -6.489851000000000      3.011127000000000      0.578496000000000
P       0.510735000000000      1.465813000000000      0.664186000000000
C       0.595763000000000     -0.329223000000000      1.040680000000000
C       1.811678000000000      2.191949000000000      1.739998000000000
C       1.264191000000000      1.598504000000000     -1.004267000000000
C       0.250236000000000     -0.750359000000000      2.331562000000000
C       0.061310000000000     -2.096867000000000      2.609636000000000
C       0.198696000000000     -3.064105000000000      1.603705000000000
C       0.585770000000000     -2.640554000000000      0.328291000000000
C       0.782785000000000     -1.291508000000000      0.047418000000000
C       1.779885000000000      3.574724000000000      1.950013000000000
C       2.752274000000000      4.193402000000000      2.729189000000000
C       3.761020000000000      3.433319000000000      3.317527000000000
C       3.797139000000000      2.055703000000000      3.119105000000000
C       2.828915000000000      1.436206000000000      2.331606000000000
C       0.438455000000000      1.853547000000000     -2.102612000000000
C       0.979318000000000      1.926765000000000     -3.385134000000000
C       2.345899000000000      1.748140000000000     -3.577474000000000
C       3.175864000000000      1.497474000000000     -2.485278000000000
C       2.638893000000000      1.425480000000000     -1.204354000000000
H       0.075553000000000     -0.011321000000000      3.110463000000000
H      -0.267855000000000     -2.395721000000000      3.600925000000000
C      -0.119751000000000     -4.488382000000000      1.870221000000000
H       0.736561000000000     -3.375608000000000     -0.456941000000000
H       1.057226000000000     -0.989089000000000     -0.958947000000000
H       0.984323000000000      4.166319000000000      1.502691000000000
H       2.715789000000000      5.266853000000000      2.885432000000000
H       4.514433000000000      3.913690000000000      3.933956000000000
H       4.579636000000000      1.459444000000000      3.578259000000000
H       2.861987000000000      0.360521000000000      2.181396000000000
H      -0.627745000000000      1.987212000000000     -1.940940000000000
H       0.330644000000000      2.125967000000000     -4.232474000000000
H       2.767172000000000      1.807155000000000     -4.576354000000000
H       4.242916000000000      1.361606000000000     -2.631566000000000
H       3.290862000000000      1.237634000000000     -0.355291000000000
Rh     -1.699480000000000      1.996527000000000      0.957255000000000
C      -1.599868000000000      3.319117000000000      2.323753000000000
O      -1.540213000000000      4.135687000000000      3.128412000000000
H      -1.803422000000000      0.908889000000000     -0.262574000000000
C      -5.258244000000000     -4.242711000000000      4.771324000000000
C      -3.952731000000000     -5.223911000000000      3.004626000000000
C      -4.750513000000000     -6.600786000000000      4.820622000000000
C      -4.047578000000000     -6.464254000000000      3.626158000000000
C      -5.353659000000000     -5.483324000000000      5.392467000000000
H      -5.704574000000000     -3.371878000000000      5.242244000000000
H      -5.892439000000000     -5.574781000000000      6.330583000000000
H      -4.824385000000000     -7.569497000000000      5.304842000000000
H      -3.570065000000000     -7.325608000000000      3.169469000000000
H      -3.410737000000000     -5.138560000000000      2.066821000000000
C       0.145631000000000     -5.071734000000000      3.115288000000000
C      -0.729874000000000     -5.273343000000000      0.882354000000000
C      -0.771620000000000     -7.175151000000000      2.367065000000000
C      -1.048739000000000     -6.605966000000000      1.126152000000000
C      -0.179140000000000     -6.401032000000000      3.362330000000000
H       0.631541000000000     -4.483213000000000      3.887890000000000
H       0.038048000000000     -6.835945000000000      4.332742000000000
H      -1.017715000000000     -8.215114000000000      2.558852000000000
H      -1.522449000000000     -7.196688000000000      0.347973000000000
H      -0.978904000000000     -4.825872000000000     -0.075735000000000
