80

P      -3.795173000000000     -1.681934000000000      0.965615000000000
C      -4.314251000000000      0.064982000000000      0.734492000000000
C      -4.669210000000000     -2.234014000000000      2.481313000000000
C      -4.740819000000000     -2.521140000000000     -0.372284000000000
C      -3.463703000000000      1.105207000000000      1.119606000000000
C      -3.843775000000000      2.437753000000000      0.967247000000000
C      -5.092696000000000      2.754144000000000      0.428724000000000
C      -5.943691000000000      1.715968000000000      0.025625000000000
C      -5.554792000000000      0.393142000000000      0.168466000000000
C      -5.890301000000000     -1.697824000000000      2.899146000000000
C      -6.520278000000000     -2.193292000000000      4.038208000000000
C      -5.938892000000000     -3.230401000000000      4.764269000000000
C      -4.720769000000000     -3.767707000000000      4.354701000000000
C      -4.085213000000000     -3.266672000000000      3.221893000000000
C      -5.798106000000000     -3.402135000000000     -0.136757000000000
C      -6.451190000000000     -4.016775000000000     -1.205839000000000
C      -6.059853000000000     -3.751197000000000     -2.513361000000000
C      -5.006038000000000     -2.869859000000000     -2.755864000000000
C      -4.347823000000000     -2.264890000000000     -1.692478000000000
H      -2.485597000000000      0.874654000000000      1.535088000000000
H      -3.144248000000000      3.216446000000000      1.256403000000000
S      -5.692021000000000      4.401360000000000      0.189706000000000
H      -6.914291000000000      1.951884000000000     -0.401777000000000
H      -6.224999000000000     -0.394853000000000     -0.165678000000000
H      -6.347194000000000     -0.886018000000000      2.340191000000000
H      -7.465370000000000     -1.766581000000000      4.359580000000000
H      -6.431990000000000     -3.614720000000000      5.651849000000000
H      -4.260440000000000     -4.570728000000000      4.921997000000000
H      -3.122405000000000     -3.664222000000000      2.906308000000000
H      -6.116062000000000     -3.612916000000000      0.879855000000000
H      -7.269207000000000     -4.703416000000000     -1.010713000000000
H      -6.570034000000000     -4.230359000000000     -3.343077000000000
H      -4.692601000000000     -2.660441000000000     -3.773753000000000
H      -3.521385000000000     -1.582811000000000     -1.883362000000000
P       0.580693000000000     -1.138578000000000      1.514161000000000
C       0.417818000000000      0.682599000000000      1.362921000000000
C       2.015199000000000     -1.528016000000000      0.433215000000000
C       1.280623000000000     -1.374519000000000      3.194919000000000
C       0.364409000000000      1.520762000000000      2.474484000000000
C       0.041697000000000      2.871123000000000      2.337286000000000
C      -0.234175000000000      3.401891000000000      1.077283000000000
C      -0.178208000000000      2.564379000000000     -0.045879000000000
C       0.141242000000000      1.223983000000000      0.098641000000000
C       2.164331000000000     -2.854962000000000      0.016326000000000
C       3.243376000000000     -3.229159000000000     -0.778311000000000
C       4.178828000000000     -2.276313000000000     -1.175917000000000
C       4.034507000000000     -0.951383000000000     -0.772372000000000
C       2.959398000000000     -0.577503000000000      0.030744000000000
C       0.484316000000000     -1.946633000000000      4.190390000000000
C       0.984803000000000     -2.111213000000000      5.481173000000000
C       2.280975000000000     -1.706284000000000      5.784018000000000
C       3.082170000000000     -1.137737000000000      4.794136000000000
C       2.586255000000000     -0.975551000000000      3.505216000000000
H       0.559978000000000      1.121942000000000      3.465942000000000
H       0.013160000000000      3.496792000000000      3.222603000000000
S      -0.651623000000000      5.099984000000000      0.788799000000000
H      -0.412272000000000      2.964167000000000     -1.028381000000000
H       0.147530000000000      0.578822000000000     -0.777012000000000
H       1.424920000000000     -3.595216000000000      0.313809000000000
H       3.346973000000000     -4.261793000000000     -1.096084000000000
H       5.015499000000000     -2.564856000000000     -1.804468000000000
H       4.758672000000000     -0.204977000000000     -1.084011000000000
H       2.850662000000000      0.459089000000000      0.338554000000000
H      -0.528723000000000     -2.253234000000000      3.944670000000000
H       0.359389000000000     -2.557627000000000      6.247946000000000
H       2.670715000000000     -1.835788000000000      6.789041000000000
H       4.095356000000000     -0.824610000000000      5.026188000000000
H       3.217775000000000     -0.540717000000000      2.734954000000000
Rh     -1.519255000000000     -1.898766000000000      1.022588000000000
C      -1.214161000000000     -2.888334000000000     -0.575817000000000
O      -1.029874000000000     -3.504957000000000     -1.526170000000000
H      -1.801928000000000     -1.103804000000000      2.426895000000000
C      -4.463900000000000      5.394051000000000      1.071398000000000
H      -4.393778000000000      5.083293000000000      2.117153000000000
H      -3.483023000000000      5.338465000000000      0.593110000000000
H      -4.824652000000000      6.423600000000000      1.029764000000000
C      -1.121528000000000      5.663108000000000      2.444169000000000
H      -1.568482000000000      6.650930000000000      2.314488000000000
H      -1.862116000000000      4.991204000000000      2.887042000000000
H      -0.257330000000000      5.753218000000000      3.105175000000000
