96

P      -4.204481000000000     -1.416257000000000      0.241128000000000
C      -4.739412000000000      0.168832000000000      1.000668000000000
C      -5.502674000000000     -2.618433000000000      0.738886000000000
C      -4.594714000000000     -1.162104000000000     -1.538722000000000
C      -3.777608000000000      1.177781000000000      1.082290000000000
C      -4.064983000000000      2.439484000000000      1.612478000000000
C      -5.363891000000000      2.662614000000000      2.077278000000000
C      -6.332967000000000      1.661650000000000      2.009593000000000
C      -6.031805000000000      0.414647000000000      1.471669000000000
C      -5.267488000000000     -3.462019000000000      1.829096000000000
C      -6.246603000000000     -4.360314000000000      2.247108000000000
C      -7.464639000000000     -4.430125000000000      1.576811000000000
C      -7.703120000000000     -3.599552000000000      0.483712000000000
C      -6.727244000000000     -2.700071000000000      0.064190000000000
C      -5.335253000000000     -0.078620000000000     -2.018378000000000
C      -5.590848000000000      0.046876000000000     -3.383528000000000
C      -5.115585000000000     -0.908707000000000     -4.276351000000000
C      -4.376545000000000     -1.992659000000000     -3.804395000000000
C      -4.112570000000000     -2.114012000000000     -2.444821000000000
H      -2.771160000000000      0.953943000000000      0.732942000000000
C      -2.955996000000000      3.493448000000000      1.661807000000000
H      -5.634726000000000      3.622014000000000      2.504765000000000
H      -7.333134000000000      1.859161000000000      2.383600000000000
H      -6.791354000000000     -0.360453000000000      1.425904000000000
H      -4.310301000000000     -3.410754000000000      2.339469000000000
H      -6.051866000000000     -5.011863000000000      3.093359000000000
H      -8.224890000000000     -5.134705000000000      1.899799000000000
H      -8.648524999999999     -3.654682000000000     -0.047117000000000
H      -6.916981000000000     -2.061019000000000     -0.794081000000000
H      -5.711906000000000      0.670182000000000     -1.327309000000000
H      -6.162680000000000      0.895134000000000     -3.747140000000000
H      -5.314080000000000     -0.807297000000000     -5.338760000000000
H      -3.996050000000000     -2.736857000000000     -4.496916000000000
H      -3.520345000000000     -2.950176000000000     -2.077813000000000
P      -0.111959000000000     -1.506070000000000      2.106872000000000
C       1.356371000000000     -0.842664000000000      1.224355000000000
C       0.510276000000000     -3.018895000000000      2.930600000000000
C      -0.263770000000000     -0.307895000000000      3.504063000000000
C       1.148452000000000      0.325510000000000      0.488067000000000
C       2.171531000000000      0.947874000000000     -0.230067000000000
C       3.434043000000000      0.346028000000000     -0.205121000000000
C       3.654990000000000     -0.825107000000000      0.516310000000000
C       2.625641000000000     -1.423250000000000      1.238606000000000
C       1.391053000000000     -2.975849000000000      4.016707000000000
C       1.856278000000000     -4.156903000000000      4.586719000000000
C       1.443214000000000     -5.387819000000000      4.078270000000000
C       0.561357000000000     -5.437133000000000      3.002178000000000
C       0.092398000000000     -4.255699000000000      2.431703000000000
C      -1.427689000000000     -0.315674000000000      4.282118000000000
C      -1.557718000000000      0.546018000000000      5.367209000000000
C      -0.536874000000000      1.441833000000000      5.678257000000000
C       0.617738000000000      1.467066000000000      4.901218000000000
C       0.758061000000000      0.594111000000000      3.823763000000000
H       0.147938000000000      0.758379000000000      0.477739000000000
C       1.862836000000000      2.235317000000000     -0.996908000000000
H       4.259287000000000      0.784628000000000     -0.755414000000000
H       4.642908000000000     -1.275791000000000      0.515474000000000
H       2.809585000000000     -2.332924000000000      1.801996000000000
H       1.707826000000000     -2.016198000000000      4.418124000000000
H       2.537727000000000     -4.117620000000000      5.430879000000000
H       1.804906000000000     -6.307954000000000      4.526837000000000
H       0.231082000000000     -6.394285000000000      2.610895000000000
H      -0.612068000000000     -4.279837000000000      1.602676000000000
H      -2.236050000000000     -0.991158000000000      4.021249000000000
H      -2.466575000000000      0.526394000000000      5.960811000000000
H      -0.644220000000000      2.122505000000000      6.517329000000000
H       1.416274000000000      2.165374000000000      5.132595000000000
H       1.666296000000000      0.622942000000000      3.229189000000000
Rh     -1.997313000000000     -1.717473000000000      0.827078000000000
C      -1.203716000000000     -1.443949000000000     -0.885152000000000
O      -0.720433000000000     -1.310533000000000     -1.917438000000000
H      -2.662721000000000     -2.036321000000000      2.284249000000000
C      -1.781922000000000      2.962257000000000      2.501437000000000
H      -1.367998000000000      2.036565000000000      2.085161000000000
H      -0.976447000000000      3.705602000000000      2.537641000000000
H      -2.095974000000000      2.744791000000000      3.527407000000000
C      -2.466592000000000      3.780347000000000      0.231806000000000
H      -3.284712000000000      4.149517000000000     -0.395727000000000
H      -1.674635000000000      4.538126000000000      0.248919000000000
H      -2.058297000000000      2.880576000000000     -0.241120000000000
C      -3.440462000000000      4.807841000000000      2.281055000000000
H      -4.261107000000000      5.247887000000000      1.704112000000000
H      -3.779739000000000      4.664516000000000      3.312488000000000
H      -2.617889000000000      5.529999000000000      2.297089000000000
C       1.403243000000000      3.312903000000000      0.000232000000000
H       0.512172000000000      2.995652000000000      0.551903000000000
H       2.191582000000000      3.530265000000000      0.729053000000000
H       1.158159000000000      4.240049000000000     -0.530911000000000
C       3.085431000000000      2.761656000000000     -1.754226000000000
H       3.443748000000000      2.035764000000000     -2.491868000000000
H       2.818120000000000      3.678518000000000     -2.289335000000000
H       3.909901000000000      3.000289000000000     -1.073728000000000
C       0.738498000000000      1.966056000000000     -2.011657000000000
H       0.502794000000000      2.882842000000000     -2.563886000000000
H       1.035679000000000      1.193959000000000     -2.728470000000000
H      -0.178550000000000      1.624395000000000     -1.521055000000000
