96

P      -2.381973000000000     -0.947808000000000     -0.082661000000000
C      -2.452804000000000      0.880543000000000      0.071895000000000
C      -3.385083000000000     -1.543534000000000      1.338313000000000
C      -3.503817000000000     -1.286509000000000     -1.499948000000000
C      -3.367517000000000      1.554502000000000      0.878252000000000
C      -3.335105000000000      2.946516000000000      0.979203000000000
C      -2.394829000000000      3.706027000000000      0.280411000000000
C      -1.487226000000000      3.017239000000000     -0.538414000000000
C      -1.510474000000000      1.633516000000000     -0.641102000000000
C      -4.780381000000000     -1.636218000000000      1.272217000000000
C      -5.510146000000000     -2.062378000000000      2.378732000000000
C      -4.854499000000000     -2.403041000000000      3.559763000000000
C      -3.466478000000000     -2.318558000000000      3.630862000000000
C      -2.733180000000000     -1.895071000000000      2.525304000000000
C      -3.561686000000000     -2.601029000000000     -1.978175000000000
C      -4.402289000000000     -2.931687000000000     -3.034904000000000
C      -5.186400000000000     -1.947686000000000     -3.635713000000000
C      -5.129561000000000     -0.637387000000000     -3.171116000000000
C      -4.294650000000000     -0.306159000000000     -2.104366000000000
H      -4.106331000000000      0.997671000000000      1.447900000000000
H      -4.057603000000000      3.431448000000000      1.626251000000000
C      -2.308885000000000      5.229629000000000      0.391218000000000
H      -0.731918000000000      3.566071000000000     -1.096458000000000
H      -0.773824000000000      1.121948000000000     -1.257939000000000
H      -5.298104000000000     -1.376600000000000      0.352733000000000
H      -6.591758000000000     -2.131530000000000      2.315991000000000
H      -5.424748000000000     -2.738968000000000      4.420388000000000
H      -2.950075000000000     -2.589417000000000      4.546614000000000
H      -1.649375000000000     -1.835560000000000      2.570876000000000
H      -2.941191000000000     -3.367162000000000     -1.517807000000000
H      -4.437958000000000     -3.954509000000000     -3.396452000000000
H      -5.836066000000000     -2.202612000000000     -4.467201000000000
H      -5.736110000000000      0.132740000000000     -3.637725000000000
H      -4.259956000000000      0.717680000000000     -1.743371000000000
P       2.072970000000000     -1.407284000000000      0.146925000000000
C       2.607307000000000      0.348319000000000      0.012031000000000
C       3.237755000000000     -2.244036000000000     -1.006308000000000
C       2.681856000000000     -1.931709000000000      1.794274000000000
C       3.845911000000000      0.726321000000000     -0.509548000000000
C       4.189579000000000      2.073491000000000     -0.626423000000000
C       3.308825000000000      3.085358000000000     -0.237488000000000
C       2.073108000000000      2.693745000000000      0.295541000000000
C       1.725704000000000      1.356378000000000      0.422456000000000
C       3.071675000000000     -1.997747000000000     -2.375854000000000
C       3.903925000000000     -2.602515000000000     -3.309486000000000
C       4.906358000000000     -3.476132000000000     -2.887661000000000
C       5.071778000000000     -3.733789000000000     -1.531382000000000
C       4.244684000000000     -3.117731000000000     -0.591461000000000
C       3.855364000000000     -1.420901000000000      2.356830000000000
C       4.294190000000000     -1.878015000000000      3.596370000000000
C       3.566290000000000     -2.850514000000000      4.279817000000000
C       2.395406000000000     -3.361621000000000      3.725562000000000
C       1.950957000000000     -2.899380000000000      2.489086000000000
H       4.550939000000000     -0.030604000000000     -0.842860000000000
H       5.160764000000000      2.322142000000000     -1.040098000000000
C       3.621367000000000      4.572713000000000     -0.410152000000000
H       1.350692000000000      3.443742000000000      0.609070000000000
H       0.755012000000000      1.086313000000000      0.827162000000000
H       2.285233000000000     -1.322844000000000     -2.708157000000000
H       3.765101000000000     -2.400061000000000     -4.366827000000000
H       5.551821000000000     -3.956288000000000     -3.616484000000000
H       5.847622000000000     -4.415616000000000     -1.196946000000000
H       4.387125000000000     -3.323190000000000      0.465033000000000
H       4.422573000000000     -0.660018000000000      1.826641000000000
H       5.202983000000000     -1.472783000000000      4.030452000000000
H       3.909309000000000     -3.204546000000000      5.247140000000000
H       1.822578000000000     -4.113785000000000      4.259084000000000
H       1.025916000000000     -3.274918000000000      2.055998000000000
Rh     -0.185526000000000     -1.598176000000000     -0.213145000000000
C      -0.196643000000000     -2.540659000000000     -1.868546000000000
O      -0.208585000000000     -3.130955000000000     -2.852728000000000
H      -0.180020000000000     -0.840387000000000      1.237588000000000
C      -0.932795000000000      5.615361000000000      0.961001000000000
H      -0.123498000000000      5.291748000000000      0.298304000000000
H      -0.857548000000000      6.702952000000000      1.071929000000000
H      -0.773289000000000      5.155155000000000      1.942149000000000
C      -2.474101000000000      5.856081000000000     -1.003484000000000
H      -2.409002000000000      6.947810000000000     -0.936632000000000
H      -1.696382000000000      5.515087000000000     -1.693729000000000
H      -3.446337000000000      5.594833000000000     -1.433694000000000
C      -3.389883000000000      5.805121000000000      1.311439000000000
H      -4.395348000000000      5.570878000000000      0.946098000000000
H      -3.295064000000000      5.423069000000000      2.333237000000000
H      -3.293817000000000      6.894843000000000      1.351758000000000
C       3.414365000000000      5.310593000000000      0.923058000000000
H       2.380725000000000      5.236148000000000      1.274783000000000
H       4.066521000000000      4.899672000000000      1.700493000000000
H       3.649273000000000      6.373943000000000      0.802840000000000
C       5.061918000000000      4.811793000000000     -0.873740000000000
H       5.785365000000000      4.397839000000000     -0.163176000000000
H       5.249794000000000      4.367907000000000     -1.856793000000000
H       5.246951000000000      5.887724000000000     -0.954961000000000
C       2.667065000000000      5.153835000000000     -1.467930000000000
H       1.620504000000000      5.028428000000000     -1.170336000000000
H       2.854820000000000      6.224855000000000     -1.604634000000000
H       2.804370000000000      4.652239000000000     -2.431464000000000
