123

Rh      0.740176000000000     -1.657845000000000     -0.770367000000000
O       2.209635000000000      1.355632000000000      0.040289000000000
O       3.115382000000000     -3.223744000000000      0.833142000000000
O       0.132032000000000      1.432509000000000     -1.293648000000000
O       2.379375000000000      0.930594000000000     -2.351869000000000
P       1.416277000000000      0.456913000000000     -1.079036000000000
O       0.894798000000000     -4.124366000000000      1.596737000000000
O       1.618917000000000     -2.014725000000000      2.504662000000000
P       1.569243000000000     -2.721947000000000      1.024656000000000
H      -0.148517000000000     -0.920510000000000      0.291759000000000
C       1.844642000000000     -2.662284000000000     -2.083627000000000
O       2.483255000000000     -3.267511000000000     -2.808369000000000
C      -1.157304000000000     -2.705691000000000     -1.297644000000000
C      -1.113222000000000     -1.501011000000000     -2.000341000000000
C      -0.851053000000000     -1.463898000000000     -3.480783000000000
O      -2.080419000000000     -1.564604000000000     -4.228413000000000
C      -2.723633000000000     -0.405577000000000     -4.447866000000000
C      -3.924786000000000     -0.619846000000000     -5.333171000000000
O      -2.368336000000000      0.659642000000000     -4.005068000000000
H      -0.942722000000000     -3.638503000000000     -1.815045000000000
H      -1.738858000000000     -2.794508000000000     -0.385606000000000
H      -1.641899000000000     -0.632029000000000     -1.615931000000000
H      -0.258476000000000     -2.325220000000000     -3.802898000000000
H      -0.354707000000000     -0.540563000000000     -3.775454000000000
H      -4.547090000000000     -1.423728000000000     -4.934041000000000
H      -3.586410000000000     -0.924024000000000     -6.327705000000000
H      -4.494203000000000      0.305855000000000     -5.401300000000000
C       0.945264000000000     -0.833879000000000      2.751317000000000
C       1.579989000000000      0.371976000000000      2.571750000000000
C      -0.402464000000000     -0.921905000000000      3.171247000000000
C       0.843818000000000      1.577824000000000      2.797747000000000
C      -1.118140000000000      0.224044000000000      3.383727000000000
H      -0.838101000000000     -1.908048000000000      3.297316000000000
C       1.431688000000000      2.859021000000000      2.625245000000000
C      -0.520257000000000      1.499831000000000      3.195214000000000
H      -2.158216000000000      0.172680000000000      3.693042000000000
C       0.698748000000000      4.000967000000000      2.831018000000000
H       2.472171000000000      2.926166000000000      2.323873000000000
C      -1.253575000000000      2.698560000000000      3.394277000000000
C      -0.661498000000000      3.923064000000000      3.215801000000000
H       1.164272000000000      4.971990000000000      2.691607000000000
H      -2.295876000000000      2.625717000000000      3.692814000000000
H      -1.231398000000000      4.833617000000000      3.373350000000000
C       3.260949000000000      0.841841000000000      0.767668000000000
C       4.524919000000000      0.817787000000000      0.242728000000000
C       2.984372000000000      0.396075000000000      2.090229000000000
C       5.610475000000000      0.367564000000000      1.037566000000000
H       4.684651000000000      1.159176000000000     -0.775885000000000
C       4.031424000000000     -0.034754000000000      2.867484000000000
C       6.940230000000000      0.324707000000000      0.541056000000000
C       5.362579000000000     -0.043052000000000      2.377167000000000
H       3.836354000000000     -0.385085000000000      3.878003000000000
C       7.971323000000000     -0.102147000000000      1.337728000000000
H       7.123983000000000      0.635442000000000     -0.483571000000000
C       6.452784000000000     -0.468205000000000      3.182497000000000
C       7.726789000000000     -0.500485000000000      2.675453000000000
H       8.982983000000001     -0.134303000000000      0.946347000000000
H       6.254150000000000     -0.769452000000000      4.208484000000000
H       8.553851999999999     -0.828208000000000      3.297685000000000
C       0.990468000000000     -5.236292000000000      0.784986000000000
C      -0.096881000000000     -5.652682000000000      0.068092000000000
C       2.221927000000000     -5.954073000000000      0.768691000000000
C      -0.018195000000000     -6.813896000000000     -0.741865000000000
H      -1.020839000000000     -5.087329000000000      0.134442000000000
C       2.302873000000000     -7.084978000000000     -0.011891000000000
C      -1.117529000000000     -7.265682000000000     -1.517684000000000
C       1.204752000000000     -7.540240000000000     -0.784994000000000
H       3.239312000000000     -7.635911000000000     -0.052867000000000
C      -1.004652000000000     -8.385932000000000     -2.300664000000000
H      -2.048177000000000     -6.705607000000000     -1.480505000000000
C       1.289639000000000     -8.696637000000001     -1.604261000000000
C       0.212090000000000     -9.110310000000000     -2.344207000000000
H      -1.849832000000000     -8.722769000000000     -2.892390000000000
H       2.226640000000000     -9.246153000000000     -1.634996000000000
H       0.287036000000000     -9.994991000000001     -2.968273000000000
C       3.748459000000000     -4.140898000000000      1.657229000000000
C       4.819034000000000     -3.721593000000000      2.395410000000000
C       3.354485000000000     -5.510270000000000      1.611153000000000
C       5.569477000000000     -4.652425000000000      3.157126000000000
H       5.102419000000000     -2.674355000000000      2.367861000000000
C       4.074269000000000     -6.414386000000000      2.359239000000000
C       6.696883000000000     -4.258806000000000      3.924411000000000
C       5.186386000000000     -6.021923000000000      3.144811000000000
H       3.773492000000000     -7.459221000000000      2.358683000000000
C       7.399053000000000     -5.181771000000000      4.656086000000000
H       6.993930000000000     -3.213731000000000      3.909395000000000
C       5.930455000000000     -6.953523000000000      3.915968000000000
C       7.009867000000000     -6.544257000000000      4.655415000000000
H       8.260272000000001     -4.871959000000000      5.239690000000000
H       5.628761000000000     -7.997508000000000      3.906811000000000
H       7.573494000000000     -7.263342000000000      5.241171000000000
C       0.260771000000000      2.746833000000000     -1.706629000000000
C      -0.018722000000000      3.746514000000000     -0.820376000000000
C       0.584248000000000      2.999116000000000     -3.069600000000000
C       0.001655000000000      5.096059000000000     -1.253316000000000
H      -0.266273000000000      3.493851000000000      0.206937000000000
C       0.599111000000000      4.307295000000000     -3.494565000000000
C      -0.281578000000000      6.169587000000000     -0.369438000000000
C       0.311130000000000      5.381015000000000     -2.612854000000000
H       0.858024000000000      4.528123000000000     -4.527306000000000
C      -0.254172000000000      7.466272000000000     -0.814871000000000
H      -0.522562000000000      5.937849000000000      0.664965000000000
C       0.332836000000000      6.733848000000000     -3.043186000000000
C       0.057267000000000      7.752122000000000     -2.167128000000000
H      -0.472221000000000      8.281509000000000     -0.132121000000000
H       0.572140000000000      6.946951000000000     -4.081670000000000
H       0.076053000000000      8.782802999999999     -2.506594000000000
C       1.821036000000000      0.866168000000000     -3.612681000000000
C       2.177895000000000     -0.145398000000000     -4.462096000000000
C       0.889075000000000      1.879478000000000     -3.991038000000000
C       1.571326000000000     -0.247814000000000     -5.740595000000000
H       2.908698000000000     -0.880271000000000     -4.138106000000000
C       0.301058000000000      1.785366000000000     -5.230222000000000
C       1.863249000000000     -1.316167000000000     -6.627993000000000
C       0.603450000000000      0.723697000000000     -6.121503000000000
H      -0.451820000000000      2.515343000000000     -5.515157000000000
C       1.217752000000000     -1.416684000000000     -7.834194000000000
H       2.599973000000000     -2.056920000000000     -6.328630000000000
C      -0.047641000000000      0.591855000000000     -7.376331000000000
C       0.250726000000000     -0.453146000000000     -8.212844000000000
H       1.443535000000000     -2.240479000000000     -8.503776000000000
H      -0.789556000000000      1.334521000000000     -7.657624000000000
H      -0.253868000000000     -0.547397000000000     -9.169093000000000
