85

C      -2.095415000000000     -2.294628000000000      1.578241000000000
C      -1.450130000000000     -1.094121000000000      1.268463000000000
C      -0.421512000000000     -0.625235000000000      2.118656000000000
C      -0.108273000000000     -1.368403000000000      3.260855000000000
C      -0.743668000000000     -2.571574000000000      3.549409000000000
C      -1.740581000000000     -3.037119000000000      2.701730000000000
H      -2.897761000000000     -2.654152000000000      0.941985000000000
H      -0.463372000000000     -3.134263000000000      4.433842000000000
H      -2.254672000000000     -3.968757000000000      2.915155000000000
C       0.265393000000000      0.702583000000000      1.955091000000000
C      -0.082327000000000      1.680761000000000      2.896128000000000
C       1.216632000000000      1.027075000000000      0.962466000000000
C       0.431070000000000      2.970725000000000      2.838483000000000
C       1.728055000000000      2.330354000000000      0.917544000000000
C       1.334413000000000      3.299553000000000      1.834244000000000
H       0.113646000000000      3.714128000000000      3.563283000000000
H       2.444488000000000      2.595302000000000      0.146857000000000
H       1.738684000000000      4.304349000000000      1.763329000000000
P      -1.828277000000000     -0.177665000000000     -0.291556000000000
P       1.695099000000000     -0.163766000000000     -0.362641000000000
C       3.255997000000000      0.542634000000000     -1.037588000000000
C       4.372538000000000      0.779002000000000     -0.223450000000000
C       3.356069000000000      0.781340000000000     -2.407159000000000
C       5.556865000000000      1.256183000000000     -0.766831000000000
H       4.320260000000000      0.588457000000000      0.845563000000000
C       4.544265000000000      1.245888000000000     -2.971793000000000
H       2.508456000000000      0.591945000000000     -3.054674000000000
C       5.629583000000000      1.482644000000000     -2.141524000000000
H       6.421277000000000      1.442802000000000     -0.139753000000000
H       4.606341000000000      1.402227000000000     -4.042520000000000
Br      7.253334000000000      2.114061000000000     -2.881708000000000
C       2.416914000000000     -1.573102000000000      0.583241000000000
C       2.808514000000000     -1.479972000000000      1.921562000000000
C       2.659525000000000     -2.766480000000000     -0.103031000000000
C       3.400458000000000     -2.558640000000000      2.570963000000000
H       2.648071000000000     -0.556442000000000      2.471512000000000
C       3.255729000000000     -3.852263000000000      0.529768000000000
H       2.391074000000000     -2.850768000000000     -1.152757000000000
C       3.613144000000000     -3.739188000000000      1.868404000000000
H       3.695213000000000     -2.485735000000000      3.611863000000000
H       3.437968000000000     -4.775964000000000     -0.007242000000000
Br      4.406135000000000     -5.213885000000000      2.748448000000000
C      -2.239929000000000      1.475851000000000      0.399733000000000
C      -3.044994000000000      1.581039000000000      1.542546000000000
C      -1.696880000000000      2.633659000000000     -0.154108000000000
C      -3.298398000000000      2.815673000000000      2.125218000000000
H      -3.461928000000000      0.683930000000000      1.995307000000000
C      -1.933929000000000      3.878741000000000      0.426643000000000
H      -1.055943000000000      2.559963000000000     -1.027535000000000
C      -2.726199000000000      3.954909000000000      1.563605000000000
H      -3.914181000000000      2.897507000000000      3.013842000000000
H      -1.491844000000000      4.776416000000000      0.009375000000000
Br     -3.007195000000000      5.633543000000000      2.389980000000000
C      -3.479271000000000     -0.808661000000000     -0.823216000000000
C      -4.660815000000000     -0.069891000000000     -0.707305000000000
C      -3.541490000000000     -2.058292000000000     -1.456884000000000
C      -5.871056000000000     -0.568799000000000     -1.184687000000000
H      -4.652655000000000      0.914300000000000     -0.253159000000000
C      -4.744464000000000     -2.576914000000000     -1.919628000000000
H      -2.636963000000000     -2.642059000000000     -1.596706000000000
C      -5.905386000000000     -1.822748000000000     -1.778797000000000
H      -6.779975000000000      0.015151000000000     -1.094704000000000
H      -4.780231000000000     -3.549038000000000     -2.397871000000000
Br     -7.545612000000000     -2.509269000000000     -2.419605000000000
H       0.007873000000000      1.051113000000000     -1.947495000000000
H       0.659218000000000     -0.989871000000000      3.930611000000000
H      -0.805859000000000      1.420639000000000      3.663731000000000
Rh     -0.086465000000000     -0.522803000000000     -1.838290000000000
C      -0.127711000000000     -2.471318000000000     -1.765737000000000
O      -0.169054000000000     -3.615413000000000     -1.720328000000000
C      -1.032998000000000     -0.473291000000000     -3.788697000000000
C       0.363133000000000     -0.352605000000000     -3.959403000000000
C       1.211114000000000     -1.471194000000000     -4.494218000000000
O       1.412148000000000     -1.347370000000000     -5.921975000000000
C       2.306643000000000     -0.425964000000000     -6.300889000000000
C       2.428893000000000     -0.368175000000000     -7.801012000000000
O       2.928604000000000      0.266973000000000     -5.527772000000000
H      -1.525941000000000     -1.417023000000000     -4.016748000000000
H      -1.669152000000000      0.401463000000000     -3.878115000000000
H       0.763547000000000      0.636647000000000     -4.164981000000000
H       0.714167000000000     -2.437049000000000     -4.371704000000000
H       2.196920000000000     -1.501608000000000     -4.020220000000000
H       1.470331000000000     -0.067483000000000     -8.231919000000000
H       2.670983000000000     -1.358856000000000     -8.192715000000000
H       3.202420000000000      0.347691000000000     -8.074239000000000
