93

C      -2.053108000000000     -2.047347000000000      1.673445000000000
C      -1.399105000000000     -0.873817000000000      1.287896000000000
C      -0.348882000000000     -0.373610000000000      2.092455000000000
C      -0.016758000000000     -1.062661000000000      3.262879000000000
C      -0.658296000000000     -2.242561000000000      3.624904000000000
C      -1.681330000000000     -2.736068000000000      2.825443000000000
H      -2.876126000000000     -2.427771000000000      1.077695000000000
H      -0.363916000000000     -2.763486000000000      4.530044000000000
H      -2.203213000000000     -3.647557000000000      3.098559000000000
C       0.336961000000000      0.942931000000000      1.852463000000000
C       0.007885000000000      1.964561000000000      2.753231000000000
C       1.269136000000000      1.218789000000000      0.827781000000000
C       0.524338000000000      3.248104000000000      2.626885000000000
C       1.779827000000000      2.517765000000000      0.710465000000000
C       1.406937000000000      3.528622000000000      1.589914000000000
H       0.228942000000000      4.021784000000000      3.328784000000000
H       2.481621000000000      2.745795000000000     -0.085063000000000
H       1.815240000000000      4.526770000000000      1.466859000000000
P      -1.793346000000000     -0.027383000000000     -0.306623000000000
P       1.718491000000000     -0.032337000000000     -0.449815000000000
C       3.275378000000000      0.636333000000000     -1.180217000000000
C       4.401321000000000      0.916840000000000     -0.385888000000000
C       3.349933000000000      0.797587000000000     -2.562119000000000
C       5.573212000000000      1.363402000000000     -0.971630000000000
H       4.352614000000000      0.783122000000000      0.691823000000000
C       4.535374000000000      1.231867000000000     -3.156332000000000
H       2.490901000000000      0.572951000000000     -3.181983000000000
C       5.640812000000000      1.518862000000000     -2.362731000000000
H       6.453830000000000      1.590160000000000     -0.378598000000000
H       4.580630000000000      1.330722000000000     -4.237973000000000
C       6.901781000000000      1.984650000000000     -2.991435000000000
C       2.460597000000000     -1.404772000000000      0.537848000000000
C       2.686537000000000     -2.621349000000000     -0.112839000000000
C       2.872415000000000     -1.254391000000000      1.869191000000000
C       3.290680000000000     -3.677868000000000      0.560247000000000
H       2.397594000000000     -2.738633000000000     -1.153756000000000
C       3.468647000000000     -2.309119000000000      2.544582000000000
H       2.720218000000000     -0.305852000000000      2.376948000000000
C       3.672929000000000     -3.527117000000000      1.892050000000000
H       3.461474000000000     -4.623736000000000      0.051673000000000
H       3.786380000000000     -2.213044000000000      3.578499000000000
C       4.300675000000000     -4.658204000000000      2.617816000000000
C      -2.200050000000000      1.659267000000000      0.313352000000000
C      -3.005429000000000      1.809051000000000      1.456295000000000
C      -1.675358000000000      2.787408000000000     -0.313563000000000
C      -3.276922000000000      3.068895000000000      1.962144000000000
H      -3.404725000000000      0.926312000000000      1.950969000000000
C      -1.941628000000000      4.055887000000000      0.201449000000000
H      -1.038613000000000      2.668161000000000     -1.184658000000000
C      -2.736505000000000      4.197660000000000      1.334702000000000
H      -3.892413000000000      3.207576000000000      2.845805000000000
H      -1.518540000000000      4.937079000000000     -0.275604000000000
C      -2.998028000000000      5.547918000000000      1.891216000000000
C      -3.453383000000000     -0.669872000000000     -0.797668000000000
C      -4.605896000000000      0.122193000000000     -0.790250000000000
C      -3.537098000000000     -1.979322000000000     -1.306091000000000
C      -5.814810000000000     -0.389968000000000     -1.257083000000000
H      -4.568958000000000      1.143465000000000     -0.429388000000000
C      -4.743262000000000     -2.495194000000000     -1.750542000000000
H      -2.646513000000000     -2.598392000000000     -1.354964000000000
C      -5.890850000000000     -1.696697000000000     -1.728378000000000
H      -6.705133000000000      0.234718000000000     -1.251717000000000
H      -4.818312000000000     -3.508626000000000     -2.132459000000000
C      -7.181846000000000     -2.239766000000000     -2.217495000000000
H       0.016526000000000      1.124346000000000     -2.048578000000000
H       0.768414000000000     -0.659761000000000      3.896809000000000
H      -0.700568000000000      1.742380000000000      3.546275000000000
Rh     -0.089547000000000     -0.442936000000000     -1.875554000000000
C      -0.140867000000000     -2.388863000000000     -1.726991000000000
O      -0.181651000000000     -3.529680000000000     -1.634049000000000
O      -7.324140000000000     -3.362722000000000     -2.638833000000000
H      -8.036770000000001     -1.533417000000000     -2.172106000000000
O      -3.654796000000000      5.753233000000000      2.884163000000000
H      -2.537756000000000      6.386015000000000      1.327443000000000
O       7.902509000000000      2.262886000000000     -2.373886000000000
H       6.871339000000000      2.066309000000000     -4.097594000000000
O       4.647627000000000     -4.608912000000000      3.774027000000000
H       4.437056000000000     -5.583145000000000      2.019743000000000
C      -1.078378000000000     -0.458462000000000     -3.806438000000000
C       0.314645000000000     -0.362573000000000     -4.011782000000000
C       1.136828000000000     -1.512770000000000     -4.519687000000000
O       1.313885000000000     -1.442354000000000     -5.954044000000000
C       2.219998000000000     -0.555099000000000     -6.382269000000000
C       2.311419000000000     -0.550492000000000     -7.885577000000000
O       2.873666000000000      0.149306000000000     -5.645944000000000
H      -1.588072000000000     -1.404058000000000     -3.983638000000000
H      -1.705461000000000      0.420601000000000     -3.915833000000000
H       0.723427000000000      0.612483000000000     -4.263981000000000
H       0.627732000000000     -2.465714000000000     -4.354056000000000
H       2.130241000000000     -1.541432000000000     -4.061897000000000
H       1.350515000000000     -0.243279000000000     -8.306521000000000
H       2.523464000000000     -1.558865000000000     -8.248452000000000
H       3.093951000000000      0.138427000000000     -8.199425000000000
