85

C      -2.069076000000000     -2.183038000000000      1.586721000000000
C      -1.419729000000000     -0.987703000000000      1.265519000000000
C      -0.394079000000000     -0.510946000000000      2.114764000000000
C      -0.087009000000000     -1.241306000000000      3.266826000000000
C      -0.726232000000000     -2.439688000000000      3.566744000000000
C      -1.720752000000000     -2.912919000000000      2.720479000000000
H      -2.869465000000000     -2.548208000000000      0.951219000000000
H      -0.450962000000000     -2.992563000000000      4.458926000000000
H      -2.237973000000000     -3.840735000000000      2.942855000000000
C       0.294744000000000      0.814194000000000      1.938734000000000
C      -0.056838000000000      1.803504000000000      2.866530000000000
C       1.250963000000000      1.126257000000000      0.946953000000000
C       0.458547000000000      3.092013000000000      2.796737000000000
C       1.762942000000000      2.428781000000000      0.888758000000000
C       1.366177000000000      3.408750000000000      1.792533000000000
H       0.141256000000000      3.842959000000000      3.513710000000000
H       2.482974000000000      2.684252000000000      0.118256000000000
H       1.771994000000000      4.412198000000000      1.712117000000000
P      -1.787436000000000     -0.089841000000000     -0.307489000000000
P       1.736817000000000     -0.080844000000000     -0.360882000000000
C       3.300016000000000      0.618745000000000     -1.036721000000000
C       4.413179000000000      0.864570000000000     -0.220677000000000
C       3.404887000000000      0.845370000000000     -2.408089000000000
C       5.598014000000000      1.340619000000000     -0.763348000000000
H       4.356909000000000      0.682826000000000      0.849624000000000
C       4.593361000000000      1.308385000000000     -2.972505000000000
H       2.559846000000000      0.647798000000000     -3.056380000000000
C       5.674874000000000      1.556233000000000     -2.139954000000000
H       6.461090000000000      1.535814000000000     -0.136446000000000
H       4.661465000000000      1.456083000000000     -4.044409000000000
Cl      7.169581000000000      2.139991000000000     -2.820035000000000
C       2.452329000000000     -1.478697000000000      0.606113000000000
C       2.695924000000000     -2.681188000000000     -0.063751000000000
C       2.839161000000000     -1.368772000000000      1.944646000000000
C       3.288591000000000     -3.759274000000000      0.584709000000000
H       2.430989000000000     -2.778027000000000     -1.113216000000000
C       3.427618000000000     -2.439155000000000      2.610310000000000
H       2.677373000000000     -0.437820000000000      2.481499000000000
C       3.641348000000000     -3.629071000000000      1.923346000000000
H       3.472828000000000     -4.691264000000000      0.062205000000000
H       3.720046000000000     -2.355215000000000      3.651444000000000
Cl      4.368465000000000     -4.977120000000000      2.752739000000000
C      -2.202141000000000      1.573099000000000      0.358069000000000
C      -3.013675000000000      1.695296000000000      1.494648000000000
C      -1.663281000000000      2.723624000000000     -0.214950000000000
C      -3.282532000000000      2.939400000000000      2.049101000000000
H      -3.426458000000000      0.804050000000000      1.962495000000000
C      -1.915330000000000      3.978531000000000      0.337079000000000
H      -1.016596000000000      2.636586000000000     -1.082823000000000
C      -2.718882000000000      4.072163000000000      1.465145000000000
H      -3.905967000000000      3.036955000000000      2.931171000000000
H      -1.480575000000000      4.872843000000000     -0.095499000000000
Cl     -3.011396000000000      5.633383000000000      2.180971000000000
C      -3.435905000000000     -0.725438000000000     -0.841696000000000
C      -4.617158000000000      0.016378000000000     -0.742973000000000
C      -3.495746000000000     -1.982829000000000     -1.460198000000000
C      -5.824841000000000     -0.486154000000000     -1.222316000000000
H      -4.609816000000000      1.006064000000000     -0.301010000000000
C      -4.695940000000000     -2.505877000000000     -1.924497000000000
H      -2.590821000000000     -2.569023000000000     -1.586357000000000
C      -5.856667000000000     -1.747777000000000     -1.800866000000000
H      -6.734875000000000      0.098884000000000     -1.147684000000000
H      -4.732086000000000     -3.483663000000000     -2.391929000000000
Cl     -7.363755000000000     -2.384581000000000     -2.394485000000000
H       0.058876000000000      1.116726000000000     -1.967793000000000
H       0.678437000000000     -0.856484000000000      3.935329000000000
H      -0.784099000000000      1.552809000000000      3.633765000000000
Rh     -0.037879000000000     -0.455760000000000     -1.841299000000000
C      -0.081489000000000     -2.403020000000000     -1.746541000000000
O      -0.124377000000000     -3.546537000000000     -1.688281000000000
C      -0.975634000000000     -0.427805000000000     -3.795919000000000
C       0.421351000000000     -0.308957000000000     -3.961690000000000
C       1.272007000000000     -1.433080000000000     -4.480189000000000
O       1.479802000000000     -1.324978000000000     -5.908340000000000
C       2.376165000000000     -0.407980000000000     -6.293262000000000
C       2.504958000000000     -0.366429000000000     -7.793397000000000
O       2.994885000000000      0.293388000000000     -5.525100000000000
H      -1.467490000000000     -1.374037000000000     -4.015822000000000
H      -1.611447000000000      0.445788000000000     -3.898292000000000
H       0.822456000000000      0.677996000000000     -4.176614000000000
H       0.774812000000000     -2.397715000000000     -4.349300000000000
H       2.255567000000000     -1.457871000000000     -4.001261000000000
H       1.548511000000000     -0.069617000000000     -8.231645000000000
H       2.747907000000000     -1.361420000000000     -8.173457000000001
H       3.280205000000000      0.345896000000000     -8.070982000000001
