89

C       2.236739000000000      0.402618000000000     -2.482789000000000
C       1.634565000000000      0.468783000000000     -1.223284000000000
C       0.806474000000000      1.572517000000000     -0.911245000000000
C       0.641852000000000      2.575600000000000     -1.871567000000000
C       1.228350000000000      2.489136000000000     -3.129915000000000
C       2.028662000000000      1.396082000000000     -3.436254000000000
H       2.892081000000000     -0.427249000000000     -2.725482000000000
H       1.066597000000000      3.276388000000000     -3.858798000000000
H       2.505191000000000      1.317164000000000     -4.407955000000000
C       0.211652000000000      1.818561000000000      0.448074000000000
C       0.793713000000000      2.863770000000000      1.178082000000000
C      -0.864465000000000      1.108587000000000      1.026047000000000
C       0.385430000000000      3.174013000000000      2.469532000000000
C      -1.263611000000000      1.429606000000000      2.329996000000000
C      -0.641983000000000      2.441662000000000      3.053717000000000
H       0.875567000000000      3.973343000000000      3.016607000000000
H      -2.073891000000000      0.875566000000000      2.792485000000000
H      -0.968189000000000      2.659086000000000      4.065727000000000
P       1.801407000000000     -0.907516000000000     -0.001666000000000
P      -1.657046000000000     -0.326125000000000      0.181981000000000
C      -3.255630000000000     -0.530019000000000      1.081308000000000
C      -4.180848000000000      0.518943000000000      1.189024000000000
C      -3.577493000000000     -1.782786000000000      1.600741000000000
C      -5.399340000000000      0.317828000000000      1.817090000000000
H      -3.946894000000000      1.498277000000000      0.779906000000000
C      -4.805390000000000     -2.002913000000000      2.221407000000000
H      -2.877123000000000     -2.604042000000000      1.512460000000000
C      -5.712285000000000     -0.949016000000000      2.332849000000000
H      -6.117197000000000      1.126042000000000      1.906480000000000
H      -5.045304000000000     -2.990299000000000      2.600251000000000
C      -6.984412000000000     -1.157511000000000      2.974800000000000
C      -2.329340000000000      0.411128000000000     -1.372271000000000
C      -2.794461000000000     -0.465955000000000     -2.357797000000000
C      -2.462177000000000      1.788561000000000     -1.573197000000000
C      -3.357926000000000      0.015344000000000     -3.532133000000000
H      -2.724853000000000     -1.539075000000000     -2.201940000000000
C      -3.018678000000000      2.283370000000000     -2.745595000000000
H      -2.124625000000000      2.483223000000000     -0.809212000000000
C      -3.461215000000000      1.395536000000000     -3.730916000000000
H      -3.714020000000000     -0.667554000000000     -4.295630000000000
H      -3.114141000000000      3.352350000000000     -2.904325000000000
C      -4.026592000000000      1.906593000000000     -4.951756000000000
C       2.473740000000000      0.023540000000000      1.439237000000000
C       3.485817000000000      0.976018000000000      1.248376000000000
C       1.941288000000000     -0.165807000000000      2.713549000000000
C       3.955146000000000      1.730347000000000      2.312432000000000
H       3.895430000000000      1.137367000000000      0.253870000000000
C       2.396362000000000      0.595036000000000      3.787165000000000
H       1.146088000000000     -0.890435000000000      2.858773000000000
C       3.399993000000000      1.544115000000000      3.585562000000000
H       4.734587000000000      2.470977000000000      2.168410000000000
H       1.969274000000000      0.464592000000000      4.775692000000000
C       3.850886000000000      2.354988000000000      4.686051000000000
C       3.274459000000000     -1.870649000000000     -0.562591000000000
C       3.131510000000000     -2.709496000000000     -1.679156000000000
C       4.489306000000000     -1.885624000000000      0.131003000000000
C       4.179538000000000     -3.503416000000000     -2.119852000000000
H       2.187423000000000     -2.746804000000000     -2.213427000000000
C       5.540818000000000     -2.693671000000000     -0.289942000000000
H       4.626148000000000     -1.273415000000000      1.014707000000000
C       5.392511000000000     -3.496879000000000     -1.421682000000000
H       4.061993000000000     -4.138204000000000     -2.991354000000000
H       6.477678000000000     -2.702468000000000      0.256538000000000
C       6.482006000000000     -4.325884000000000     -1.864957000000000
H      -0.186653000000000     -1.893410000000000      1.648207000000000
H       0.034815000000000      3.440689000000000     -1.618376000000000
H       1.610938000000000      3.415733000000000      0.722118000000000
Rh     -0.195817000000000     -2.145328000000000      0.088134000000000
C      -0.304937000000000     -2.508182000000000     -1.827760000000000
O      -0.357190000000000     -2.715028000000000     -2.952786000000000
N       7.358431000000000     -4.990453000000000     -2.223390000000000
N       4.206032000000000      3.015470000000000      5.567033000000000
N      -8.007000000000000     -1.318252000000000      3.491336000000000
N      -4.477357000000000      2.321248000000000     -5.933213000000000
C       0.413059000000000     -4.179122000000000      0.548635000000000
C      -0.978173000000000     -4.068067000000000      0.749690000000000
C      -1.980962000000000     -4.673295000000000     -0.192348000000000
O      -2.424625000000000     -5.967649000000000      0.271772000000000
C      -3.314025000000000     -5.947289000000000      1.273636000000000
C      -3.705331000000000     -7.340575000000000      1.687306000000000
O      -3.737170000000000     -4.929072000000000      1.773305000000000
H       0.793184000000000     -4.688963000000000     -0.335089000000000
H       1.086651000000000     -4.184436000000000      1.399572000000000
H      -1.336435000000000     -3.975645000000000      1.771615000000000
H      -1.534172000000000     -4.870289000000000     -1.170383000000000
H      -2.865074000000000     -4.039936000000000     -0.313062000000000
H      -2.823882000000000     -7.870597000000000      2.057435000000000
H      -4.083722000000000     -7.891898000000000      0.823400000000000
H      -4.464433000000000     -7.287717000000000      2.465947000000000
