97

C       1.772406000000000      0.933723000000000     -2.254652000000000
C       1.360038000000000      0.728887000000000     -0.931457000000000
C       0.508752000000000      1.678513000000000     -0.330257000000000
C       0.194752000000000      2.849312000000000     -1.026880000000000
C       0.632557000000000      3.054303000000000     -2.329755000000000
C       1.405668000000000      2.079439000000000     -2.953321000000000
H       2.388622000000000      0.188418000000000     -2.749187000000000
H       0.351564000000000      3.958519000000000     -2.860344000000000
H       1.732385000000000      2.210522000000000     -3.979968000000000
C      -0.090396000000000      1.469442000000000      1.024939000000000
C       0.371511000000000      2.266078000000000      2.078170000000000
C      -1.071054000000000      0.488462000000000      1.281784000000000
C      -0.060717000000000      2.061867000000000      3.382389000000000
C      -1.479479000000000      0.277928000000000      2.604622000000000
C      -0.976619000000000      1.048086000000000      3.647743000000000
H       0.332972000000000      2.674981000000000      4.187000000000000
H      -2.200476000000000     -0.503739000000000      2.824036000000000
H      -1.304935000000000      0.856701000000000      4.664500000000000
P       1.738025000000000     -0.868418000000000     -0.088579000000000
P      -1.699532000000000     -0.634125000000000     -0.049269000000000
C      -3.378600000000000     -1.108289000000000      0.559077000000000
C      -4.246120000000000     -0.214707000000000      1.205946000000000
C      -3.818289000000000     -2.407103000000000      0.297392000000000
C      -5.521881000000000     -0.613805000000000      1.577153000000000
H      -3.919594000000000      0.791791000000000      1.446305000000000
C      -5.098494000000000     -2.814305000000000      0.665162000000000
H      -3.161504000000000     -3.117125000000000     -0.188936000000000
C      -5.949923000000000     -1.916804000000000      1.303343000000000
H      -6.188718000000000      0.077791000000000      2.079952000000000
H      -5.426306000000000     -3.828691000000000      0.464719000000000
C      -7.309082000000000     -2.389186000000000      1.683867000000000
C      -2.170137000000000      0.578987000000000     -1.369395000000000
C      -1.878333000000000      0.280814000000000     -2.699724000000000
C      -2.812575000000000      1.788952000000000     -1.069286000000000
C      -2.208298000000000      1.171360000000000     -3.719497000000000
H      -1.377739000000000     -0.649483000000000     -2.945002000000000
C      -3.148229000000000      2.677576000000000     -2.077935000000000
H      -3.018659000000000      2.055122000000000     -0.037167000000000
C      -2.841904000000000      2.371266000000000     -3.406876000000000
H      -1.969368000000000      0.938007000000000     -4.751185000000000
H      -3.638194000000000      3.620956000000000     -1.859391000000000
C      -3.201688000000000      3.369065000000000     -4.449339000000000
C       2.290747000000000     -0.339447000000000      1.592411000000000
C       1.798941000000000     -1.004951000000000      2.714333000000000
C       3.201385000000000      0.713451000000000      1.759766000000000
C       2.199726000000000     -0.621259000000000      3.992962000000000
H       1.084760000000000     -1.812385000000000      2.583778000000000
C       3.604132000000000      1.096796000000000      3.028617000000000
H       3.576215000000000      1.253800000000000      0.895743000000000
C       3.100022000000000      0.429604000000000      4.148990000000000
H       1.808449000000000     -1.131524000000000      4.866261000000000
H       4.302139000000000      1.914206000000000      3.177431000000000
C       3.547721000000000      0.892554000000000      5.489699000000000
C       3.361339000000000     -1.373886000000000     -0.812251000000000
C       4.373180000000000     -0.473912000000000     -1.177670000000000
C       3.601794000000000     -2.746239000000000     -0.923586000000000
C       5.593018000000000     -0.940429000000000     -1.645314000000000
H       4.202209000000000      0.596415000000000     -1.119729000000000
C       4.827740000000000     -3.219359000000000     -1.384420000000000
H       2.816640000000000     -3.442257000000000     -0.644416000000000
C       5.822628000000000     -2.314212000000000     -1.747436000000000
H       6.382863000000000     -0.256345000000000     -1.937665000000000
H       5.010353000000000     -4.284980000000000     -1.467397000000000
C       7.149519000000000     -2.758727000000000     -2.255490000000000
H      -0.306327000000000     -2.406032000000000      1.155484000000000
H      -0.445310000000000      3.583190000000000     -0.545153000000000
H       1.118803000000000      3.025096000000000      1.863644000000000
Rh     -0.089560000000000     -2.361664000000000     -0.406376000000000
C       0.261233000000000     -2.413306000000000     -2.334485000000000
O       0.562077000000000     -2.460855000000000     -3.437901000000000
O       8.039567000000000     -2.014394000000000     -2.588762000000000
O       7.268434000000000     -4.098740000000000     -2.310096000000000
H       8.161911999999999     -4.278800000000000     -2.650775000000000
O       4.308377000000000      1.810991000000000      5.680617000000000
O       3.010854000000000      0.180389000000000      6.499732000000000
H       3.371181000000000      0.560543000000000      7.319658000000000
O      -7.738648000000000     -3.497213000000000      1.474911000000000
O      -8.041245000000000     -1.438975000000000      2.301839000000000
H      -8.900416000000000     -1.850001000000000      2.500056000000000
O      -3.729156000000000      4.432935000000000     -4.228880000000000
O      -2.873400000000000      2.971906000000000     -5.694200000000000
H      -3.154934000000000      3.687886000000000     -6.289797000000000
C       0.459444000000000     -4.434571000000000     -0.139416000000000
C      -0.942124000000000     -4.339745000000000     -0.315204000000000
C      -1.577516000000000     -4.813458000000000     -1.594776000000000
O      -2.014693000000000     -6.186982000000000     -1.488703000000000
C      -3.173330000000000     -6.375297000000000     -0.843524000000000
C      -3.526010000000000     -7.837102000000000     -0.765352000000000
O      -3.839398000000000     -5.475567000000000     -0.385640000000000
H       1.060876000000000     -4.832594000000000     -0.956104000000000
H       0.877244000000000     -4.598461000000000      0.849027000000000
H      -1.585069000000000     -4.416323000000000      0.558642000000000
H      -0.847927000000000     -4.824792000000000     -2.408521000000000
H      -2.438416000000000     -4.207164000000000     -1.890279000000000
H      -2.763134000000000     -8.363947000000000     -0.186170000000000
H      -3.538182000000000     -8.270752000000000     -1.768000000000000
H      -4.499422000000000     -7.949100000000000     -0.290664000000000
