109

C       1.611936000000000      1.082505000000000     -2.263897000000000
C       1.252043000000000      0.891639000000000     -0.923387000000000
C       0.418824000000000      1.845657000000000     -0.303519000000000
C       0.067917000000000      3.003015000000000     -1.004673000000000
C       0.455801000000000      3.194175000000000     -2.325102000000000
C       1.211723000000000      2.216145000000000     -2.963869000000000
H       2.216608000000000      0.335011000000000     -2.768948000000000
H       0.153800000000000      4.091661000000000     -2.855322000000000
H       1.500366000000000      2.336134000000000     -4.003640000000000
C      -0.115283000000000      1.666244000000000      1.082604000000000
C       0.381218000000000      2.504658000000000      2.086195000000000
C      -1.068678000000000      0.682040000000000      1.415844000000000
C       0.009768000000000      2.342021000000000      3.414581000000000
C      -1.411110000000000      0.510553000000000      2.762828000000000
C      -0.874849000000000      1.323452000000000      3.755706000000000
H       0.422813000000000      2.993417000000000      4.178258000000000
H      -2.110796000000000     -0.272373000000000      3.038966000000000
H      -1.155392000000000      1.163407000000000      4.792390000000000
P       1.690170000000000     -0.687237000000000     -0.070297000000000
P      -1.756621000000000     -0.481911000000000      0.149815000000000
C      -3.383903000000000     -0.961438000000000      0.868068000000000
C      -4.241710000000000     -0.061013000000000      1.516516000000000
C      -3.811056000000000     -2.279634000000000      0.703691000000000
C      -5.483004000000000     -0.476632000000000      1.978955000000000
H      -3.931088000000000      0.964537000000000      1.691134000000000
C      -5.058819000000000     -2.692963000000000      1.166403000000000
H      -3.165693000000000     -3.001392000000000      0.219259000000000
C      -5.911636000000000     -1.798293000000000      1.809808000000000
H      -6.131744000000000      0.233765000000000      2.486847000000000
H      -5.348000000000000     -3.731168000000000      1.027847000000000
C      -7.284770000000000     -2.226574000000000      2.264498000000000
C      -2.288793000000000      0.686580000000000     -1.179458000000000
C      -2.045374000000000      0.364715000000000     -2.513550000000000
C      -2.939350000000000      1.893959000000000     -0.894914000000000
C      -2.438571000000000      1.223268000000000     -3.538379000000000
H      -1.537931000000000     -0.562240000000000     -2.758672000000000
C      -3.333145000000000      2.745439000000000     -1.918034000000000
H      -3.113299000000000      2.188943000000000      0.135854000000000
C      -3.088745000000000      2.423188000000000     -3.257254000000000
H      -2.232936000000000      0.954427000000000     -4.572044000000000
H      -3.834817000000000      3.680493000000000     -1.677663000000000
C      -3.456211000000000      3.381130000000000     -4.363166000000000
C       2.324776000000000     -0.122181000000000      1.563010000000000
C       3.193646000000000      0.969961000000000      1.676855000000000
C       1.951566000000000     -0.805704000000000      2.719414000000000
C       3.672897000000000      1.364018000000000      2.918383000000000
H       3.476609000000000      1.535736000000000      0.793357000000000
C       2.436152000000000     -0.404992000000000      3.963177000000000
H       1.268343000000000     -1.646582000000000      2.642675000000000
C       3.301170000000000      0.681162000000000      4.081691000000000
H       4.343213000000000      2.217745000000000      2.991917000000000
H       2.130332000000000     -0.944615000000000      4.856770000000000
C       3.765000000000000      1.154428000000000      5.436843000000000
C       3.256219000000000     -1.197376000000000     -0.898839000000000
C       4.269100000000000     -0.303819000000000     -1.273079000000000
C       3.469794000000000     -2.562921000000000     -1.098222000000000
C       5.452658000000000     -0.769386000000000     -1.830389000000000
H       4.124970000000000      0.766109000000000     -1.155677000000000
C       4.662262000000000     -3.024972000000000     -1.651190000000000
H       2.690632000000000     -3.263285000000000     -0.813293000000000
C       5.669298000000000     -2.137527000000000     -2.027099000000000
H       6.223773000000000     -0.060509000000000     -2.123663000000000
H       4.807803000000000     -4.092596000000000     -1.798559000000000
C       6.981992000000000     -2.637809000000000     -2.576687000000000
H      -0.264901000000000     -2.182766000000000      1.337027000000000
H      -0.560802000000000      3.737589000000000     -0.509088000000000
H       1.107415000000000      3.265127000000000      1.812018000000000
Rh     -0.142763000000000     -2.204772000000000     -0.234742000000000
C       0.090946000000000     -2.328847000000000     -2.174384000000000
O       0.325428000000000     -2.422296000000000     -3.291828000000000
H       6.821252000000000     -3.579031000000000     -3.113627000000000
H       7.375437000000000     -1.918666000000000     -3.303840000000000
C       8.010412000000001     -2.852478000000000     -1.459883000000000
H       8.196802999999999     -1.917284000000000     -0.923038000000000
H       7.642552000000000     -3.584406000000000     -0.734521000000000
H       8.961036999999999     -3.213671000000000     -1.862666000000000
H       3.845772000000000      0.299736000000000      6.117384000000000
H       4.765766000000000      1.592919000000000      5.354622000000000
C       2.798972000000000      2.188040000000000      6.026953000000000
H       1.794218000000000      1.762428000000000      6.118594000000000
H       3.125915000000000      2.519792000000000      7.016714000000000
H       2.732137000000000      3.065234000000000      5.374969000000000
H      -7.264218000000000     -3.285667000000000      2.543303000000000
H      -7.570551000000000     -1.664287000000000      3.160819000000000
C      -8.331151000000000     -2.006306000000000      1.165749000000000
H      -8.071068000000000     -2.577993000000000      0.269843000000000
H      -9.325704999999999     -2.318363000000000      1.497850000000000
H      -8.377566000000000     -0.949646000000000      0.884452000000000
H      -3.696254000000000      2.818847000000000     -5.272223000000000
H      -4.357563000000000      3.938889000000000     -4.085713000000000
C      -2.315765000000000      4.362545000000000     -4.655808000000000
H      -2.084003000000000      4.956307000000000     -3.765324000000000
H      -1.408707000000000      3.819454000000000     -4.941167000000000
H      -2.578005000000000      5.048107000000000     -5.466868000000000
C       0.455268000000000     -4.252946000000000      0.082804000000000
C      -0.958294000000000     -4.183388000000000     -0.001287000000000
C      -1.667894000000000     -4.725014000000000     -1.211386000000000
O      -2.041248000000000     -6.112668000000000     -1.028626000000000
C      -3.142360000000000     -6.326437000000000     -0.300584000000000
C      -3.411243000000000     -7.800586000000000     -0.139094000000000
O      -3.825878000000000     -5.444340000000000      0.166677000000000
H       1.003636000000000     -4.685582000000000     -0.753546000000000
H       0.942041000000000     -4.371082000000000      1.045956000000000
H      -1.539948000000000     -4.232568000000000      0.916498000000000
H      -1.002134000000000     -4.739795000000000     -2.077916000000000
H      -2.572935000000000     -4.164020000000000     -1.460114000000000
H      -2.594621000000000     -8.257197000000000      0.426409000000000
H      -3.445554000000000     -8.283295000000001     -1.118442000000000
H      -4.353459000000000     -7.941618000000000      0.388155000000000
