97

C      -2.063335000000000     -2.070227000000000      1.669823000000000
C      -1.405130000000000     -0.893008000000000      1.302604000000000
C      -0.371053000000000     -0.396394000000000      2.129419000000000
C      -0.061896000000000     -1.089192000000000      3.303848000000000
C      -0.711037000000000     -2.269598000000000      3.650048000000000
C      -1.715773000000000     -2.762364000000000      2.827157000000000
H      -2.869376000000000     -2.449223000000000      1.049516000000000
H      -0.434897000000000     -2.793341000000000      4.559612000000000
H      -2.240873000000000     -3.676616000000000      3.085504000000000
C       0.326925000000000      0.916394000000000      1.904151000000000
C      -0.013614000000000      1.939024000000000      2.798793000000000
C       1.282159000000000      1.185598000000000      0.899202000000000
C       0.515398000000000      3.218634000000000      2.685663000000000
C       1.806666000000000      2.480110000000000      0.797181000000000
C       1.423094000000000      3.493047000000000      1.669548000000000
H       0.210473000000000      3.994352000000000      3.381612000000000
H       2.527932000000000      2.700753000000000      0.017167000000000
H       1.840120000000000      4.488796000000000      1.555337000000000
P      -1.775734000000000     -0.051477000000000     -0.301308000000000
P       1.759109000000000     -0.071095000000000     -0.365882000000000
C       3.315137000000000      0.603190000000000     -1.078426000000000
C       4.444572000000000      0.855067000000000     -0.284640000000000
C       3.403402000000000      0.811794000000000     -2.452577000000000
C       5.617994000000000      1.315890000000000     -0.861004000000000
H       4.402785000000000      0.686943000000000      0.788833000000000
C       4.592060000000000      1.260343000000000     -3.030614000000000
H       2.546903000000000      0.611164000000000     -3.084944000000000
C       5.711089000000000      1.522240000000000     -2.245381000000000
H       6.484861000000000      1.510462000000000     -0.233542000000000
H       4.631287000000000      1.388686000000000     -4.108552000000000
C       7.002578000000000      2.003155000000000     -2.855215000000000
C       2.470043000000000     -1.433226000000000      0.650657000000000
C       2.708241000000000     -2.662691000000000      0.029105000000000
C       2.868114000000000     -1.275014000000000      1.980412000000000
C       3.304130000000000     -3.708753000000000      0.724080000000000
H       2.439150000000000     -2.798806000000000     -1.015317000000000
C       3.458435000000000     -2.326739000000000      2.674382000000000
H       2.716103000000000     -0.322237000000000      2.481328000000000
C       3.677854000000000     -3.561750000000000      2.062031000000000
H       3.479677000000000     -4.655874000000000      0.220200000000000
H       3.755901000000000     -2.184721000000000      3.710711000000000
C       4.280555000000000     -4.712385000000000      2.825762000000000
C      -2.172979000000000      1.638624000000000      0.297883000000000
C      -2.973050000000000      1.816192000000000      1.435034000000000
C      -1.647863000000000      2.764168000000000     -0.334273000000000
C      -3.239428000000000      3.089438000000000      1.920039000000000
H      -3.379934000000000      0.947332000000000      1.948602000000000
C      -1.911518000000000      4.039153000000000      0.163256000000000
H      -1.010915000000000      2.638710000000000     -1.204805000000000
C      -2.703251000000000      4.221532000000000      1.296270000000000
H      -3.862158000000000      3.210202000000000      2.803269000000000
H      -1.482463000000000      4.905609000000000     -0.333903000000000
C      -2.940946000000000      5.598113000000000      1.860856000000000
C      -3.427425000000000     -0.701650000000000     -0.803158000000000
C      -4.610417000000000      0.034476000000000     -0.703046000000000
C      -3.495244000000000     -1.974566000000000     -1.390768000000000
C      -5.819180000000000     -0.493620000000000     -1.155240000000000
H      -4.600260000000000      1.033316000000000     -0.281644000000000
C      -4.704727000000000     -2.502527000000000     -1.820281000000000
H      -2.590278000000000     -2.561593000000000     -1.514409000000000
C      -5.890519000000000     -1.767681000000000     -1.713240000000000
H      -6.723766000000000      0.103205000000000     -1.070434000000000
H      -4.727924000000000     -3.496160000000000     -2.261290000000000
C      -7.192798000000000     -2.336653000000000     -2.213314000000000
H       0.067034000000000      1.071171000000000     -2.011073000000000
H       0.714175000000000     -0.690103000000000      3.951304000000000
H      -0.743333000000000      1.721450000000000      3.573665000000000
Rh     -0.029372000000000     -0.494748000000000     -1.821293000000000
C      -0.079912000000000     -2.434306000000000     -1.640046000000000
O      -0.130929000000000     -3.574793000000000     -1.535378000000000
H      -7.189449000000000     -2.418757000000000     -3.305533000000000
H      -8.037642000000000     -1.705257000000000     -1.927204000000000
H      -7.365342000000000     -3.340017000000000     -1.811638000000000
H      -3.907126000000000      5.659501000000000      2.369125000000000
H      -2.915994000000000      6.359338000000000      1.076576000000000
H      -2.166347000000000      5.854518000000000      2.593104000000000
H       6.902283000000000      2.140213000000000     -3.934506000000000
H       7.811209000000000      1.286037000000000     -2.678311000000000
H       7.313328000000000      2.957895000000000     -2.418064000000000
H       3.497819000000000     -5.367570000000000      3.224352000000000
H       4.878136000000000     -4.358983000000000      3.670367000000000
H       4.922238000000000     -5.321925000000000      2.183288000000000
C      -0.971056000000000     -0.555127000000000     -3.769612000000000
C       0.426119000000000     -0.431941000000000     -3.943645000000000
C       1.286552000000000     -1.567720000000000     -4.414312000000000
O       1.467586000000000     -1.539319000000000     -5.852881000000000
C       2.337960000000000     -0.631310000000000     -6.308327000000000
C       2.425627000000000     -0.669097000000000     -7.812880000000000
O       2.965925000000000      0.121678000000000     -5.599315000000000
H      -1.455831000000000     -1.513619000000000     -3.948977000000000
H      -1.614349000000000      0.307761000000000     -3.910250000000000
H       0.818082000000000      0.547996000000000     -4.202897000000000
H       0.810537000000000     -2.532488000000000     -4.221250000000000
H       2.278917000000000     -1.546587000000000     -3.953909000000000
H       1.457964000000000     -0.390904000000000     -8.238784000000001
H       2.655088000000000     -1.683087000000000     -8.148311000000000
H       3.193751000000000      0.025811000000000     -8.148740999999999
