117

C       1.482421000000000      0.307594000000000     -2.576558000000000
C       1.208651000000000      0.477576000000000     -1.213299000000000
C       0.352636000000000      1.528552000000000     -0.820338000000000
C      -0.132641000000000      2.409589000000000     -1.793500000000000
C       0.164595000000000      2.241122000000000     -3.140576000000000
C       0.965818000000000      1.174929000000000     -3.534432000000000
H       2.109954000000000     -0.519937000000000     -2.894556000000000
H      -0.244263000000000      2.928119000000000     -3.875788000000000
H       1.193017000000000      1.014091000000000     -4.584037000000000
C      -0.100566000000000      1.777520000000000      0.589007000000000
C       0.397008000000000      2.911346000000000      1.236542000000000
C      -1.062843000000000      0.977723000000000      1.244132000000000
C      -0.009705000000000      3.248796000000000      2.523070000000000
C      -1.486647000000000      1.347319000000000      2.523892000000000
C      -0.960714000000000      2.465612000000000      3.166174000000000
H       0.411732000000000      4.122139000000000      3.012966000000000
H      -2.250276000000000      0.760502000000000      3.023453000000000
H      -1.303784000000000      2.724206000000000      4.163670000000000
P       1.777554000000000     -0.790237000000000      0.006296000000000
P      -1.685119000000000     -0.566231000000000      0.431330000000000
C      -3.107809000000000     -1.122762000000000      1.431271000000000
C      -4.384066000000000     -1.283326000000000      0.886707000000000
C      -2.885450000000000     -1.649586000000000      2.711691000000000
C      -5.380128000000000     -1.973683000000000      1.566084000000000
H      -4.603030000000000     -0.898216000000000     -0.104801000000000
C      -3.878160000000000     -2.309750000000000      3.412769000000000
H      -1.893179000000000     -1.581256000000000      3.152551000000000
C      -5.146713000000000     -2.526596000000000      2.837559000000000
H      -6.338298000000000     -2.103931000000000      1.078831000000000
H      -3.636832000000000     -2.721694000000000      4.384391000000000
N      -6.115726000000000     -3.276088000000000      3.489103000000000
C      -2.459304000000000      0.161612000000000     -1.058897000000000
C      -2.198651000000000     -0.348627000000000     -2.329104000000000
C      -3.251192000000000      1.313297000000000     -0.970964000000000
C      -2.688792000000000      0.263915000000000     -3.475052000000000
H      -1.572026000000000     -1.227973000000000     -2.436689000000000
C      -3.747940000000000      1.939560000000000     -2.102615000000000
H      -3.465979000000000      1.742912000000000      0.005408000000000
C      -3.471456000000000      1.430066000000000     -3.390225000000000
H      -2.432760000000000     -0.160391000000000     -4.437891000000000
H      -4.343168000000000      2.836626000000000     -1.982641000000000
N      -3.951178000000000      2.058129000000000     -4.528326000000000
C       2.429126000000000      0.260049000000000      1.360609000000000
C       3.295493000000000      1.328750000000000      1.108319000000000
C       1.998080000000000      0.077015000000000      2.674745000000000
C       3.699991000000000      2.192146000000000      2.114008000000000
H       3.635869000000000      1.526404000000000      0.095877000000000
C       2.389319000000000      0.933675000000000      3.694122000000000
H       1.312643000000000     -0.734559000000000      2.898927000000000
C       3.244104000000000      2.021347000000000      3.437536000000000
H       4.355247000000000      3.016295000000000      1.859335000000000
H       1.999707000000000      0.762325000000000      4.689943000000000
N       3.615671000000000      2.898069000000000      4.446310000000000
C       3.281318000000000     -1.504730000000000     -0.757752000000000
C       4.267192000000000     -0.771715000000000     -1.431190000000000
C       3.494502000000000     -2.878162000000000     -0.606825000000000
C       5.410305000000000     -1.375148000000000     -1.929492000000000
H       4.135749000000000      0.293823000000000     -1.598335000000000
C       4.637458000000000     -3.499339000000000     -1.091602000000000
H       2.741817000000000     -3.469714000000000     -0.090225000000000
C       5.624324000000000     -2.762181000000000     -1.774145000000000
H       6.139180000000000     -0.762507000000000     -2.445962000000000
H       4.753929000000000     -4.565251000000000     -0.939246000000000
N       6.753451000000000     -3.371534000000000     -2.283915000000000
H       0.031382000000000     -1.888471000000000      1.883166000000000
H      -0.791587000000000      3.213866000000000     -1.478210000000000
H       1.137046000000000      3.518122000000000      0.722228000000000
Rh     -0.046475000000000     -2.269148000000000      0.354273000000000
C       0.029796000000000     -2.861423000000000     -1.501500000000000
O       0.187283000000000     -3.246752000000000     -2.569992000000000
C       7.835800000000000     -2.548000000000000     -2.778485000000000
H       8.651318000000000     -3.192581000000000     -3.108067000000000
H       7.513398000000000     -1.953038000000000     -3.640260000000000
H       8.223419000000000     -1.859707000000000     -2.013135000000000
C       7.023669000000000     -4.750436000000000     -1.936560000000000
H       7.119140000000000     -4.899402000000000     -0.851004000000000
H       6.226903000000000     -5.407320000000000     -2.302033000000000
H       7.954478000000000     -5.061353000000000     -2.412135000000000
C       4.230242000000000      4.153716000000000      4.068913000000000
H       5.189980000000000      3.981087000000000      3.572127000000000
H       3.597056000000000      4.750475000000000      3.393220000000000
H       4.426632000000000      4.738190000000000      4.968751000000000
C       2.861598000000000      2.867639000000000      5.683609000000000
H       2.996817000000000      1.910239000000000      6.196246000000000
H       3.232670000000000      3.651322000000000      6.345448000000000
H       1.783027000000000      3.020852000000000      5.523095000000000
C      -5.686126000000000     -4.084426000000000      4.615875000000000
H      -6.547475000000000     -4.632425000000000      5.002090000000000
H      -4.900717000000000     -4.799742000000000      4.332785000000000
H      -5.316444000000000     -3.447654000000000      5.424904000000000
C      -7.161687000000000     -3.854294000000000      2.664325000000000
H      -7.796860000000000     -4.482793000000000      3.290850000000000
H      -7.797008000000000     -3.072755000000000      2.237389000000000
H      -6.748047000000000     -4.463969000000000      1.847944000000000
C      -4.492409000000000      3.395404000000000     -4.403060000000000
H      -4.787959000000000      3.753009000000000     -5.390191000000000
H      -5.386127000000000      3.395033000000000     -3.771024000000000
H      -3.769644000000000      4.106639000000000     -3.974001000000000
C      -3.401907000000000      1.666112000000000     -5.809871000000000
H      -2.307589000000000      1.780446000000000     -5.852551000000000
H      -3.643028000000000      0.621715000000000     -6.031951000000000
H      -3.848129000000000      2.281788000000000     -6.591810000000000
C       0.363427000000000     -4.285626000000000      1.035047000000000
C      -1.023965000000000     -4.003789000000000      1.143163000000000
C      -2.038289000000000     -4.618593000000000      0.224066000000000
O      -2.409160000000000     -5.953253000000000      0.666012000000000
C      -3.413689000000000     -6.057315000000000      1.538899000000000
C      -3.619770000000000     -7.495376000000000      1.949347000000000
O      -4.068063000000000     -5.126686000000000      1.951375000000000
H       0.708368000000000     -4.947321000000000      0.240776000000000
H       0.986452000000000     -4.289090000000000      1.923981000000000
H      -1.431634000000000     -3.766738000000000      2.124064000000000
H      -1.628236000000000     -4.781609000000000     -0.775512000000000
H      -2.945040000000000     -4.009602000000000      0.165986000000000
H      -2.745829000000000     -7.838916000000000      2.509460000000000
H      -3.714786000000000     -8.128949000000000      1.064748000000000
H      -4.511484000000000     -7.571901000000000      2.570354000000000
