93

C       1.864410000000000      1.104568000000000     -2.145775000000000
C       1.422307000000000      0.765619000000000     -0.860871000000000
C       0.551167000000000      1.648471000000000     -0.189642000000000
C       0.262658000000000      2.887198000000000     -0.770960000000000
C       0.738236000000000      3.227856000000000     -2.031357000000000
C       1.520300000000000      2.317804000000000     -2.733683000000000
H       2.495229000000000      0.410964000000000     -2.693661000000000
H       0.480220000000000      4.187510000000000     -2.468239000000000
H       1.876012000000000      2.551810000000000     -3.732285000000000
C      -0.090038000000000      1.332099000000000      1.126231000000000
C       0.313343000000000      2.082322000000000      2.236108000000000
C      -1.083885000000000      0.341771000000000      1.287816000000000
C      -0.198855000000000      1.837521000000000      3.504227000000000
C      -1.594898000000000      0.112058000000000      2.571541000000000
C      -1.154063000000000      0.840803000000000      3.671272000000000
H       0.162171000000000      2.407192000000000      4.354965000000000
H      -2.349902000000000     -0.654884000000000      2.712698000000000
H      -1.560137000000000      0.627617000000000      4.655339000000000
P       1.846618000000000     -0.882988000000000     -0.143493000000000
P      -1.636576000000000     -0.760732000000000     -0.096391000000000
C      -3.263808000000000     -1.364764000000000      0.499206000000000
C      -4.309516000000000     -0.490778000000000      0.831661000000000
C      -3.507898000000000     -2.736230000000000      0.585521000000000
C      -5.541769000000000     -0.970912000000000      1.241449000000000
H      -4.161055000000000      0.583877000000000      0.770733000000000
C      -4.744623000000000     -3.231387000000000      0.980970000000000
H      -2.725945000000000     -3.437884000000000      0.327128000000000
C      -5.779267000000000     -2.353809000000000      1.317309000000000
H      -6.336958000000000     -0.277144000000000      1.502673000000000
H      -4.897446000000000     -4.306317000000000      1.012420000000000
N      -7.006615000000000     -2.834148000000000      1.766520000000000
C      -2.179987000000000      0.437869000000000     -1.380214000000000
C      -2.246267000000000      0.018186000000000     -2.711268000000000
C      -2.621696000000000      1.732564000000000     -1.084760000000000
C      -2.720634000000000      0.854137000000000     -3.713336000000000
H      -1.927032000000000     -0.986959000000000     -2.972156000000000
C      -3.096037000000000      2.578335000000000     -2.076215000000000
H      -2.572139000000000      2.098106000000000     -0.061335000000000
C      -3.148361000000000      2.151888000000000     -3.410312000000000
H      -2.761134000000000      0.502185000000000     -4.740824000000000
H      -3.427860000000000      3.582248000000000     -1.822458000000000
N      -3.666080000000000      2.982294000000000     -4.402496000000000
C       2.320706000000000     -0.450798000000000      1.576775000000000
C       1.754675000000000     -1.126736000000000      2.658728000000000
C       3.220583000000000      0.587566000000000      1.848061000000000
C       2.065002000000000     -0.776193000000000      3.966805000000000
H       1.043801000000000     -1.925902000000000      2.471814000000000
C       3.536875000000000      0.944983000000000      3.148656000000000
H       3.666472000000000      1.149419000000000      1.032591000000000
C       2.954716000000000      0.269520000000000      4.231591000000000
H       1.595361000000000     -1.302641000000000      4.793923000000000
H       4.226659000000000      1.763986000000000      3.337057000000000
N       3.206697000000000      0.679632000000000      5.540055000000000
C       3.468632000000000     -1.274217000000000     -0.913628000000000
C       3.747089000000000     -2.614602000000000     -1.198792000000000
C       4.477232000000000     -0.333539000000000     -1.168355000000000
C       4.976628000000000     -3.008769000000000     -1.710553000000000
H       2.978105000000000     -3.358339000000000     -1.014445000000000
C       5.704930000000000     -0.714168000000000     -1.686400000000000
H       4.295996000000000      0.722599000000000     -0.990878000000000
C       5.976028000000000     -2.062743000000000     -1.963920000000000
H       5.167107000000000     -4.058357000000000     -1.919017000000000
H       6.468621000000000      0.034757000000000     -1.880073000000000
N       7.225998000000000     -2.451679000000000     -2.433084000000000
H      -0.088353000000000     -2.623451000000000      0.954232000000000
H      -0.385208000000000      3.572686000000000     -0.230904000000000
H       1.078820000000000      2.840532000000000      2.095663000000000
Rh      0.049284000000000     -2.378089000000000     -0.596494000000000
C       0.304669000000000     -2.145355000000000     -2.523547000000000
O       0.555251000000000     -2.023723000000000     -3.634707000000000
H       7.240964000000000     -3.333596000000000     -2.928055000000000
H       7.742200000000000     -1.733977000000000     -2.924273000000000
H       4.097938000000000      1.140236000000000      5.672532000000000
H       3.052989000000000     -0.035178000000000      6.239675000000000
H      -7.214549000000000     -3.782246000000000      1.480973000000000
H      -7.789899000000000     -2.214051000000000      1.607359000000000
H      -3.598806000000000      3.971786000000000     -4.203200000000000
H      -3.348146000000000      2.768758000000000     -5.338865000000000
C       0.715894000000000     -4.429386000000000     -0.714181000000000
C      -0.699525000000000     -4.397633000000000     -0.654122000000000
C      -1.552356000000000     -4.708390000000000     -1.848757000000000
O      -1.869856000000000     -6.122885000000000     -1.928860000000000
C      -2.815313000000000     -6.555909000000000     -1.089648000000000
C      -3.031774000000000     -8.041290000000000     -1.234970000000000
O      -3.413464000000000     -5.845502000000000     -0.313927000000000
H       1.198938000000000     -4.662112000000000     -1.663001000000000
H       1.284160000000000     -4.721016000000000      0.164217000000000
H      -1.163976000000000     -4.654748000000000      0.294216000000000
H      -1.018199000000000     -4.503021000000000     -2.779801000000000
H      -2.495824000000000     -4.154248000000000     -1.835509000000000
H      -2.119147000000000     -8.569511000000000     -0.946350000000000
H      -3.240641000000000     -8.288251000000001     -2.278408000000000
H      -3.858253000000000     -8.351692999999999     -0.597483000000000
