85

C       1.730483000000000      0.737637000000000     -2.434125000000000
C       1.337321000000000      0.704903000000000     -1.090157000000000
C       0.435500000000000      1.681799000000000     -0.618412000000000
C       0.048075000000000      2.716065000000000     -1.477452000000000
C       0.469740000000000      2.755233000000000     -2.801475000000000
C       1.295723000000000      1.746678000000000     -3.288119000000000
H       2.384208000000000     -0.037840000000000     -2.822788000000000
H       0.136521000000000      3.556740000000000     -3.453117000000000
H       1.609184000000000      1.744800000000000     -4.327041000000000
C      -0.158091000000000      1.676928000000000      0.759000000000000
C       0.257034000000000      2.674105000000000      1.646060000000000
C      -1.146587000000000      0.755911000000000      1.174145000000000
C      -0.244525000000000      2.747021000000000      2.940927000000000
C      -1.660882000000000      0.856803000000000      2.469935000000000
C      -1.205892000000000      1.831638000000000      3.354010000000000
H       0.113816000000000      3.515237000000000      3.618795000000000
H      -2.432778000000000      0.169619000000000      2.798660000000000
H      -1.613644000000000      1.877374000000000      4.358707000000000
P       1.794188000000000     -0.732787000000000     -0.031710000000000
P      -1.659203000000000     -0.623069000000000      0.047282000000000
C      -3.226528000000000     -1.273396000000000      0.761344000000000
C      -4.459401000000000     -1.126461000000000      0.121221000000000
C      -3.139244000000000     -2.053086000000000      1.921377000000000
C      -5.573495000000000     -1.756189000000000      0.662293000000000
H      -4.579908000000000     -0.550349000000000     -0.787790000000000
C      -4.282309000000000     -2.652315000000000      2.421495000000000
H      -2.190238000000000     -2.224960000000000      2.418479000000000
C      -5.521744000000000     -2.519840000000000      1.814170000000000
F      -6.750032000000000     -1.615547000000000      0.039015000000000
F      -4.186620000000000     -3.401225000000000      3.522205000000000
H      -6.398783000000000     -3.019401000000000      2.205019000000000
C      -2.253459000000000      0.369183000000000     -1.390913000000000
C      -1.839935000000000      0.030333000000000     -2.675715000000000
C      -3.050755000000000      1.502742000000000     -1.185797000000000
C      -2.217316000000000      0.841732000000000     -3.739200000000000
H      -1.204390000000000     -0.826285000000000     -2.865018000000000
C      -3.410968000000000      2.270870000000000     -2.279476000000000
H      -3.376289000000000      1.800278000000000     -0.193522000000000
C      -3.004016000000000      1.968205000000000     -3.573343000000000
F      -1.789804000000000      0.533653000000000     -4.967766000000000
F      -4.167464000000000      3.358305000000000     -2.090366000000000
H      -3.285937000000000      2.590927000000000     -4.413282000000000
C       2.317891000000000      0.093801000000000      1.536878000000000
C       3.208543000000000      1.172627000000000      1.511929000000000
C       1.776415000000000     -0.334601000000000      2.746046000000000
C       3.529334000000000      1.801832000000000      2.702157000000000
H       3.632833000000000      1.554784000000000      0.590786000000000
C       2.120222000000000      0.339457000000000      3.911047000000000
H       1.072859000000000     -1.158243000000000      2.788294000000000
C       2.997605000000000      1.410277000000000      3.923525000000000
F       4.371523000000000      2.842593000000000      2.678454000000000
F       1.574972000000000     -0.053763000000000      5.067028000000000
H       3.253233000000000      1.923908000000000      4.841956000000000
C       3.421573000000000     -1.295195000000000     -0.697870000000000
C       4.408753000000000     -0.437552000000000     -1.197258000000000
C       3.664740000000000     -2.668043000000000     -0.626367000000000
C       5.617076000000000     -0.977189000000000     -1.607791000000000
H       4.254268000000000      0.630509000000000     -1.301553000000000
C       4.895989000000000     -3.157192000000000     -1.043326000000000
H       2.904743000000000     -3.349174000000000     -0.255165000000000
C       5.893684000000000     -2.335864000000000     -1.540686000000000
F       6.557084000000000     -0.159287000000000     -2.094356000000000
F       5.126178000000000     -4.471872000000000     -0.971729000000000
H       6.844723000000000     -2.734841000000000     -1.870753000000000
H      -0.089935000000000     -2.113805000000000      1.477666000000000
H      -0.629744000000000      3.475961000000000     -1.098199000000000
H       1.009546000000000      3.383189000000000      1.311732000000000
Rh      0.012613000000000     -2.278563000000000     -0.086998000000000
C       0.283992000000000     -2.623541000000000     -1.995657000000000
O       0.548082000000000     -2.853748000000000     -3.085012000000000
C       0.461453000000000     -4.359514000000000      0.361522000000000
C      -0.937703000000000     -4.152511000000000      0.360447000000000
C      -1.827020000000000     -4.663297000000000     -0.737537000000000
O      -2.288779000000000     -6.003952000000000     -0.459936000000000
C      -3.295524000000000     -6.106389000000000      0.420908000000000
C      -3.669485000000000     -7.548359000000000      0.648655000000000
O      -3.822121000000000     -5.159724000000000      0.955630000000000
H       0.923238000000000     -4.882174000000000     -0.475414000000000
H       0.995070000000000     -4.451403000000000      1.302289000000000
H      -1.448864000000000     -4.070282000000000      1.316143000000000
H      -1.284044000000000     -4.756535000000000     -1.681458000000000
H      -2.701609000000000     -4.019489000000000     -0.872459000000000
H      -2.819480000000000     -8.079307999999999      1.085195000000000
H      -3.904401000000000     -8.027761999999999     -0.304489000000000
H      -4.525055000000000     -7.597940000000000      1.320282000000000
