109

C       2.340851000000000      1.700575000000000     -1.603273000000000
C       1.517878000000000      1.185128000000000     -0.597801000000000
C       0.386056000000000      1.926797000000000     -0.187340000000000
C       0.143950000000000      3.165903000000000     -0.789339000000000
C       0.958917000000000      3.660266000000000     -1.802393000000000
C       2.062691000000000      2.922421000000000     -2.210764000000000
H       3.219549000000000      1.143523000000000     -1.912993000000000
H       0.734333000000000      4.618507000000000     -2.260278000000000
H       2.716635000000000      3.295879000000000     -2.992554000000000
C      -0.501466000000000      1.548737000000000      0.967559000000000
C      -0.344577000000000      2.331141000000000      2.118703000000000
C      -1.469904000000000      0.519693000000000      0.974522000000000
C      -1.074421000000000      2.089830000000000      3.276134000000000
C      -2.206714000000000      0.295757000000000      2.144650000000000
C      -2.008996000000000      1.061446000000000      3.289325000000000
H      -0.906701000000000      2.698568000000000      4.159340000000000
H      -2.950394000000000     -0.494064000000000      2.162006000000000
H      -2.592078000000000      0.856408000000000      4.182179000000000
P       1.797452000000000     -0.509361000000000      0.087873000000000
P      -1.705600000000000     -0.619218000000000     -0.460754000000000
C      -3.274139000000000     -1.484587000000000     -0.041142000000000
C      -4.511655000000000     -0.829068000000000     -0.115771000000000
C      -3.224270000000000     -2.808080000000000      0.385359000000000
C      -5.684802000000000     -1.486481000000000      0.237067000000000
H      -4.559602000000000      0.203551000000000     -0.453509000000000
C      -4.392411000000000     -3.492154000000000      0.749844000000000
H      -2.264907000000000     -3.314759000000000      0.431527000000000
C      -5.605262000000000     -2.816588000000000      0.670355000000000
C      -7.021645000000000     -0.793637000000000      0.155150000000000
C      -4.317067000000000     -4.929983000000000      1.192919000000000
H      -6.521053000000000     -3.337148000000000      0.946292000000000
C      -2.289709000000000      0.499058000000000     -1.800677000000000
C      -2.378001000000000     -0.030339000000000     -3.088205000000000
C      -2.677225000000000      1.823125000000000     -1.583367000000000
C      -2.820284000000000      0.746062000000000     -4.160729000000000
H      -2.101440000000000     -1.069335000000000     -3.262687000000000
C      -3.103982000000000      2.627311000000000     -2.639727000000000
H      -2.642722000000000      2.238865000000000     -0.578884000000000
C      -3.169499000000000      2.074231000000000     -3.920280000000000
C      -2.895498000000000      0.149664000000000     -5.542980000000000
C      -3.442762000000000      4.077337000000000     -2.405189000000000
H      -3.500914000000000      2.695035000000000     -4.750611000000000
C       1.870819000000000     -0.128165000000000      1.883954000000000
C       2.610615000000000      0.974573000000000      2.338792000000000
C       1.131828000000000     -0.875653000000000      2.791523000000000
C       2.621100000000000      1.321066000000000      3.684298000000000
H       3.170282000000000      1.578270000000000      1.625773000000000
C       1.112389000000000     -0.536643000000000      4.151510000000000
H       0.535184000000000     -1.711802000000000      2.434525000000000
C       1.863337000000000      0.552612000000000      4.578040000000000
C       3.388900000000000      2.522471000000000      4.174740000000000
C       0.257320000000000     -1.327278000000000      5.106651000000000
H       1.851759000000000      0.826201000000000      5.632060000000000
C       3.549048000000000     -0.908515000000000     -0.332843000000000
C       4.588052000000000     -0.883490000000000      0.595400000000000
C       3.826658000000000     -1.333973000000000     -1.641526000000000
C       5.889798000000000     -1.253640000000000      0.232826000000000
H       4.398880000000000     -0.587670000000000      1.622526000000000
C       5.113627000000000     -1.687465000000000     -2.031983000000000
H       3.021410000000000     -1.397956000000000     -2.368462000000000
C       6.137651000000000     -1.640586000000000     -1.078998000000000
C       6.988884000000000     -1.238552000000000      1.265286000000000
C       5.404001000000000     -2.131684000000000     -3.443155000000000
H       7.147076000000000     -1.926605000000000     -1.369624000000000
H      -0.074769000000000     -2.458955000000000      0.595257000000000
H      -0.709722000000000      3.747821000000000     -0.451073000000000
H       0.399236000000000      3.123235000000000      2.103097000000000
Rh      0.188002000000000     -1.932068000000000     -0.871596000000000
C       0.497029000000000     -1.312801000000000     -2.697086000000000
O       0.703565000000000     -0.941953000000000     -3.761430000000000
H       6.824978000000000     -2.013794000000000      2.021240000000000
H       7.026350000000000     -0.277438000000000      1.787512000000000
H       7.965673000000000     -1.415877000000000      0.808165000000000
H       6.139635000000000     -1.475316000000000     -3.919561000000000
H       4.497920000000000     -2.124097000000000     -4.054455000000000
H       5.813704000000000     -3.146834000000000     -3.457990000000000
H       2.706409000000000      3.321716000000000      4.485580000000000
H       4.038771000000000      2.923569000000000      3.392849000000000
H       4.010617000000000      2.271104000000000      5.039695000000000
H      -0.800650000000000     -1.227111000000000      4.838651000000000
H       0.382606000000000     -0.981800000000000      6.136119000000000
H       0.503971000000000     -2.393007000000000      5.070621000000000
H      -7.679748000000000     -1.293696000000000     -0.563139000000000
H      -6.908753000000000      0.246842000000000     -0.159621000000000
H      -7.530975000000000     -0.802213000000000      1.124439000000000
H      -3.975911000000000     -5.561224000000000      0.366984000000000
H      -5.291606000000000     -5.290660000000000      1.533082000000000
H      -3.604639000000000     -5.047592000000000      2.016227000000000
H      -1.916594000000000     -0.229376000000000     -5.854754000000000
H      -3.223782000000000      0.888812000000000     -6.278087000000000
H      -3.596447000000000     -0.690972000000000     -5.570873000000000
H      -2.555190000000000      4.707097000000000     -2.540594000000000
H      -3.809670000000000      4.239637000000000     -1.387684000000000
H      -4.205453000000000      4.429437000000000     -3.105284000000000
C       1.137154000000000     -3.840748000000000     -1.245952000000000
C      -0.264720000000000     -3.993217000000000     -1.356462000000000
C      -0.957042000000000     -4.161225000000000     -2.676243000000000
O      -1.061199000000000     -5.557625000000000     -3.055438000000000
C      -2.011913000000000     -6.259414000000000     -2.429015000000000
C      -2.004690000000000     -7.700921000000000     -2.871347000000000
O      -2.771545000000000     -5.790863000000000     -1.612963000000000
H       1.749843000000000     -3.812748000000000     -2.146156000000000
H       1.655523000000000     -4.194365000000000     -0.360394000000000
H      -0.795098000000000     -4.461750000000000     -0.532241000000000
H      -0.383392000000000     -3.708659000000000     -3.489126000000000
H      -1.967618000000000     -3.743057000000000     -2.653373000000000
H      -1.058979000000000     -8.164626000000000     -2.578400000000000
H      -2.077618000000000     -7.758127000000000     -3.959784000000000
H      -2.837009000000000     -8.226985000000001     -2.406248000000000
