93

C       1.760410000000000      1.043980000000000     -2.317729000000000
C       1.373511000000000      0.811489000000000     -0.991636000000000
C       0.602685000000000      1.786313000000000     -0.327341000000000
C       0.365882000000000      3.010375000000000     -0.960893000000000
C       0.790068000000000      3.245808000000000     -2.262817000000000
C       1.464306000000000      2.244935000000000     -2.954270000000000
H       2.310929000000000      0.280421000000000     -2.858729000000000
H       0.571313000000000      4.195815000000000     -2.739848000000000
H       1.774595000000000      2.398672000000000     -3.982832000000000
C       0.013426000000000      1.573307000000000      1.032480000000000
C       0.532357000000000      2.335722000000000      2.085348000000000
C      -1.033558000000000      0.661789000000000      1.293588000000000
C       0.086375000000000      2.168512000000000      3.389898000000000
C      -1.470157000000000      0.503713000000000      2.616074000000000
C      -0.910782000000000      1.235722000000000      3.657955000000000
H       0.527368000000000      2.749991000000000      4.193323000000000
H      -2.263702000000000     -0.204585000000000      2.833572000000000
H      -1.259790000000000      1.082118000000000      4.674407000000000
P       1.714644000000000     -0.820732000000000     -0.203526000000000
P      -1.737916000000000     -0.462366000000000     -0.000196000000000
C      -3.395319000000000     -0.873481000000000      0.701987000000000
C      -4.277168000000000      0.146755000000000      1.074034000000000
C      -3.764555000000000     -2.207824000000000      0.837610000000000
C      -5.526532000000000     -0.185225000000000      1.591352000000000
H      -3.996075000000000      1.191345000000000      0.968775000000000
C      -5.034819000000000     -2.527685000000000      1.349834000000000
H      -3.080700000000000     -2.998403000000000      0.551214000000000
C      -5.910259000000000     -1.516648000000000      1.732767000000000
O      -6.424707000000000      0.761609000000000      1.977789000000000
O      -5.454834000000000     -3.798667000000000      1.504177000000000
H      -6.888544000000000     -1.764345000000000      2.127516000000000
C      -2.266426000000000      0.697621000000000     -1.336089000000000
C      -2.450616000000000      0.166665000000000     -2.614090000000000
C      -2.533511000000000      2.041528000000000     -1.094781000000000
C      -2.878838000000000      0.992827000000000     -3.651969000000000
H      -2.266270000000000     -0.888161000000000     -2.800831000000000
C      -2.949171000000000      2.859781000000000     -2.145235000000000
H      -2.383267000000000      2.487778000000000     -0.116863000000000
C      -3.125791000000000      2.345542000000000     -3.425290000000000
O      -3.063533000000000      0.536297000000000     -4.917870000000000
O      -3.147546000000000      4.175874000000000     -1.858250000000000
H      -3.439266000000000      2.971405000000000     -4.255748000000000
C       2.316866000000000     -0.342925000000000      1.477150000000000
C       3.345170000000000      0.587134000000000      1.627788000000000
C       1.694241000000000     -0.892788000000000      2.594470000000000
C       3.740733000000000      0.965257000000000      2.909748000000000
H       3.842924000000000      1.043551000000000      0.780453000000000
C       2.083522000000000     -0.483099000000000      3.869825000000000
H       0.881783000000000     -1.602911000000000      2.468370000000000
C       3.113287000000000      0.437990000000000      4.036494000000000
O       4.743725000000000      1.880067000000000      3.006238000000000
O       1.471604000000000     -0.942269000000000      4.992531000000000
H       3.395574000000000      0.740608000000000      5.041013000000000
C       3.291947000000000     -1.374807000000000     -0.990161000000000
C       4.308535000000000     -0.502009000000000     -1.389557000000000
C       3.467503000000000     -2.753065000000000     -1.098090000000000
C       5.496696000000000     -1.021559000000000     -1.895990000000000
H       4.201339000000000      0.575582000000000     -1.341944000000000
C       4.666992000000000     -3.260253000000000     -1.599550000000000
H       2.685311000000000     -3.439960000000000     -0.797267000000000
C       5.685075000000000     -2.400564000000000     -2.002931000000000
O       6.449742000000000     -0.132002000000000     -2.281107000000000
O       4.783348000000000     -4.611532000000000     -1.679988000000000
H       6.616156000000000     -2.797991000000000     -2.403811000000000
H      -0.288260000000000     -2.378742000000000      1.069152000000000
H      -0.206545000000000      3.768716000000000     -0.432992000000000
H       1.333161000000000      3.037079000000000      1.867598000000000
Rh     -0.197798000000000     -2.209170000000000     -0.495750000000000
C      -0.033344000000000     -2.072564000000000     -2.441883000000000
O       0.131070000000000     -2.004116000000000     -3.573221000000000
H       7.229577000000000     -0.609326000000000     -2.597037000000000
H       5.651624000000000     -4.841823000000000     -2.039204000000000
H       4.935008000000000      2.044007000000000      3.940406000000000
H       0.739641000000000     -1.520060000000000      4.730960000000000
H      -6.051387000000000      1.636913000000000      1.801729000000000
H      -4.825360000000000     -4.415567000000000      1.088285000000000
H      -2.812510000000000     -0.398020000000000     -4.955725000000000
H      -3.443911000000000      4.634139000000000     -2.657444000000000
C       0.339339000000000     -4.301094000000000     -0.521962000000000
C      -1.069331000000000     -4.177497000000000     -0.439429000000000
C      -1.954207000000000     -4.492226000000000     -1.608216000000000
O      -2.345544000000000     -5.894452000000000     -1.626553000000000
C      -3.265216000000000     -6.251670000000000     -0.738835000000000
C      -3.571236000000000     -7.723524000000000     -0.802775000000000
O      -3.785190000000000     -5.475423000000000      0.037147000000000
H       0.792693000000000     -4.606389000000000     -1.464260000000000
H       0.906064000000000     -4.579744000000000      0.361383000000000
H      -1.534379000000000     -4.351420000000000      0.526938000000000
H      -1.425057000000000     -4.359695000000000     -2.554488000000000
H      -2.869599000000000     -3.892768000000000     -1.608089000000000
H      -2.693472000000000     -8.284777999999999     -0.470782000000000
H      -3.782865000000000     -8.017353000000000     -1.832909000000000
H      -4.419240000000000     -7.947639000000000     -0.157693000000000
