117

C       2.003015000000000      0.939830000000000     -2.170984000000000
C       1.477103000000000      0.672877000000000     -0.902775000000000
C       0.571620000000000      1.595977000000000     -0.331009000000000
C       0.250704000000000      2.756718000000000     -1.042567000000000
C       0.762009000000000      2.999573000000000     -2.312678000000000
C       1.642071000000000      2.084715000000000     -2.878776000000000
H       2.713003000000000      0.247076000000000     -2.612776000000000
H       0.468425000000000      3.893054000000000     -2.854337000000000
H       2.058875000000000      2.261261000000000     -3.865993000000000
C      -0.046493000000000      1.458239000000000      1.032050000000000
C       0.415237000000000      2.332015000000000      2.021619000000000
C      -1.091977000000000      0.563669000000000      1.347544000000000
C      -0.095391000000000      2.303739000000000      3.314348000000000
C      -1.619221000000000      0.564804000000000      2.642256000000000
C      -1.117719000000000      1.414704000000000      3.625250000000000
H       0.308344000000000      2.969035000000000      4.070857000000000
H      -2.437298000000000     -0.104289000000000      2.887961000000000
H      -1.534222000000000      1.383979000000000      4.627564000000000
P       1.833803000000000     -0.928879000000000     -0.041124000000000
P      -1.667320000000000     -0.646108000000000      0.075188000000000
C      -3.256050000000000     -1.324119000000000      0.700879000000000
C      -4.463589000000000     -1.109906000000000      0.019760000000000
C      -3.203514000000000     -2.202361000000000      1.775983000000000
C      -5.603977000000000     -1.791644000000000      0.441530000000000
H      -4.496555000000000     -0.441564000000000     -0.829450000000000
C      -4.358419000000000     -2.875987000000000      2.191268000000000
H      -2.268767000000000     -2.423006000000000      2.281885000000000
C      -5.561400000000000     -2.676372000000000      1.523943000000000
O      -6.822082000000000     -1.658552000000000     -0.147182000000000
O      -4.201570000000000     -3.706630000000000      3.246553000000000
H      -6.472452000000000     -3.194956000000000      1.793490000000000
C      -2.188385000000000      0.538427000000000     -1.238026000000000
C      -1.696546000000000      0.381834000000000     -2.528089000000000
C      -2.982368000000000      1.639321000000000     -0.898606000000000
C      -1.982056000000000      1.354433000000000     -3.495701000000000
H      -1.055052000000000     -0.456408000000000     -2.758023000000000
C      -3.276593000000000      2.590364000000000     -1.878029000000000
H      -3.339613000000000      1.746327000000000      0.119773000000000
C      -2.773053000000000      2.451334000000000     -3.172395000000000
O      -1.509472000000000      1.311237000000000     -4.765569000000000
O      -4.035294000000000      3.695531000000000     -1.659743000000000
H      -2.990305000000000      3.204931000000000     -3.920495000000000
C       2.390006000000000     -0.282064000000000      1.590364000000000
C       3.289012000000000      0.789845000000000      1.632312000000000
C       1.830076000000000     -0.793388000000000      2.755058000000000
C       3.629248000000000      1.341772000000000      2.868668000000000
H       3.687448000000000      1.192362000000000      0.707662000000000
C       2.153230000000000     -0.204415000000000      3.984700000000000
H       1.116688000000000     -1.603829000000000      2.685628000000000
C       3.058743000000000      0.849612000000000      4.042360000000000
O       4.489424000000000      2.382080000000000      3.024256000000000
O       1.611971000000000     -0.590971000000000      5.166069000000000
H       3.306569000000000      1.302528000000000      4.995418000000000
C       3.396289000000000     -1.530598000000000     -0.823162000000000
C       4.637143000000000     -1.439272000000000     -0.212472000000000
C       3.275110000000000     -2.169517000000000     -2.070892000000000
C       5.771794000000000     -1.966394000000000     -0.853311000000000
H       4.773640000000000     -0.984964000000000      0.760920000000000
C       4.406219000000000     -2.676326000000000     -2.698634000000000
H       2.301144000000000     -2.273768000000000     -2.527705000000000
C       5.667677000000000     -2.576533000000000     -2.094389000000000
O       6.936559000000000     -1.825255000000000     -0.172154000000000
O       4.389901000000000     -3.299840000000000     -3.903399000000000
H       6.516232000000000     -2.997880000000000     -2.618146000000000
H      -0.112216000000000     -2.278416000000000      1.330469000000000
H      -0.444400000000000      3.461002000000000     -0.593416000000000
H       1.216135000000000      3.021762000000000      1.769383000000000
Rh     -0.081002000000000     -2.340085000000000     -0.248577000000000
C      -0.081062000000000     -2.557924000000000     -2.168993000000000
O      -0.059307000000000     -2.745679000000000     -3.304152000000000
C       8.101639000000000     -2.360298000000000     -0.758997000000000
H       8.913330000000000     -2.157636000000000     -0.060736000000000
H       8.009719000000000     -3.442690000000000     -0.908975000000000
H       8.319025000000000     -1.881011000000000     -1.721283000000000
C       3.132570000000000     -3.483445000000000     -4.519209000000000
H       2.647028000000000     -2.522942000000000     -4.732837000000000
H       3.327802000000000     -4.008225000000000     -5.453996000000000
H       2.465493000000000     -4.085537000000000     -3.890739000000000
C       5.093261000000000      2.901338000000000      1.860060000000000
H       5.757822000000000      3.698068000000000      2.193589000000000
H       5.675861000000000      2.133346000000000      1.336801000000000
H       4.345381000000000      3.314555000000000      1.171659000000000
C       0.642338000000000     -1.618338000000000      5.128364000000000
H      -0.207300000000000     -1.337397000000000      4.493810000000000
H       1.071506000000000     -2.558518000000000      4.761672000000000
H       0.304614000000000     -1.750969000000000      6.156030000000000
C      -6.915546000000000     -0.792753000000000     -1.255970000000000
H      -6.274231000000000     -1.127876000000000     -2.079976000000000
H      -7.958032000000000     -0.817796000000000     -1.572892000000000
H      -6.640202000000000      0.234615000000000     -0.986138000000000
C      -5.270679000000000     -4.579289000000000      3.545779000000000
H      -5.517319000000000     -5.191432000000000      2.672978000000000
H      -4.918666000000000     -5.217595000000000      4.356434000000000
H      -6.154769000000000     -4.023788000000000      3.882832000000000
C      -0.707345000000000      0.203046000000000     -5.120171000000000
H       0.200563000000000      0.158000000000000     -4.505718000000000
H      -1.258698000000000     -0.738941000000000     -5.015065000000000
H      -0.435688000000000      0.351802000000000     -6.165207000000000
C      -4.540237000000000      3.886538000000000     -0.356325000000000
H      -5.197254000000000      3.060282000000000     -0.057806000000000
H      -3.729306000000000      3.980482000000000      0.376245000000000
H      -5.112912000000000      4.813151000000000     -0.386453000000000
C       0.404682000000000     -4.441371000000000      0.014698000000000
C      -0.989249000000000     -4.252067000000000      0.170525000000000
C      -1.988231000000000     -4.696033000000000     -0.858271000000000
O      -2.352283000000000     -6.087499000000000     -0.676310000000000
C      -3.269397000000000     -6.349110000000000      0.261677000000000
C      -3.521169000000000     -7.832373000000000      0.369261000000000
O      -3.816299000000000     -5.505028000000000      0.932270000000000
H       0.788991000000000     -4.893203000000000     -0.898553000000000
H       1.036518000000000     -4.581538000000000      0.885617000000000
H      -1.400927000000000     -4.235642000000000      1.177113000000000
H      -1.570092000000000     -4.667454000000000     -1.866984000000000
H      -2.899314000000000     -4.091371000000000     -0.810859000000000
H      -2.607797000000000     -8.330880000000001      0.704477000000000
H      -3.779597000000000     -8.239948999999999     -0.610710000000000
H      -4.325828000000000     -8.013937000000000      1.080335000000000
