113

C      -2.309812000000000     -1.873898000000000      0.787092000000000
C      -1.487522000000000     -0.783559000000000      0.621544000000000
C      -0.361035000000000     -0.609285000000000      1.503023000000000
C      -0.160439000000000     -1.520521000000000      2.512960000000000
H      -3.173449000000000     -2.008262000000000      0.140786000000000
C       0.576633000000000      0.562933000000000      1.435839000000000
C       0.465051000000000      1.498607000000000      2.439257000000000
C       1.583640000000000      0.746517000000000      0.422838000000000
C       2.377897000000000      1.868717000000000      0.463957000000000
H       3.150103000000000      2.017857000000000     -0.285904000000000
P      -1.690286000000000      0.365058000000000     -0.808240000000000
P       1.733707000000000     -0.457883000000000     -0.976859000000000
C       3.403689000000000     -0.121428000000000     -1.674403000000000
C       4.537773000000000     -0.896680000000000     -1.405938000000000
C       3.526126000000000      0.941675000000000     -2.578526000000000
C       5.759118000000000     -0.598932000000000     -1.998517000000000
H       4.470106000000000     -1.755436000000000     -0.747244000000000
C       4.753188000000000      1.247893000000000     -3.152400000000000
H       2.643995000000000      1.521697000000000     -2.836175000000000
C       5.895550000000000      0.490279000000000     -2.866321000000000
H       6.614028000000000     -1.236204000000000     -1.793555000000000
H       4.828732000000000      2.083082000000000     -3.844113000000000
C       7.177727000000000      0.854407000000000     -3.493913000000000
C       1.968929000000000     -1.995820000000000      0.008295000000000
C       1.185554000000000     -3.121717000000000     -0.237698000000000
C       2.820130000000000     -2.004799000000000      1.124568000000000
C       1.236483000000000     -4.221677000000000      0.614453000000000
H       0.497492000000000     -3.132018000000000     -1.075154000000000
C       2.880320000000000     -3.105588000000000      1.964853000000000
H       3.411228000000000     -1.121508000000000      1.356682000000000
C       2.080335000000000     -4.234064000000000      1.727688000000000
H       0.589461000000000     -5.075074000000000      0.427824000000000
H       3.527193000000000     -3.073302000000000      2.836683000000000
C       2.068059000000000     -5.404517000000000      2.622724000000000
C      -1.766387000000000      1.976106000000000      0.073138000000000
C      -2.549642000000000      2.106061000000000      1.230410000000000
C      -0.974270000000000      3.051327000000000     -0.323688000000000
C      -2.525993000000000      3.274270000000000      1.975348000000000
H      -3.159819000000000      1.268525000000000      1.562199000000000
C      -0.945638000000000      4.221225000000000      0.432122000000000
H      -0.343854000000000      2.955310000000000     -1.202587000000000
C      -1.713794000000000      4.353044000000000      1.591519000000000
H      -3.120712000000000      3.338574000000000      2.881755000000000
H      -0.292440000000000      5.037259000000000      0.132987000000000
C      -1.613501000000000      5.594220000000000      2.379144000000000
C      -3.414449000000000      0.143643000000000     -1.408661000000000
C      -4.392796000000000      1.137643000000000     -1.285429000000000
C      -3.728617000000000     -1.000690000000000     -2.153921000000000
C      -5.644185000000000      0.981148000000000     -1.868485000000000
H      -4.174026000000000      2.056279000000000     -0.752171000000000
C      -4.986000000000000     -1.161488000000000     -2.717273000000000
H      -2.979604000000000     -1.772021000000000     -2.306759000000000
C      -5.970022000000000     -0.175847000000000     -2.581444000000000
H      -6.367978000000000      1.786469000000000     -1.788181000000000
H      -5.205770000000000     -2.058850000000000     -3.289606000000000
C      -7.289054000000000     -0.381706000000000     -3.202974000000000
H       0.429086000000000      1.386978000000000     -2.251499000000000
C      -0.528061000000000     -1.926866000000000     -2.930770000000000
O      -0.783054000000000     -2.967262000000000     -3.339165000000000
Rh     -0.062559000000000     -0.104593000000000     -2.449569000000000
H      -0.293262000000000      1.357416000000000      3.205789000000000
H       0.680942000000000     -1.381758000000000      3.187646000000000
C      -2.064932000000000     -2.855680000000000      1.783141000000000
C      -2.869309000000000     -4.018431000000000      1.912714000000000
C      -0.972124000000000     -2.671692000000000      2.668554000000000
C      -2.583539000000000     -4.960198000000000      2.868448000000000
H      -3.708511000000000     -4.151973000000000      1.235172000000000
C      -0.701165000000000     -3.657904000000000      3.651768000000000
C      -1.484990000000000     -4.779774000000000      3.745782000000000
H      -3.198235000000000     -5.850556000000000      2.955906000000000
H       0.152815000000000     -3.520761000000000      4.310288000000000
H      -1.264690000000000     -5.536061000000000      4.492864000000000
C       2.985354000000000      4.066156000000000      1.449618000000000
C       2.778696000000000      5.029491000000000      2.404054000000000
C       1.802959000000000      4.838411000000000      3.414769000000000
C       1.059567000000000      3.686405000000000      3.450814000000000
C       1.248419000000000      2.678038000000000      2.470594000000000
C       2.218729000000000      2.871145000000000      1.454815000000000
H       3.730755000000000      4.205938000000000      0.671092000000000
H       3.362498000000000      5.944515000000000      2.389538000000000
H       1.641972000000000      5.612431000000000      4.158757000000000
H       0.296278000000000      3.542431000000000      4.211212000000000
C      -8.407598000000000      0.281419000000000     -2.907008000000000
H      -7.326805000000000     -1.165760000000000     -3.957671000000000
H      -8.439133999999999      1.052489000000000     -2.142747000000000
H      -9.338829000000000      0.064372000000000     -3.418632000000000
C      -2.390224000000000      5.948975000000000      3.404145000000000
H      -0.815895000000000      6.267123000000000      2.067705000000000
H      -3.212312000000000      5.332369000000000      3.755299000000000
H      -2.232569000000000      6.887590000000000      3.923953000000000
C       8.384456000000000      0.417272000000000     -3.131523000000000
H       7.102823000000000      1.562896000000000     -4.317575000000000
H       8.529790000000000     -0.267093000000000     -2.300911000000000
H       9.276664000000000      0.742815000000000     -3.654887000000000
C       2.935302000000000     -5.660521000000000      3.603643000000000
H       1.260142000000000     -6.110880000000000      2.437794000000000
H       3.773436000000000     -5.007139000000000      3.827422000000000
H       2.839891000000000     -6.552312000000000      4.213269000000000
C       0.372133000000000      0.319900000000000     -4.543078000000000
C      -0.984700000000000      0.603287000000000     -4.250960000000000
C      -1.494277000000000      2.011937000000000     -4.115374000000000
O      -2.089477000000000      2.474987000000000     -5.348048000000000
C      -3.337730000000000      2.039466000000000     -5.583344000000000
C      -3.854468000000000      2.570877000000000     -6.896713000000000
O      -3.953872000000000      1.317311000000000     -4.837267000000000
H       1.079068000000000      1.139309000000000     -4.645741000000000
H       0.638895000000000     -0.574308000000000     -5.098576000000000
H      -1.754655000000000     -0.096710000000000     -4.573775000000000
H      -0.673117000000000      2.705656000000000     -3.920277000000000
H      -2.248096000000000      2.097545000000000     -3.326789000000000
H      -3.229283000000000      2.197702000000000     -7.712124000000000
H      -3.793982000000000      3.661743000000000     -6.906950000000000
H      -4.884574000000000      2.246894000000000     -7.036971000000000
