105

C      -2.238873000000000     -1.897773000000000      0.617201000000000
C      -1.511326000000000     -0.726769000000000      0.609390000000000
C      -0.449623000000000     -0.559875000000000      1.562610000000000
C      -0.270956000000000     -1.511387000000000      2.540392000000000
H      -3.018080000000000     -2.062049000000000     -0.124212000000000
C       0.500783000000000      0.596405000000000      1.532411000000000
C       0.409353000000000      1.528926000000000      2.538765000000000
C       1.511870000000000      0.751277000000000      0.518056000000000
C       2.328959000000000      1.857696000000000      0.559376000000000
H       3.108162000000000      1.993470000000000     -0.184983000000000
P      -1.734340000000000      0.477959000000000     -0.768338000000000
P       1.617497000000000     -0.453505000000000     -0.889997000000000
C       3.298356000000000     -0.163198000000000     -1.592667000000000
C       4.375501000000000     -1.036235000000000     -1.387623000000000
C       3.476149000000000      0.949800000000000     -2.428050000000000
C       5.604993000000000     -0.791719000000000     -1.987315000000000
H       4.255719000000000     -1.916381000000000     -0.765990000000000
C       4.710617000000000      1.203040000000000     -3.012563000000000
H       2.634731000000000      1.609645000000000     -2.620192000000000
C       5.778629000000000      0.331987000000000     -2.794973000000000
H       6.446048000000000     -1.462087000000000     -1.839301000000000
H       4.843915000000000      2.072529000000000     -3.652334000000000
C       7.093901000000000      0.594649000000000     -3.429519000000000
C       1.825928000000000     -2.024555000000000      0.054312000000000
C       1.070680000000000     -3.141190000000000     -0.300066000000000
C       2.644230000000000     -2.078597000000000      1.195705000000000
C       1.102714000000000     -4.291022000000000      0.487383000000000
H       0.427518000000000     -3.103707000000000     -1.172225000000000
C       2.678850000000000     -3.220945000000000      1.979464000000000
H       3.225065000000000     -1.204592000000000      1.482222000000000
C       1.892559000000000     -4.325317000000000      1.631588000000000
H       0.479129000000000     -5.145419000000000      0.233708000000000
H       3.285031000000000     -3.274689000000000      2.878933000000000
C       1.843008000000000     -5.511514000000000      2.522760000000000
C      -1.720088000000000      2.107007000000000      0.102388000000000
C      -2.494265000000000      2.318677000000000      1.254033000000000
C      -0.872620000000000      3.117902000000000     -0.350187000000000
C      -2.387207000000000      3.504583000000000      1.962309000000000
H      -3.151615000000000      1.535278000000000      1.619398000000000
C      -0.766598000000000      4.312930000000000      0.359760000000000
H      -0.267304000000000      2.948818000000000     -1.235329000000000
C      -1.508878000000000      4.500350000000000      1.521160000000000
H      -2.955537000000000      3.675858000000000      2.871648000000000
H      -0.075797000000000      5.085630000000000      0.029335000000000
C      -1.313908000000000      5.729209000000000      2.329298000000000
C      -3.510360000000000      0.329762000000000     -1.235589000000000
C      -4.552646000000000      0.086351000000000     -0.324480000000000
C      -3.815519000000000      0.559079000000000     -2.579257000000000
C      -5.869295000000000      0.077126000000000     -0.756904000000000
H      -4.331107000000000     -0.118796000000000      0.718672000000000
C      -5.139803000000000      0.567417000000000     -3.011563000000000
H      -3.025036000000000      0.736867000000000     -3.299734000000000
C      -6.165017000000000      0.323152000000000     -2.102656000000000
H      -6.688537000000000     -0.115785000000000     -0.071075000000000
H      -5.353296000000000      0.764814000000000     -4.059296000000000
C      -7.577148000000000      0.318751000000000     -2.559489000000000
H       0.468870000000000      1.395012000000000     -2.297226000000000
C      -0.963971000000000     -1.804501000000000     -2.747838000000000
O      -1.511877000000000     -2.779686000000000     -2.984932000000000
Rh     -0.135326000000000     -0.059781000000000     -2.432482000000000
H      -0.350704000000000      1.400834000000000      3.305979000000000
H       0.522289000000000     -1.372384000000000      3.271206000000000
C      -1.995317000000000     -2.927165000000000      1.562115000000000
C      -2.686398000000000     -4.167979000000000      1.522661000000000
C      -1.018357000000000     -2.713552000000000      2.569387000000000
C      -2.406735000000000     -5.148671000000000      2.439686000000000
H      -3.432893000000000     -4.327278000000000      0.749115000000000
C      -0.761625000000000     -3.738046000000000      3.517967000000000
C      -1.434890000000000     -4.931171000000000      3.450237000000000
H      -2.932480000000000     -6.097284000000000      2.398756000000000
H       0.000050000000000     -3.574357000000000      4.276393000000000
H      -1.221955000000000     -5.716163000000000      4.169271000000000
C       2.955054000000000      4.059276000000000      1.523176000000000
C       2.752766000000000      5.037012000000000      2.463846000000000
C       1.780602000000000      4.862951000000000      3.481802000000000
C       1.034627000000000      3.713022000000000      3.537236000000000
C       1.213231000000000      2.694148000000000      2.565746000000000
C       2.182031000000000      2.868072000000000      1.544889000000000
H       3.700187000000000      4.186056000000000      0.742171000000000
H       3.339046000000000      5.949937000000000      2.434877000000000
H       1.623297000000000      5.647560000000000      4.215222000000000
H       0.273949000000000      3.583422000000000      4.302932000000000
O      -8.520303999999999      0.104114000000000     -1.835368000000000
H      -7.721341000000000      0.530638000000000     -3.638969000000000
O      -1.851832000000000      5.931509000000000      3.392596000000000
H      -0.609336000000000      6.468201000000000      1.894141000000000
O       8.064586000000000     -0.109937000000000     -3.288248000000000
H       7.136933000000000      1.506048000000000     -4.061854000000000
O       2.420185000000000     -5.583349000000000      3.582076000000000
H       1.212584000000000     -6.347377000000000      2.155275000000000
C       0.643782000000000      0.035384000000000     -4.441466000000000
C      -0.667045000000000      0.574631000000000     -4.416958000000000
C      -0.909229000000000      2.056060000000000     -4.523919000000000
O      -1.259021000000000      2.431951000000000     -5.876277000000000
C      -2.518673000000000      2.168193000000000     -6.243768000000000
C      -2.770291000000000      2.583290000000000     -7.669491000000000
O      -3.340915000000000      1.658172000000000     -5.515829000000000
H       1.497507000000000      0.705914000000000     -4.505963000000000
H       0.819466000000000     -0.951276000000000     -4.860053000000000
H      -1.485179000000000     -0.025310000000000     -4.813882000000000
H       0.004633000000000      2.612743000000000     -4.304356000000000
H      -1.709557000000000      2.400968000000000     -3.863199000000000
H      -2.123681000000000      2.005552000000000     -8.335110000000000
H      -2.519450000000000      3.638613000000000     -7.799238000000000
H      -3.815377000000000      2.407989000000000     -7.919489000000000
