101

C      -2.339088000000000     -1.816899000000000      0.624671000000000
C      -1.572957000000000     -0.670682000000000      0.630908000000000
C      -0.491132000000000     -0.560297000000000      1.570454000000000
C      -0.324111000000000     -1.545331000000000      2.517071000000000
H      -3.132212000000000     -1.942619000000000     -0.109344000000000
C       0.493363000000000      0.568205000000000      1.561659000000000
C       0.430834000000000      1.484476000000000      2.584811000000000
C       1.518366000000000      0.701635000000000      0.558028000000000
C       2.390486000000000      1.763020000000000      0.637337000000000
H       3.188814000000000      1.875064000000000     -0.089761000000000
P      -1.755286000000000      0.556094000000000     -0.733501000000000
P       1.561042000000000     -0.471611000000000     -0.875915000000000
C       3.208617000000000     -0.214166000000000     -1.652168000000000
C       3.434767000000000      0.977593000000000     -2.358606000000000
C       4.196014000000000     -1.203550000000000     -1.667859000000000
C       4.628389000000000      1.193706000000000     -3.027503000000000
H       2.656210000000000      1.734970000000000     -2.394409000000000
C       5.386894000000000     -1.005076000000000     -2.358736000000000
H       4.040942000000000     -2.143921000000000     -1.150416000000000
C       5.608099000000000      0.195858000000000     -3.031530000000000
H       4.797057000000000      2.115636000000000     -3.573169000000000
H       6.143935000000000     -1.781318000000000     -2.380695000000000
C       6.830793000000000      0.397610000000000     -3.762027000000000
C       1.774849000000000     -2.063714000000000      0.032801000000000
C       0.961823000000000     -3.154379000000000     -0.274666000000000
C       2.668485000000000     -2.155398000000000      1.108977000000000
C       1.004256000000000     -4.312697000000000      0.496016000000000
H       0.258544000000000     -3.088469000000000     -1.097802000000000
C       2.727843000000000     -3.307219000000000      1.879763000000000
H       3.300574000000000     -1.306776000000000      1.359350000000000
C       1.880526000000000     -4.382604000000000      1.580202000000000
H       0.338204000000000     -5.143125000000000      0.285732000000000
H       3.407007000000000     -3.376648000000000      2.722963000000000
C       1.871821000000000     -5.544057000000000      2.430496000000000
C      -1.678132000000000      2.175583000000000      0.154290000000000
C      -2.466690000000000      2.413537000000000      1.286743000000000
C      -0.775057000000000      3.152956000000000     -0.265751000000000
C      -2.339433000000000      3.595013000000000      2.001637000000000
H      -3.164123000000000      1.659372000000000      1.637465000000000
C      -0.632147000000000      4.339615000000000      0.447947000000000
H      -0.156844000000000      2.967046000000000     -1.138236000000000
C      -1.410503000000000      4.557210000000000      1.585919000000000
H      -2.939898000000000      3.774800000000000      2.887135000000000
H       0.095129000000000      5.084475000000000      0.142450000000000
C      -1.229398000000000      5.754847000000000      2.363695000000000
C      -3.542716000000000      0.477278000000000     -1.185795000000000
C      -4.583838000000000      0.252530000000000     -0.275109000000000
C      -3.852358000000000      0.710710000000000     -2.529611000000000
C      -5.906232000000000      0.268383000000000     -0.695722000000000
H      -4.364824000000000      0.035176000000000      0.765707000000000
C      -5.174426000000000      0.737769000000000     -2.960272000000000
H      -3.041996000000000      0.864840000000000     -3.238144000000000
C      -6.202589000000000      0.516069000000000     -2.041209000000000
H      -6.712464000000000      0.088297000000000      0.007133000000000
H      -5.413446000000000      0.921293000000000     -4.002125000000000
C      -7.574028000000000      0.531599000000000     -2.478788000000000
H       0.425343000000000      1.395946000000000     -2.276216000000000
C      -1.129337000000000     -1.749154000000000     -2.666552000000000
O      -1.775957000000000     -2.679079000000000     -2.831724000000000
Rh     -0.193446000000000     -0.050526000000000     -2.394777000000000
H      -0.338709000000000      1.370732000000000      3.345124000000000
H       0.486932000000000     -1.450455000000000      3.235667000000000
C      -2.113016000000000     -2.878422000000000      1.537880000000000
C      -2.842399000000000     -4.095618000000000      1.475590000000000
C      -1.107919000000000     -2.724982000000000      2.528442000000000
C      -2.567261000000000     -5.114989000000000      2.351117000000000
H      -3.609991000000000     -4.208636000000000      0.714591000000000
C      -0.859915000000000     -3.787885000000000      3.435697000000000
C      -1.564097000000000     -4.960878000000000      3.341711000000000
H      -3.116735000000000     -6.048702000000000      2.288675000000000
H      -0.079307000000000     -3.670256000000000      4.183135000000000
H      -1.344119000000000     -5.781040000000000      4.017167000000000
C       3.113540000000000      3.906536000000000      1.659230000000000
C       2.940724000000000      4.876870000000000      2.613332000000000
C       1.940847000000000      4.735284000000000      3.608216000000000
C       1.140443000000000      3.621715000000000      3.631191000000000
C       1.285118000000000      2.612842000000000      2.644265000000000
C       2.279666000000000      2.757617000000000      1.643551000000000
H       3.878645000000000      4.009794000000000      0.894301000000000
H       3.568439000000000      5.761986000000000      2.609957000000000
H       1.801256000000000      5.520121000000000      4.344138000000000
H       0.365422000000000      3.512157000000000      4.385549000000000
N      -8.676647000000001      0.543353000000000     -2.828356000000000
N      -1.075062000000000      6.706234000000000      3.003980000000000
N       7.815674000000000      0.564988000000000     -4.345650000000000
N       1.845488000000000     -6.465057000000000      3.130537000000000
C      -0.534933000000000      0.518778000000000     -4.469837000000000
C       0.763215000000000     -0.020196000000000     -4.313406000000000
C       1.126470000000000     -1.388905000000000     -4.821588000000000
O       1.709339000000000     -1.321454000000000     -6.138750000000000
C       3.010948000000000     -0.989708000000000     -6.178060000000000
C       3.515382000000000     -0.933541000000000     -7.595966000000000
O       3.675078000000000     -0.768352000000000     -5.193523000000000
H      -1.304646000000000     -0.081574000000000     -4.952983000000000
H      -0.671978000000000      1.591311000000000     -4.561223000000000
H       1.612151000000000      0.658351000000000     -4.267269000000000
H       0.236685000000000     -2.012073000000000     -4.946264000000000
H       1.838892000000000     -1.886998000000000     -4.157472000000000
H       2.961849000000000     -0.171702000000000     -8.150942000000001
H       3.341762000000000     -1.892626000000000     -8.089748000000000
H       4.578170000000000     -0.696632000000000     -7.591576000000000
