121

C       2.304479000000000     -2.080364000000000     -0.912717000000000
C       1.541194000000000     -0.942730000000000     -0.787770000000000
C       0.438186000000000     -0.730406000000000     -1.692792000000000
C       0.190448000000000     -1.668527000000000     -2.666050000000000
H       3.140980000000000     -2.249894000000000     -0.238542000000000
C      -0.389713000000000      0.524362000000000     -1.719704000000000
C      -0.129807000000000      1.403438000000000     -2.745099000000000
C      -1.427863000000000      0.847559000000000     -0.777626000000000
C      -2.089504000000000      2.048859000000000     -0.889745000000000
H      -2.879645000000000      2.300066000000000     -0.187133000000000
P       1.761366000000000      0.170778000000000      0.669802000000000
P      -1.783213000000000     -0.280155000000000      0.632105000000000
C      -3.340305000000000      0.364144000000000      1.363529000000000
C      -4.593947000000000     -0.188049000000000      1.081244000000000
C      -3.261402000000000      1.397264000000000      2.305894000000000
C      -5.728800000000000      0.266390000000000      1.747327000000000
H      -4.688273000000000     -0.986501000000000      0.352034000000000
C      -4.400323000000000      1.852961000000000      2.955742000000000
H      -2.292953000000000      1.829556000000000      2.541152000000000
C      -5.648936000000000      1.281570000000000      2.701312000000000
H      -6.693677000000000     -0.186695000000000      1.530564000000000
H      -4.314108000000000      2.635752000000000      3.705093000000000
C      -6.855942000000000      1.683389000000000      3.510188000000000
C      -2.367461000000000     -1.794678000000000     -0.230135000000000
C      -2.350009000000000     -3.012710000000000      0.452022000000000
C      -2.859970000000000     -1.770521000000000     -1.539910000000000
C      -2.774982000000000     -4.183099000000000     -0.169923000000000
H      -2.003463000000000     -3.048769000000000      1.481071000000000
C      -3.277551000000000     -2.943008000000000     -2.159229000000000
H      -2.908154000000000     -0.829055000000000     -2.081800000000000
C      -3.230368000000000     -4.169039000000000     -1.488645000000000
H      -2.742669000000000     -5.123294000000000      0.374966000000000
H      -3.647035000000000     -2.908946000000000     -3.182215000000000
C      -3.605255000000000     -5.448123000000000     -2.194974000000000
C       1.900254000000000      1.812028000000000     -0.144005000000000
C       2.641918000000000      1.967791000000000     -1.323734000000000
C       1.194062000000000      2.908792000000000      0.349811000000000
C       2.684379000000000      3.192654000000000     -1.976899000000000
H       3.158904000000000      1.111472000000000     -1.752576000000000
C       1.226139000000000      4.130763000000000     -0.320103000000000
H       0.589269000000000      2.793298000000000      1.244299000000000
C       1.967585000000000      4.291200000000000     -1.489855000000000
H       3.257009000000000      3.294693000000000     -2.896496000000000
H       0.645169000000000      4.967311000000000      0.061353000000000
C       2.018825000000000      5.622928000000000     -2.195752000000000
C       3.478458000000000     -0.174085000000000      1.251578000000000
C       4.614357000000000      0.508104000000000      0.802160000000000
C       3.650349000000000     -1.171543000000000      2.220228000000000
C       5.876645000000000      0.183880000000000      1.290209000000000
H       4.522502000000000      1.311068000000000      0.080069000000000
C       4.916139000000000     -1.502721000000000      2.690987000000000
H       2.781535000000000     -1.685183000000000      2.619295000000000
C       6.050971000000000     -0.830594000000000      2.232735000000000
H       6.744833000000000      0.731662000000000      0.930608000000000
H       5.022465000000000     -2.285945000000000      3.438045000000000
C       7.414776000000000     -1.137016000000000      2.799477000000000
H      -0.233695000000000      1.176065000000000      2.236332000000000
C       0.376418000000000     -2.295621000000000      2.055722000000000
O       0.655455000000000     -3.404982000000000      1.992373000000000
Rh      0.001459000000000     -0.381473000000000      2.141519000000000
H       0.645440000000000      1.155006000000000     -3.466320000000000
H      -0.628001000000000     -1.501836000000000     -3.362371000000000
C       2.024138000000000     -3.073571000000000     -1.888395000000000
C       2.782447000000000     -4.268127000000000     -1.993216000000000
C       0.942280000000000     -2.864643000000000     -2.781154000000000
C       2.469242000000000     -5.211924000000000     -2.938852000000000
H       3.609844000000000     -4.423768000000000     -1.306096000000000
C       0.643755000000000     -3.852031000000000     -3.753746000000000
C       1.387263000000000     -5.002787000000000     -3.828854000000000
H       3.050496000000000     -6.125948000000000     -3.008513000000000
H      -0.187013000000000     -3.680498000000000     -4.433454000000000
H       1.148744000000000     -5.758519000000000     -4.570837000000000
C      -2.377940000000000      4.274848000000000     -1.955518000000000
C      -2.018349000000000      5.174340000000000     -2.927285000000000
C      -1.034067000000000      4.833815000000000     -3.888892000000000
C      -0.428343000000000      3.603419000000000     -3.853197000000000
C      -0.773887000000000      2.660653000000000     -2.851001000000000
C      -1.761577000000000      2.997825000000000     -1.891816000000000
H      -3.134179000000000      4.527654000000000     -1.217065000000000
H      -2.489474000000000      6.151475000000000     -2.966376000000000
H      -0.758289000000000      5.555515000000000     -4.651812000000000
H       0.335457000000000      3.337739000000000     -4.580028000000000
H       7.475959000000000     -2.200237000000000      3.056916000000000
H       8.180482000000000     -0.947752000000000      2.038964000000000
C       7.707134000000000     -0.290491000000000      4.044082000000000
H       8.696749000000001     -0.516145000000000      4.451662000000000
H       7.668987000000000      0.775799000000000      3.801426000000000
H       6.961965000000000     -0.481153000000000      4.822353000000000
H       2.128651000000000      5.461237000000000     -3.274492000000000
H       1.066225000000000      6.145119000000000     -2.052497000000000
C       3.173823000000000      6.489350000000000     -1.681322000000000
H       4.132751000000000      5.984721000000000     -1.835113000000000
H       3.205862000000000      7.453046000000000     -2.197840000000000
H       3.065408000000000      6.677110000000000     -0.608758000000000
H      -6.756411000000000      2.728334000000000      3.824534000000000
H      -7.759441000000000      1.618317000000000      2.893024000000000
C      -7.002811000000000      0.785752000000000      4.745827000000000
H      -7.846652000000000      1.103491000000000      5.365896000000000
H      -7.169802000000000     -0.252752000000000      4.442774000000000
H      -6.087323000000000      0.806873000000000      5.344041000000000
H      -3.898130000000000     -6.202118000000000     -1.456328000000000
H      -4.476523000000000     -5.275031000000000     -2.837160000000000
C      -2.443137000000000     -5.981658000000000     -3.041222000000000
H      -2.710615000000000     -6.923505000000000     -3.529288000000000
H      -2.168703000000000     -5.259125000000000     -3.816161000000000
H      -1.557165000000000     -6.148576000000000     -2.421193000000000
C       0.559129000000000     -0.253349000000000      4.237510000000000
C      -0.849560000000000     -0.317926000000000      4.118566000000000
C      -1.637840000000000     -1.542123000000000      4.480812000000000
O      -1.999239000000000     -1.553363000000000      5.883989000000000
C      -3.028777000000000     -0.771423000000000      6.233985000000000
C      -3.283355000000000     -0.848328000000000      7.718670000000000
O      -3.661811000000000     -0.094926000000000      5.457747000000000
H       1.108139000000000     -1.132166000000000      4.572674000000000
H       1.045822000000000      0.692542000000000      4.451167000000000
H      -1.422069000000000      0.599690000000000      4.227241000000000
H      -1.045441000000000     -2.452077000000000      4.353007000000000
H      -2.558740000000000     -1.607710000000000      3.892963000000000
H      -2.416381000000000     -0.455012000000000      8.256057999999999
H      -3.415440000000000     -1.889513000000000      8.021750000000001
H      -4.169865000000000     -0.265691000000000      7.965125000000000
