97

C      -2.848410000000000     -1.507173000000000      0.850893000000000
C      -1.917403000000000     -0.500915000000000      0.736804000000000
C      -0.821743000000000     -0.445718000000000      1.671148000000000
C      -0.756762000000000     -1.382198000000000      2.675793000000000
H      -3.691258000000000     -1.551013000000000      0.165833000000000
C       0.218710000000000      0.637751000000000      1.661480000000000
C       0.135444000000000      1.578928000000000      2.662312000000000
C       1.283557000000000      0.740286000000000      0.697715000000000
C       2.156677000000000      1.800245000000000      0.775278000000000
H       2.970684000000000      1.889570000000000      0.060746000000000
P      -1.935273000000000      0.664866000000000     -0.693594000000000
P       1.404726000000000     -0.475059000000000     -0.694349000000000
C       3.130271000000000     -0.281449000000000     -1.308198000000000
C       4.185287000000000     -1.132615000000000     -0.963748000000000
C       3.376837000000000      0.756446000000000     -2.219159000000000
C       5.459296000000000     -0.943886000000000     -1.493714000000000
H       4.020955000000000     -1.965503000000000     -0.289474000000000
C       4.647058000000000      0.970970000000000     -2.739784000000000
H       2.553120000000000      1.394125000000000     -2.527625000000000
C       5.670334000000000      0.111435000000000     -2.365754000000000
H       6.283543000000000     -1.601915000000000     -1.242525000000000
H       4.850771000000000      1.773126000000000     -3.440266000000000
F       6.895017000000000      0.301045000000000     -2.873298000000000
C       1.461987000000000     -2.024218000000000      0.298958000000000
C       0.611497000000000     -3.089996000000000     -0.001007000000000
C       2.240907000000000     -2.090935000000000      1.463098000000000
C       0.518920000000000     -4.195892000000000      0.840121000000000
H      -0.017534000000000     -3.049112000000000     -0.882459000000000
C       2.170683000000000     -3.190650000000000      2.309140000000000
H       2.884636000000000     -1.255866000000000      1.729848000000000
C       1.294554000000000     -4.219430000000000      1.986968000000000
H      -0.165330000000000     -5.012672000000000      0.639105000000000
H       2.757269000000000     -3.253444000000000      3.219228000000000
F       1.184170000000000     -5.256546000000000      2.826787000000000
C      -1.895687000000000      2.279001000000000      0.183624000000000
C      -2.712519000000000      2.488153000000000      1.303900000000000
C      -0.991022000000000      3.274618000000000     -0.189315000000000
C      -2.620901000000000      3.659865000000000      2.044091000000000
H      -3.412026000000000      1.714434000000000      1.612828000000000
C      -0.882584000000000      4.453892000000000      0.544898000000000
H      -0.338197000000000      3.109054000000000     -1.040949000000000
C      -1.694633000000000      4.619742000000000      1.653966000000000
H      -3.235786000000000      3.835943000000000      2.919903000000000
H      -0.159598000000000      5.221740000000000      0.292380000000000
F      -1.574263000000000      5.732557000000000      2.389079000000000
C      -3.640108000000000      0.613112000000000     -1.382391000000000
C      -4.020565000000000     -0.497001000000000     -2.151574000000000
C      -4.527536000000000      1.690923000000000     -1.290035000000000
C      -5.258013000000000     -0.553235000000000     -2.776899000000000
H      -3.337921000000000     -1.332618000000000     -2.271714000000000
C      -5.763534000000000      1.658892000000000     -1.929281000000000
H      -4.255624000000000      2.577984000000000     -0.729065000000000
C      -6.108871000000000      0.536036000000000     -2.660117000000000
H      -5.558369000000000     -1.407334000000000     -3.373010000000000
H      -6.452076000000000      2.494503000000000     -1.876368000000000
F      -7.297106000000000      0.498755000000000     -3.275257000000000
H       0.342622000000000      1.472573000000000     -2.036761000000000
C      -0.892867000000000     -1.741109000000000     -2.748043000000000
O      -1.227367000000000     -2.757846000000000     -3.158535000000000
Rh     -0.279409000000000      0.032052000000000     -2.253696000000000
H      -0.665170000000000      1.496328000000000      3.393753000000000
H       0.058751000000000     -1.328328000000000      3.393101000000000
C      -2.744259000000000     -2.519441000000000      1.841024000000000
C      -3.662530000000000     -3.599260000000000      1.916178000000000
C      -1.678800000000000     -2.454266000000000      2.775055000000000
C      -3.510905000000000     -4.577186000000000      2.866210000000000
H      -4.480600000000000     -3.641223000000000      1.201959000000000
C      -1.546491000000000     -3.476703000000000      3.749899000000000
C      -2.438570000000000     -4.517804000000000      3.790808000000000
H      -4.211606000000000     -5.404781000000000      2.911871000000000
H      -0.714797000000000     -3.430428000000000      4.448381000000000
H      -2.324955000000000     -5.303367000000000      4.530869000000000
C       2.871595000000000      3.956624000000000      1.779645000000000
C       2.688328000000000      4.939206000000000      2.719108000000000
C       1.660678000000000      4.821391000000000      3.688360000000000
C       0.842212000000000      3.721251000000000      3.698940000000000
C       1.001955000000000      2.697153000000000      2.729581000000000
C       2.025959000000000      2.816636000000000      1.756125000000000
H       3.657836000000000      4.040783000000000      1.033969000000000
H       3.330557000000000      5.814158000000000      2.724451000000000
H       1.522619000000000      5.609975000000000      4.420959000000000
H       0.045278000000000      3.628569000000000      4.432348000000000
C       0.282236000000000      0.397392000000000     -4.329093000000000
C      -1.049601000000000      0.817339000000000     -4.092723000000000
C      -1.419515000000000      2.271453000000000     -3.981483000000000
O      -1.937903000000000      2.775346000000000     -5.231555000000000
C      -3.220977000000000      2.470959000000000     -5.485880000000000
C      -3.654533000000000      3.029887000000000     -6.817073000000000
O      -3.922996000000000      1.831664000000000     -4.739431000000000
H       1.070832000000000      1.141714000000000     -4.406256000000000
H       0.479834000000000     -0.522437000000000     -4.871358000000000
H      -1.872383000000000      0.196406000000000     -4.445833000000000
H      -0.537716000000000      2.882104000000000     -3.773100000000000
H      -2.178456000000000      2.440312000000000     -3.211546000000000
H      -3.055458000000000      2.580474000000000     -7.613346000000000
H      -3.481292000000000      4.108358000000000     -6.842382000000000
H      -4.709586000000000      2.811362000000000     -6.974369000000000
