129

C       2.377566000000000     -1.845274000000000     -0.734977000000000
C       1.579589000000000     -0.723683000000000     -0.667749000000000
C       0.498690000000000     -0.584377000000000     -1.604959000000000
C       0.351807000000000     -1.516470000000000     -2.605978000000000
H       3.179879000000000     -1.982978000000000     -0.013573000000000
C      -0.500180000000000      0.531789000000000     -1.557546000000000
C      -0.448591000000000      1.471859000000000     -2.558910000000000
C      -1.530010000000000      0.623147000000000     -0.555022000000000
C      -2.419763000000000      1.671096000000000     -0.613465000000000
H      -3.216327000000000      1.750120000000000      0.121297000000000
P       1.760031000000000      0.457554000000000      0.740490000000000
P      -1.594802000000000     -0.606054000000000      0.836515000000000
C      -3.270404000000000     -0.361565000000000      1.540116000000000
C      -4.350368000000000     -1.211349000000000      1.287329000000000
C      -3.486994000000000      0.703028000000000      2.425297000000000
C      -5.592896000000000     -1.004925000000000      1.873608000000000
H      -4.224636000000000     -2.068569000000000      0.633813000000000
C      -4.725506000000000      0.935164000000000      3.002794000000000
H      -2.658572000000000      1.363246000000000      2.669456000000000
C      -5.819081000000000      0.085655000000000      2.734492000000000
H      -6.388525000000000     -1.706881000000000      1.656027000000000
H      -4.832470000000000      1.772603000000000      3.681396000000000
N      -7.062927000000000      0.316067000000000      3.297329000000000
C      -1.741283000000000     -2.155153000000000     -0.127782000000000
C      -0.961785000000000     -3.266668000000000      0.195815000000000
C      -2.528475000000000     -2.233622000000000     -1.283939000000000
C      -0.941976000000000     -4.404295000000000     -0.597816000000000
H      -0.329796000000000     -3.239444000000000      1.076975000000000
C      -2.524311000000000     -3.359707000000000     -2.092174000000000
H      -3.138178000000000     -1.380728000000000     -1.576629000000000
C      -1.711414000000000     -4.471734000000000     -1.775839000000000
H      -0.293011000000000     -5.224639000000000     -0.316643000000000
H      -3.143096000000000     -3.368213000000000     -2.981877000000000
N      -1.660831000000000     -5.575118000000000     -2.595520000000000
C       1.653874000000000      2.086903000000000     -0.088529000000000
C       2.384726000000000      2.380268000000000     -1.245053000000000
C       0.763138000000000      3.056718000000000      0.374741000000000
C       2.216699000000000      3.573527000000000     -1.929255000000000
H       3.077825000000000      1.647506000000000     -1.650063000000000
C       0.583954000000000      4.260448000000000     -0.291732000000000
H       0.170985000000000      2.849481000000000      1.261410000000000
C       1.298388000000000      4.544521000000000     -1.471645000000000
H       2.794605000000000      3.746831000000000     -2.829499000000000
H      -0.141632000000000      4.966096000000000      0.094196000000000
N       1.100242000000000      5.721543000000000     -2.158694000000000
C       3.521051000000000      0.325529000000000      1.216775000000000
C       4.587474000000000      0.221088000000000      0.314194000000000
C       3.837758000000000      0.441703000000000      2.573739000000000
C       5.904875000000000      0.227251000000000      0.744476000000000
H       4.393823000000000      0.110542000000000     -0.749518000000000
C       5.150133000000000      0.466965000000000      3.022346000000000
H       3.046126000000000      0.529299000000000      3.310422000000000
C       6.220457000000000      0.348377000000000      2.115870000000000
H       6.692269000000000      0.139141000000000      0.005673000000000
H       5.316729000000000      0.587088000000000      4.085629000000000
N       7.532989000000000      0.341572000000000      2.550700000000000
H      -0.481844000000000      1.240919000000000      2.293383000000000
C       1.051263000000000     -1.921052000000000      2.615798000000000
O       1.641939000000000     -2.880280000000000      2.821160000000000
Rh      0.164352000000000     -0.200193000000000      2.374883000000000
H       0.330846000000000      1.395124000000000     -3.313249000000000
H      -0.462215000000000     -1.401073000000000     -3.317512000000000
C       2.187340000000000     -2.849144000000000     -1.719348000000000
C       2.978826000000000     -4.027227000000000     -1.762276000000000
C       1.169689000000000     -2.668856000000000     -2.691545000000000
C       2.766785000000000     -4.976185000000000     -2.730368000000000
H       3.753659000000000     -4.163098000000000     -1.012356000000000
C       0.973667000000000     -3.662824000000000     -3.685293000000000
C       1.754914000000000     -4.789895000000000     -3.706972000000000
H       3.376344000000000     -5.874327000000000     -2.755412000000000
H       0.187738000000000     -3.514509000000000     -4.422299000000000
H       1.597543000000000     -5.548692000000000     -4.468187000000000
C      -3.226526000000000      3.785098000000000     -1.642637000000000
C      -3.113136000000000      4.745436000000000     -2.616926000000000
C      -2.105017000000000      4.642518000000000     -3.609264000000000
C      -1.237334000000000      3.580142000000000     -3.603273000000000
C      -1.335643000000000      2.574145000000000     -2.607556000000000
C      -2.339356000000000      2.677441000000000     -1.611684000000000
H      -3.996764000000000      3.858336000000000     -0.879182000000000
H      -3.795785000000000      5.589678000000000     -2.632294000000000
H      -2.021608000000000      5.411846000000000     -4.371545000000000
H      -0.459746000000000      3.490586000000000     -4.358227000000000
C       7.808223000000000      0.694562000000000      3.928294000000000
H       7.457526000000000      1.705418000000000      4.183170000000000
H       7.327714000000000     -0.012945000000000      4.611439000000000
H       8.884449999999999      0.644402000000000      4.099057000000000
C       8.593553999999999      0.481803000000000      1.576400000000000
H       8.600519000000000     -0.365553000000000      0.882174000000000
H       8.506142000000001      1.406491000000000      0.986263000000000
H       9.553333000000000      0.491409000000000      2.094502000000000
C       0.082163000000000      6.644011000000000     -1.705418000000000
H       0.050858000000000      7.499502000000000     -2.381520000000000
H      -0.913298000000000      6.178990000000000     -1.686085000000000
H       0.309742000000000      7.016984000000000     -0.699231000000000
C       1.716164000000000      5.904345000000000     -3.452261000000000
H       1.406252000000000      6.865887000000000     -3.862885000000000
H       2.810883000000000      5.906815000000000     -3.379040000000000
H       1.425631000000000      5.116632000000000     -4.162610000000000
C      -8.068567000000000     -0.721203000000000      3.202678000000000
H      -7.743661000000000     -1.669429000000000      3.656910000000000
H      -8.974104000000001     -0.385370000000000      3.709561000000000
H      -8.327102000000000     -0.914996000000000      2.156535000000000
C      -7.167919000000000      1.272210000000000      4.379908000000000
H      -8.203296000000000      1.309976000000000      4.720868000000000
H      -6.526228000000000      1.015151000000000      5.236007000000000
H      -6.895463000000000      2.276249000000000      4.038563000000000
C      -2.369914000000000     -5.567662000000000     -3.853424000000000
H      -2.056927000000000     -4.728747000000000     -4.490896000000000
H      -2.161907000000000     -6.495507000000000     -4.387040000000000
H      -3.456163000000000     -5.494601000000000     -3.709988000000000
C      -0.813976000000000     -6.692156000000000     -2.238895000000000
H      -1.113383000000000     -7.126764000000000     -1.276650000000000
H      -0.904902000000000     -7.465855000000000     -3.002323000000000
H       0.241214000000000     -6.394898000000000     -2.170695000000000
C      -0.619692000000000     -0.201256000000000      4.378533000000000
C       0.687235000000000      0.355872000000000      4.381049000000000
C       0.912973000000000      1.831826000000000      4.549109000000000
O       1.211115000000000      2.167433000000000      5.929810000000000
C       2.453543000000000      1.894712000000000      6.338077000000000
C       2.639809000000000      2.254803000000000      7.790845000000000
O       3.313488000000000      1.416522000000000      5.633037000000000
H      -1.482188000000000      0.454536000000000      4.471134000000000
H      -0.782811000000000     -1.204719000000000      4.761550000000000
H       1.509506000000000     -0.249541000000000      4.761234000000000
H       0.004153000000000      2.391249000000000      4.317541000000000
H       1.735596000000000      2.204034000000000      3.932106000000000
H       1.984530000000000      1.631440000000000      8.405046000000000
H       2.355890000000000      3.296541000000000      7.956807000000000
H       3.678890000000000      2.093951000000000      8.074176000000000
