97

C       2.036830000000000      2.403244000000000      0.250501000000000
C       1.406234000000000      1.202766000000000      0.498751000000000
C       0.355248000000000      1.153671000000000      1.479816000000000
C       0.059682000000000      2.288479000000000      2.199913000000000
H       2.813746000000000      2.468394000000000     -0.507859000000000
C      -0.417230000000000     -0.094337000000000      1.780536000000000
C      -0.165244000000000     -0.716116000000000      2.980547000000000
C      -1.387954000000000     -0.667972000000000      0.885054000000000
C      -1.991899000000000     -1.856174000000000      1.225812000000000
H      -2.735063000000000     -2.303619000000000      0.572254000000000
P       1.725510000000000     -0.239339000000000     -0.604212000000000
P      -1.712321000000000      0.137226000000000     -0.748184000000000
C      -3.313718000000000     -0.572537000000000     -1.313447000000000
C      -4.494999000000000      0.169958000000000     -1.355516000000000
C      -3.302051000000000     -1.876196000000000     -1.824812000000000
C      -5.642565000000000     -0.404728000000000     -1.895086000000000
H      -4.535902000000000      1.187686000000000     -0.986764000000000
C      -4.463935000000000     -2.419578000000000     -2.349054000000000
H      -2.382913000000000     -2.452768000000000     -1.835890000000000
C      -5.651462000000000     -1.698801000000000     -2.394027000000000
Br     -7.236548000000000      0.611003000000000     -1.953973000000000
Br     -4.414140000000000     -4.158412000000000     -3.082171000000000
H      -6.547137000000000     -2.125147000000000     -2.827534000000000
C      -2.188275000000000      1.818936000000000     -0.155520000000000
C      -1.613866000000000      2.937282000000000     -0.753663000000000
C      -2.996405000000000      1.970370000000000      0.977170000000000
C      -1.832033000000000      4.197813000000000     -0.205203000000000
H      -0.965283000000000      2.830657000000000     -1.614764000000000
C      -3.196876000000000      3.239847000000000      1.501209000000000
H      -3.430021000000000      1.104497000000000      1.469161000000000
C      -2.619454000000000      4.368416000000000      0.925126000000000
Br     -0.984528000000000      5.697821000000000     -0.970401000000000
Br     -4.221269000000000      3.445684000000000      3.077578000000000
H      -2.762296000000000      5.350148000000000      1.360061000000000
C       1.925657000000000     -1.641805000000000      0.582417000000000
C       1.307037000000000     -2.856488000000000      0.297808000000000
C       2.623204000000000     -1.483195000000000      1.784469000000000
C       1.381116000000000     -3.898133000000000      1.219334000000000
H       0.745395000000000     -2.979905000000000     -0.621325000000000
C       2.671155000000000     -2.536108000000000      2.685778000000000
H       3.071777000000000     -0.531945000000000      2.051744000000000
C       2.059210000000000     -3.758658000000000      2.421250000000000
Br      0.500709000000000     -5.525086000000000      0.837231000000000
Br      3.516761000000000     -2.282132000000000      4.359181000000000
H       2.084841000000000     -4.563081000000000      3.145927000000000
C       3.465066000000000      0.004802000000000     -1.172653000000000
C       4.504416000000000      0.431762000000000     -0.338715000000000
C       3.730115000000000     -0.313478000000000     -2.504704000000000
C       5.790650000000000      0.529132000000000     -0.851644000000000
H       4.320341000000000      0.709588000000000      0.693174000000000
C       5.031076000000000     -0.211266000000000     -2.988931000000000
H       2.920322000000000     -0.636738000000000     -3.152129000000000
C       6.075554000000000      0.208786000000000     -2.176962000000000
Br      7.194806000000000      1.115253000000000      0.269316000000000
Br      5.381142000000000     -0.645712000000000     -4.793192000000000
H       7.084328000000000      0.290519000000000     -2.562624000000000
H      -0.289690000000000     -1.738339000000000     -1.808396000000000
C       0.627903000000000      1.481729000000000     -2.935384000000000
O       1.076461000000000      2.455658000000000     -3.333259000000000
Rh      0.044508000000000     -0.266991000000000     -2.259261000000000
H       0.563532000000000     -0.276916000000000      3.659474000000000
H      -0.726346000000000      2.244872000000000      2.951270000000000
C       1.701306000000000      3.589546000000000      0.952463000000000
C       2.340244000000000      4.829599000000000      0.685559000000000
C       0.700957000000000      3.528237000000000      1.956899000000000
C       1.984850000000000      5.956117000000000      1.380421000000000
H       3.107876000000000      4.868730000000000     -0.082437000000000
C       0.347653000000000      4.711518000000000      2.657007000000000
C       0.973417000000000      5.897843000000000      2.372624000000000
H       2.471569000000000      6.902591000000000      1.168452000000000
H      -0.431383000000000      4.657690000000000      3.413730000000000
H       0.696956000000000      6.800994000000000      2.907249000000000
C      -2.217155000000000     -3.821190000000000      2.727642000000000
C      -1.854487000000000     -4.475108000000000      3.877360000000000
C      -0.937395000000000     -3.882847000000000      4.781546000000000
C      -0.401266000000000     -2.648128000000000      4.517308000000000
C      -0.749386000000000     -1.958742000000000      3.327300000000000
C      -1.666385000000000     -2.549897000000000      2.421065000000000
H      -2.913169000000000     -4.274066000000000      2.026837000000000
H      -2.266268000000000     -5.454532000000000      4.098218000000000
H      -0.660089000000000     -4.414234000000000      5.686483000000000
H       0.313420000000000     -2.192234000000000      5.197769000000000
C       0.479217000000000     -1.189613000000000     -4.185996000000000
C      -0.902425000000000     -0.911624000000000     -4.074385000000000
C      -1.561314000000000      0.203708000000000     -4.838221000000000
O      -2.116402000000000     -0.275635000000000     -6.080497000000000
C      -3.301582000000000     -0.900200000000000     -5.981649000000000
C      -3.768433000000000     -1.391439000000000     -7.326948000000000
O      -3.900646000000000     -1.043451000000000     -4.942624000000000
H       1.098481000000000     -0.562345000000000     -4.826344000000000
H       0.842623000000000     -2.204221000000000     -4.058366000000000
H      -1.581661000000000     -1.730018000000000     -3.845485000000000
H      -0.833950000000000      0.963715000000000     -5.136126000000000
H      -2.366067000000000      0.665884000000000     -4.259264000000000
H      -3.055530000000000     -2.124495000000000     -7.713319000000000
H      -3.804916000000000     -0.560278000000000     -8.035052000000000
H      -4.752267000000000     -1.846186000000000     -7.223268000000000
