121

C      -1.980688000000000     -2.268857000000000      0.829928000000000
C      -1.405949000000000     -1.015479000000000      0.803222000000000
C      -0.395912000000000     -0.688873000000000      1.772097000000000
C      -0.110146000000000     -1.591791000000000      2.770568000000000
H      -2.716327000000000     -2.552488000000000      0.080080000000000
C       0.389165000000000      0.584882000000000      1.739628000000000
C       0.163342000000000      1.503839000000000      2.737748000000000
C       1.370282000000000      0.874486000000000      0.726696000000000
C       2.012896000000000      2.091603000000000      0.749139000000000
H       2.760447000000000      2.334477000000000     -0.000743000000000
P      -1.751238000000000      0.118967000000000     -0.607412000000000
P       1.650818000000000     -0.308906000000000     -0.668468000000000
C       3.287331000000000      0.161290000000000     -1.360277000000000
C       4.444372000000000     -0.596952000000000     -1.187093000000000
C       3.331008000000000      1.266139000000000     -2.219560000000000
C       5.613843000000000     -0.252116000000000     -1.864754000000000
H       4.451295000000000     -1.467955000000000     -0.539704000000000
C       4.499448000000000      1.596799000000000     -2.886549000000000
H       2.430618000000000      1.847204000000000     -2.395541000000000
C       5.653557000000000      0.838805000000000     -2.720258000000000
C       6.817817000000000     -1.136693000000000     -1.699179000000000
C       4.496835000000000      2.778742000000000     -3.815263000000000
H       6.556868000000000      1.080233000000000     -3.268502000000000
C       2.032515000000000     -1.849805000000000      0.268922000000000
C       1.456218000000000     -3.050977000000000     -0.133566000000000
C       2.787585000000000     -1.823225000000000      1.446384000000000
C       1.616004000000000     -4.205730000000000      0.630163000000000
H       0.847556000000000     -3.087473000000000     -1.030299000000000
C       2.933715000000000     -2.977772000000000      2.206272000000000
H       3.230614000000000     -0.891637000000000      1.792267000000000
C       2.349129000000000     -4.178065000000000      1.807547000000000
C       0.991452000000000     -5.486615000000000      0.149174000000000
C       3.619501000000000     -2.893620000000000      3.539764000000000
H       2.444647000000000     -5.068433000000000      2.419561000000000
C      -1.979548000000000      1.746368000000000      0.233295000000000
C      -2.708363000000000      1.865018000000000      1.419362000000000
C      -1.330031000000000      2.869399000000000     -0.272725000000000
C      -2.761254000000000      3.081846000000000      2.088712000000000
H      -3.196002000000000      0.999574000000000      1.860497000000000
C      -1.391287000000000      4.085270000000000      0.405479000000000
H      -0.740728000000000      2.785163000000000     -1.180615000000000
C      -2.102868000000000      4.203348000000000      1.590886000000000
C      -3.435854000000000      3.135775000000000      3.428914000000000
C      -0.680124000000000      5.273208000000000     -0.181307000000000
H      -2.122674000000000      5.141867000000000      2.133610000000000
C      -3.478624000000000     -0.295809000000000     -1.099574000000000
C      -4.513175000000000     -0.599090000000000     -0.204674000000000
C      -3.752864000000000     -0.274199000000000     -2.464233000000000
C      -5.787048000000000     -0.873597000000000     -0.682534000000000
H      -4.325872000000000     -0.658850000000000      0.862803000000000
C      -5.036656000000000     -0.551421000000000     -2.933077000000000
H      -2.950094000000000     -0.052580000000000     -3.163833000000000
C      -6.061117000000000     -0.853346000000000     -2.050905000000000
C      -6.910499000000000     -1.171493000000000      0.272735000000000
C      -5.272012000000000     -0.504594000000000     -4.417427000000000
H      -7.055280000000000     -1.088183000000000     -2.416351000000000
H       0.268687000000000      1.354010000000000     -2.093692000000000
C      -0.681831000000000     -2.010828000000000     -2.607838000000000
O      -1.137043000000000     -3.036298000000000     -2.828029000000000
Rh     -0.089221000000000     -0.170630000000000     -2.259639000000000
H      -0.576330000000000      1.280506000000000      3.503419000000000
H       0.649366000000000     -1.340762000000000      3.507702000000000
C      -1.631975000000000     -3.234630000000000      1.808610000000000
C      -2.174914000000000     -4.547038000000000      1.801545000000000
C      -0.700976000000000     -2.877696000000000      2.818553000000000
C      -1.799165000000000     -5.457175000000000      2.754814000000000
H      -2.877336000000000     -4.819922000000000      1.018990000000000
C      -0.336201000000000     -3.836245000000000      3.800635000000000
C      -0.870659000000000     -5.098207000000000      3.764848000000000
H      -2.205198000000000     -6.463195000000000      2.735566000000000
H       0.391723000000000     -3.557361000000000      4.557473000000000
H      -0.581282000000000     -5.833320000000000      4.509055000000000
C       2.316767000000000      4.367427000000000      1.693508000000000
C       1.987045000000000      5.306474000000000      2.636246000000000
C       1.060144000000000      4.997787000000000      3.663773000000000
C       0.480285000000000      3.756630000000000      3.727316000000000
C       0.794446000000000      2.771583000000000      2.754523000000000
C       1.723011000000000      3.078096000000000      1.727079000000000
H       3.017514000000000      4.601454000000000      0.896988000000000
H       2.429854000000000      6.296219000000000      2.595492000000000
H       0.808857000000000      5.753951000000000      4.400741000000000
H      -0.244752000000000      3.516909000000000      4.499882000000000
F      -5.252400000000000      0.754978000000000     -4.872141000000000
F      -6.450733000000000     -1.039734000000000     -4.753332000000000
F      -4.312775000000000     -1.172041000000000     -5.076001000000000
F      -7.714570000000000     -0.110962000000000      0.421444000000000
F      -6.455188000000000     -1.505163000000000      1.486436000000000
F      -7.670269000000000     -2.180788000000000     -0.173393000000000
F      -2.632530000000000      2.635732000000000      4.391189000000000
F      -4.556409000000000      2.405349000000000      3.449265000000000
F      -3.746220000000000      4.384977000000000      3.788064000000000
F      -1.405808000000000      5.844503000000000     -1.152566000000000
F       0.491741000000000      4.916994000000000     -0.729251000000000
F      -0.436001000000000      6.212447000000000      0.740029000000000
F       7.002294000000000     -1.469255000000000     -0.412733000000000
F       7.936698000000000     -0.544951000000000     -2.133216000000000
F       6.678018000000000     -2.282980000000000     -2.379616000000000
F       5.416420000000000      2.661282000000000     -4.776045000000000
F       4.762058000000000      3.916070000000000     -3.148376000000000
F       3.301246000000000      2.944185000000000     -4.398315000000000
F       1.775792000000000     -6.103565000000000     -0.745515000000000
F      -0.184145000000000     -5.258046000000000     -0.453106000000000
F       0.782402000000000     -6.345206000000000      1.154421000000000
F       2.749282000000000     -2.513913000000000      4.499063000000000
F       4.608094000000000     -1.994553000000000      3.536816000000000
F       4.126474000000000     -4.071142000000000      3.918288000000000
C      -0.592304000000000      0.383026000000000     -4.300816000000000
C       0.798877000000000      0.151542000000000     -4.190893000000000
C       1.458462000000000     -1.065357000000000     -4.777864000000000
O       1.915672000000000     -0.804324000000000     -6.122100000000000
C       3.067994000000000     -0.124907000000000     -6.225235000000000
C       3.422424000000000      0.133979000000000     -7.665300000000000
O       3.726505000000000      0.226051000000000     -5.274111000000000
H      -1.218009000000000     -0.356147000000000     -4.800681000000000
H      -0.970031000000000      1.399599000000000     -4.348243000000000
H       1.461580000000000      1.012441000000000     -4.148274000000000
H       0.749993000000000     -1.890826000000000     -4.885361000000000
H       2.315665000000000     -1.386338000000000     -4.178773000000000
H       2.630630000000000      0.722305000000000     -8.135795999999999
H       3.496479000000000     -0.813112000000000     -8.205234000000001
H       4.367908000000000      0.672013000000000     -7.711552000000000
