129

C      -2.403319000000000     -1.813286000000000      0.986043000000000
C      -1.583057000000000     -0.718819000000000      0.815888000000000
C      -0.475810000000000     -0.528253000000000      1.716029000000000
C      -0.290839000000000     -1.419189000000000      2.747969000000000
H      -3.237906000000000     -1.979876000000000      0.308849000000000
C       0.463231000000000      0.636584000000000      1.615295000000000
C       0.342388000000000      1.616632000000000      2.571684000000000
C       1.455986000000000      0.784065000000000      0.584555000000000
C       2.207048000000000      1.935872000000000      0.538849000000000
H       2.968435000000000      2.064465000000000     -0.225641000000000
P      -1.766230000000000      0.332394000000000     -0.691061000000000
P       1.620084000000000     -0.527915000000000     -0.708101000000000
C       3.266012000000000     -0.243219000000000     -1.474541000000000
C       4.315510000000000     -1.151340000000000     -1.345169000000000
C       3.410389000000000      0.842981000000000     -2.346213000000000
C       5.508417000000000     -0.979139000000000     -2.061165000000000
H       4.202179000000000     -2.028934000000000     -0.719112000000000
C       4.585624000000000      1.035119000000000     -3.070555000000000
H       2.570387000000000      1.512885000000000     -2.509992000000000
C       5.618919000000000      0.104061000000000     -2.931407000000000
C       6.635716000000000     -1.918782000000000     -1.918749000000000
C       4.724092000000000      2.162252000000000     -4.010603000000000
H       6.527115000000000      0.227271000000000     -3.517351000000000
C       1.923496000000000     -1.974327000000000      0.390194000000000
C       1.156055000000000     -3.126346000000000      0.259981000000000
C       2.854885000000000     -1.872329000000000      1.428172000000000
C       1.274277000000000     -4.174917000000000      1.182887000000000
H       0.430818000000000     -3.195457000000000     -0.544020000000000
C       3.039416000000000     -2.926042000000000      2.326165000000000
H       3.423454000000000     -0.952747000000000      1.547600000000000
C       2.224838000000000     -4.057713000000000      2.197809000000000
C       0.406492000000000     -5.364882000000000      1.141381000000000
C       4.045769000000000     -2.874791000000000      3.402990000000000
H       2.330068000000000     -4.868051000000000      2.917085000000000
C      -1.723656000000000      2.043246000000000     -0.000778000000000
C      -2.370205000000000      2.385603000000000      1.193703000000000
C      -0.960297000000000      3.002764000000000     -0.651285000000000
C      -2.247044000000000      3.664251000000000      1.737842000000000
H      -2.921203000000000      1.632485000000000      1.753112000000000
C      -0.806397000000000      4.293698000000000     -0.121839000000000
H      -0.465854000000000      2.736438000000000     -1.578701000000000
C      -1.471055000000000      4.613885000000000      1.058128000000000
C      -2.886670000000000      3.956294000000000      3.033534000000000
C       0.062889000000000      5.291154000000000     -0.770997000000000
H      -1.368050000000000      5.615448000000000      1.468157000000000
C      -3.536209000000000      0.113359000000000     -1.157640000000000
C      -4.590054000000000      0.268709000000000     -0.251826000000000
C      -3.816302000000000     -0.191282000000000     -2.488151000000000
C      -5.917236000000000      0.156988000000000     -0.670711000000000
H      -4.384077000000000      0.448618000000000      0.798063000000000
C      -5.137871000000000     -0.356793000000000     -2.926618000000000
H      -2.990653000000000     -0.284405000000000     -3.188762000000000
C      -6.170732000000000     -0.165288000000000     -2.009360000000000
C      -7.045644000000000      0.364883000000000      0.256041000000000
C      -5.455614000000000     -0.726877000000000     -4.318168000000000
H      -7.201816000000000     -0.272629000000000     -2.340669000000000
H       0.385742000000000      1.114951000000000     -2.267857000000000
C      -0.899194000000000     -2.164153000000000     -2.372612000000000
O      -1.447865000000000     -3.167550000000000     -2.453813000000000
Rh     -0.131020000000000     -0.373351000000000     -2.266350000000000
H      -0.402905000000000      1.499875000000000      3.355858000000000
H       0.550461000000000     -1.274657000000000      3.422623000000000
C      -2.199057000000000     -2.754483000000000      2.027897000000000
C      -3.040929000000000     -3.886072000000000      2.197330000000000
C      -1.120673000000000     -2.553838000000000      2.926948000000000
C      -2.805033000000000     -4.783547000000000      3.206472000000000
H      -3.870061000000000     -4.027925000000000      1.508868000000000
C      -0.891827000000000     -3.505382000000000      3.954798000000000
C      -1.713143000000000     -4.595312000000000      4.090017000000000
H      -3.449951000000000     -5.648086000000000      3.328590000000000
H      -0.051020000000000     -3.353964000000000      4.626990000000000
H      -1.532104000000000     -5.319213000000000      4.878459000000000
C       2.723466000000000      4.221340000000000      1.366954000000000
C       2.496733000000000      5.229442000000000      2.268934000000000
C       1.568091000000000      5.051136000000000      3.325357000000000
C       0.883499000000000      3.869499000000000      3.453576000000000
C       1.086638000000000      2.819927000000000      2.520935000000000
C       2.019563000000000      2.993238000000000      1.467556000000000
H       3.428947000000000      4.354244000000000      0.550907000000000
H       3.029869000000000      6.170578000000000      2.177989000000000
H       1.403082000000000      5.856717000000000      4.034705000000000
H       0.157560000000000      3.727700000000000      4.249977000000000
C      -4.619281000000000     -1.321765000000000     -5.169189000000000
H      -6.471948000000000     -0.505962000000000     -4.640950000000000
H      -3.608737000000000     -1.601417000000000     -4.883742000000000
H      -4.926557000000000     -1.564216000000000     -6.180483000000000
C      -6.994224000000000      1.063970000000000      1.390211000000000
H      -7.991466000000000     -0.080563000000000     -0.048609000000000
H      -6.087263000000000      1.566523000000000      1.715798000000000
H      -7.867924000000000      1.172648000000000      2.023232000000000
C      -2.547412000000000      4.941036000000000      3.867675000000000
H      -3.686795000000000      3.275303000000000      3.321839000000000
H      -1.731357000000000      5.624673000000000      3.649209000000000
H      -3.071578000000000      5.086448000000000      4.806017000000000
C       0.965957000000000      5.032190000000000     -1.718354000000000
H      -0.041712000000000      6.311120000000000     -0.403993000000000
H       1.134019000000000      4.027405000000000     -2.098669000000000
H       1.576329000000000      5.822795000000000     -2.141576000000000
C       6.817754000000000     -2.772060000000000     -0.909915000000000
H       7.379907000000000     -1.874132000000000     -2.712592000000000
H       6.127963000000000     -2.838977000000000     -0.072494000000000
H       7.678186000000000     -3.431744000000000     -0.884784000000000
C       4.150404000000000      3.355519000000000     -3.853545000000000
H       5.350606000000000      1.973589000000000     -4.880337000000000
H       3.548728000000000      3.587726000000000     -2.977908000000000
H       4.274967000000000      4.144411000000000     -4.587341000000000
C      -0.707549000000000     -5.493839000000000      0.419889000000000
H       0.711586000000000     -6.183077000000000      1.791962000000000
H      -1.084780000000000     -4.702528000000000     -0.222242000000000
H      -1.295437000000000     -6.404330000000000      0.463214000000000
C       5.091270000000000     -2.048380000000000      3.453563000000000
H       3.910435000000000     -3.603436000000000      4.201180000000000
H       5.296705000000000     -1.324859000000000      2.669540000000000
H       5.787497000000000     -2.077375000000000      4.284430000000000
C      -0.560117000000000     -0.024556000000000     -4.369310000000000
C       0.808668000000000     -0.342513000000000     -4.196019000000000
C       1.388157000000000     -1.660820000000000     -4.620209000000000
O       1.761937000000000     -1.650406000000000     -6.019207000000000
C       2.911038000000000     -1.030983000000000     -6.321872000000000
C       3.158381000000000     -1.055023000000000     -7.809628000000000
O       3.643144000000000     -0.521206000000000     -5.507366000000000
H      -1.225192000000000     -0.771934000000000     -4.800918000000000
H      -0.864380000000000      1.002354000000000     -4.545372000000000
H       1.534710000000000      0.466851000000000     -4.225074000000000
H       0.651513000000000     -2.464912000000000     -4.549755000000000
H       2.273737000000000     -1.912297000000000     -4.028387000000000
H       2.374309000000000     -0.486326000000000     -8.316597000000000
H       3.114037000000000     -2.081798000000000     -8.179909000000000
H       4.132247000000000     -0.616250000000000     -8.021660000000001
