97

C      -2.162038000000000     -2.203738000000000      0.964260000000000
C      -1.552763000000000     -0.975226000000000      0.825122000000000
C      -0.512349000000000     -0.600956000000000      1.744991000000000
C      -0.211940000000000     -1.443094000000000      2.791288000000000
H      -2.928116000000000     -2.519022000000000      0.259494000000000
C       0.259060000000000      0.679104000000000      1.632044000000000
C       0.007975000000000      1.654500000000000      2.567992000000000
C       1.247837000000000      0.923203000000000      0.613940000000000
C       1.883870000000000      2.142652000000000      0.579140000000000
H       2.646506000000000      2.344720000000000     -0.166930000000000
P      -1.884479000000000      0.044099000000000     -0.673721000000000
P       1.558237000000000     -0.359158000000000     -0.682910000000000
C       3.161586000000000      0.121611000000000     -1.449252000000000
C       4.325606000000000     -0.630966000000000     -1.286297000000000
C       3.168480000000000      1.222129000000000     -2.315691000000000
C       5.476854000000000     -0.264391000000000     -1.978883000000000
H       4.353402000000000     -1.500917000000000     -0.640863000000000
C       4.336637000000000      1.566943000000000     -2.977741000000000
H       2.262136000000000      1.794196000000000     -2.488883000000000
C       5.508098000000000      0.834202000000000     -2.824428000000000
Cl      6.921158000000000     -1.215186000000000     -1.777445000000000
Cl      4.325095000000000      2.920747000000000     -4.068822000000000
H       6.406803000000000      1.097258000000000     -3.368754000000000
C       2.031038000000000     -1.770826000000000      0.408601000000000
C       1.451312000000000     -3.019497000000000      0.201610000000000
C       2.861702000000000     -1.559660000000000      1.514996000000000
C       1.688754000000000     -4.044685000000000      1.113899000000000
H       0.787284000000000     -3.191957000000000     -0.637508000000000
C       3.083511000000000     -2.602375000000000      2.404221000000000
H       3.304564000000000     -0.585189000000000      1.701463000000000
C       2.500065000000000     -3.854041000000000      2.224181000000000
Cl      0.913070000000000     -5.581670000000000      0.889978000000000
Cl      4.077433000000000     -2.334640000000000      3.808230000000000
H       2.660840000000000     -4.652167000000000      2.939431000000000
C      -2.104215000000000      1.739349000000000      0.028000000000000
C      -2.833477000000000      1.941626000000000      1.203882000000000
C      -1.471968000000000      2.815427000000000     -0.589727000000000
C      -2.901686000000000      3.214884000000000      1.750180000000000
H      -3.295851000000000      1.113562000000000      1.731187000000000
C      -1.564485000000000      4.082921000000000     -0.018890000000000
H      -0.887452000000000      2.664805000000000     -1.490963000000000
C      -2.274063000000000      4.304502000000000      1.152763000000000
Cl     -3.742340000000000      3.451414000000000      3.257806000000000
Cl     -0.747915000000000      5.417162000000000     -0.777606000000000
H      -2.316031000000000      5.289055000000000      1.603316000000000
C      -3.619715000000000     -0.385685000000000     -1.138065000000000
C      -4.651199000000000     -0.570831000000000     -0.211072000000000
C      -3.889742000000000     -0.472608000000000     -2.504112000000000
C      -5.935584000000000     -0.835408000000000     -0.667624000000000
H      -4.465140000000000     -0.538797000000000      0.856950000000000
C      -5.189480000000000     -0.732488000000000     -2.930572000000000
H      -3.087477000000000     -0.339085000000000     -3.224549000000000
C      -6.227117000000000     -0.917690000000000     -2.026944000000000
Cl     -7.217814000000000     -1.076656000000000      0.483224000000000
Cl     -5.522017000000000     -0.839185000000000     -4.633645000000000
H      -7.234371000000000     -1.126310000000000     -2.367693000000000
H       0.138712000000000      1.101915000000000     -2.271402000000000
C      -0.778994000000000     -2.308735000000000     -2.350369000000000
O      -1.227474000000000     -3.358098000000000     -2.427948000000000
Rh     -0.195564000000000     -0.437800000000000     -2.246635000000000
H      -0.732860000000000      1.463337000000000      3.342039000000000
H       0.566031000000000     -1.151212000000000      3.493893000000000
C      -1.818254000000000     -3.101071000000000      2.007654000000000
C      -2.432956000000000     -4.374530000000000      2.139117000000000
C      -0.834714000000000     -2.705694000000000      2.951021000000000
C      -2.071851000000000     -5.216569000000000      3.158308000000000
H      -3.187147000000000     -4.669511000000000      1.414699000000000
C      -0.477160000000000     -3.598791000000000      3.994812000000000
C      -1.079787000000000     -4.826456000000000      4.093457000000000
H      -2.540084000000000     -6.191081000000000      3.251070000000000
H       0.286756000000000     -3.293022000000000      4.705509000000000
H      -0.800008000000000     -5.507662000000000      4.890686000000000
C       2.173238000000000      4.464473000000000      1.410749000000000
C       1.826885000000000      5.452126000000000      2.296644000000000
C       0.873500000000000      5.200407000000000      3.315289000000000
C       0.288953000000000      3.964881000000000      3.429098000000000
C       0.623050000000000      2.929406000000000      2.518323000000000
C       1.572080000000000      3.181400000000000      1.494998000000000
H       2.898137000000000      4.653125000000000      0.623633000000000
H       2.279816000000000      6.435180000000000      2.219387000000000
H       0.608991000000000      5.993513000000000      4.007450000000000
H      -0.447871000000000      3.765088000000000      4.203085000000000
C      -0.615160000000000     -0.157960000000000     -4.367736000000000
C       0.764489000000000     -0.390820000000000     -4.165643000000000
C       1.422104000000000     -1.690126000000000     -4.540952000000000
O       1.975678000000000     -1.627357000000000     -5.871699000000000
C       3.161454000000000     -1.005488000000000     -5.976949000000000
C       3.626724000000000     -0.966298000000000     -7.409155000000000
O       3.761792000000000     -0.540814000000000     -5.037319000000000
H      -1.233195000000000     -0.951747000000000     -4.785778000000000
H      -0.974683000000000      0.847027000000000     -4.563691000000000
H       1.446125000000000      0.456399000000000     -4.195490000000000
H       0.694201000000000     -2.504747000000000     -4.584350000000000
H       2.227394000000000     -1.947732000000000     -3.846814000000000
H       2.921949000000000     -0.378783000000000     -8.003409000000000
H       3.646300000000000     -1.977138000000000     -7.822973000000000
H       4.617434000000000     -0.516941000000000     -7.454518000000000
