105

C       2.249405000000000      2.052187000000000      0.345778000000000
C       1.517768000000000      0.897400000000000      0.527854000000000
C       0.436753000000000      0.897934000000000      1.477273000000000
C       0.228770000000000      2.015872000000000      2.252602000000000
H       3.045290000000000      2.089127000000000     -0.395069000000000
C      -0.453685000000000     -0.287548000000000      1.680001000000000
C      -0.313795000000000     -0.986551000000000      2.855700000000000
C      -1.410740000000000     -0.742915000000000      0.704273000000000
C      -2.088343000000000     -1.918170000000000      0.933550000000000
H      -2.819383000000000     -2.284582000000000      0.218868000000000
P       1.750636000000000     -0.510338000000000     -0.640166000000000
P      -1.603715000000000      0.178876000000000     -0.889448000000000
C      -3.236283000000000     -0.352273000000000     -1.557838000000000
C      -4.333310000000000      0.504228000000000     -1.642375000000000
C      -3.337635000000000     -1.629134000000000     -2.122927000000000
C      -5.516768000000000      0.081570000000000     -2.260653000000000
H      -4.290614000000000      1.512590000000000     -1.246385000000000
C      -4.524799000000000     -2.050095000000000     -2.721479000000000
H      -2.481388000000000     -2.297737000000000     -2.119419000000000
C      -5.626564000000000     -1.197744000000000     -2.796591000000000
C      -6.629059000000000      0.991570000000000     -2.344137000000000
C      -4.588448000000000     -3.357217000000000     -3.320013000000000
H      -6.539445000000000     -1.516509000000000     -3.285820000000000
C      -1.972427000000000      1.857322000000000     -0.211845000000000
C      -1.258471000000000      2.957606000000000     -0.677406000000000
C      -2.850994000000000      2.017081000000000      0.863640000000000
C      -1.401939000000000      4.206917000000000     -0.061596000000000
H      -0.552095000000000      2.847903000000000     -1.493362000000000
C      -3.004105000000000      3.268510000000000      1.466288000000000
H      -3.398265000000000      1.164839000000000      1.259118000000000
C      -2.274324000000000      4.370657000000000      1.012146000000000
C      -0.596058000000000      5.315854000000000     -0.501073000000000
C      -3.884805000000000      3.415355000000000      2.595777000000000
H      -2.371057000000000      5.333970000000000      1.500391000000000
C       1.764776000000000     -1.999316000000000      0.458775000000000
C       2.410052000000000     -1.991859000000000      1.698404000000000
C       1.063384000000000     -3.136612000000000      0.069571000000000
C       2.342997000000000     -3.107254000000000      2.535387000000000
H       2.921831000000000     -1.101932000000000      2.054113000000000
C       0.998198000000000     -4.255475000000000      0.912695000000000
H       0.538164000000000     -3.150063000000000     -0.880172000000000
C       1.636876000000000     -4.250401000000000      2.148812000000000
C       2.930102000000000     -3.045614000000000      3.847776000000000
C       0.218009000000000     -5.397084000000000      0.511434000000000
H       1.561067000000000     -5.102394000000000      2.814817000000000
C       3.535682000000000     -0.409083000000000     -1.105966000000000
C       4.563772000000000     -0.101536000000000     -0.210698000000000
C       3.852998000000000     -0.705121000000000     -2.431079000000000
C       5.893324000000000     -0.097593000000000     -0.640836000000000
H       4.347190000000000      0.163673000000000      0.819539000000000
C       5.187243000000000     -0.707013000000000     -2.856534000000000
H       3.055591000000000     -0.931607000000000     -3.135145000000000
C       6.215168000000000     -0.403993000000000     -1.965840000000000
C       6.940112000000000      0.233787000000000      0.290354000000000
C       5.493175000000000     -1.014097000000000     -4.229416000000000
H       7.248043000000000     -0.398799000000000     -2.295312000000000
H      -0.327325000000000     -1.745603000000000     -2.030654000000000
C       0.942009000000000      1.435258000000000     -2.907702000000000
O       1.498902000000000      2.382251000000000     -3.222675000000000
Rh      0.163470000000000     -0.285225000000000     -2.364546000000000
H       0.394812000000000     -0.627652000000000      3.600032000000000
H      -0.573571000000000      2.002915000000000      2.987754000000000
C       1.991387000000000      3.233468000000000      1.088331000000000
C       2.711242000000000      4.436572000000000      0.863357000000000
C       0.977659000000000      3.206305000000000      2.082214000000000
C       2.421918000000000      5.562083000000000      1.589637000000000
H       3.480999000000000      4.453594000000000      0.097070000000000
C       0.706339000000000      4.383557000000000      2.827502000000000
C       1.409365000000000      5.535117000000000      2.581834000000000
H       2.960080000000000      6.484524000000000      1.400457000000000
H      -0.072251000000000      4.356054000000000      3.585782000000000
H       1.192692000000000      6.435868000000000      3.146768000000000
C      -2.433884000000000     -3.994704000000000      2.251482000000000
C      -2.143548000000000     -4.749848000000000      3.360281000000000
C      -1.284159000000000     -4.246128000000000      4.368472000000000
C      -0.716377000000000     -3.002968000000000      4.241015000000000
C      -0.974051000000000     -2.217820000000000      3.088063000000000
C      -1.850734000000000     -2.711743000000000      2.087290000000000
H      -3.088332000000000     -4.381427000000000      1.475300000000000
H      -2.573082000000000     -5.740225000000000      3.467963000000000
H      -1.073479000000000     -4.852603000000000      5.243511000000000
H      -0.043558000000000     -2.617078000000000      5.002881000000000
N       5.729730000000000     -1.259924000000000     -5.334256000000000
N       7.775454000000000      0.503990000000000      1.042806000000000
N       3.373579000000000     -2.978752000000000      4.914085000000000
N      -0.423265000000000     -6.303452000000000      0.187298000000000
N      -7.518391000000000      1.728447000000000     -2.402642000000000
N      -4.630485000000000     -4.407884000000000     -3.801446000000000
N       0.061074000000000      6.202351000000000     -0.847466000000000
N      -4.580846000000000      3.528515000000000      3.512271000000000
C       0.562221000000000     -1.121013000000000     -4.344147000000000
C      -0.780428000000000     -0.694235000000000     -4.250115000000000
C      -1.283030000000000      0.541148000000000     -4.948529000000000
O      -1.899676000000000      0.207203000000000     -6.205468000000000
C      -3.158345000000000     -0.255734000000000     -6.125748000000000
C      -3.698405000000000     -0.603213000000000     -7.486336000000000
O      -3.759749000000000     -0.374931000000000     -5.083238000000000
H       1.270051000000000     -0.527037000000000     -4.920597000000000
H       0.803817000000000     -2.176600000000000     -4.276394000000000
H      -1.554458000000000     -1.442759000000000     -4.095446000000000
H      -0.458419000000000      1.209613000000000     -5.210718000000000
H      -2.015999000000000      1.078336000000000     -4.339550000000000
H      -3.110355000000000     -1.421317000000000     -7.910591000000000
H      -3.603513000000000      0.254829000000000     -8.155576000000000
H      -4.741088000000000     -0.903105000000000     -7.396253000000000
