121

C       2.368554000000000      2.335657000000000      0.405110000000000
C       1.678803000000000      1.158903000000000      0.596338000000000
C       0.572008000000000      1.138534000000000      1.515675000000000
C       0.247121000000000      2.285626000000000      2.199594000000000
H       3.185819000000000      2.382796000000000     -0.310603000000000
C      -0.212045000000000     -0.101350000000000      1.827209000000000
C       0.103022000000000     -0.745419000000000      2.999298000000000
C      -1.267838000000000     -0.620185000000000      0.997126000000000
C      -1.938567000000000     -1.748424000000000      1.409936000000000
H      -2.763650000000000     -2.147920000000000      0.831102000000000
P       1.904198000000000     -0.224760000000000     -0.600268000000000
P      -1.597142000000000      0.190672000000000     -0.632150000000000
C      -3.042802000000000     -0.695335000000000     -1.347254000000000
C      -4.103632000000000      0.026988000000000     -1.897628000000000
C      -3.005903000000000     -2.083151000000000     -1.539399000000000
C      -5.114782000000000     -0.623781000000000     -2.606229000000000
H      -4.145857000000000      1.107678000000000     -1.810546000000000
C      -4.046640000000000     -2.733732000000000     -2.204004000000000
H      -2.168981000000000     -2.677520000000000     -1.179836000000000
C      -5.101305000000000     -2.003720000000000     -2.753574000000000
C      -6.213640000000000      0.134005000000000     -3.268504000000000
C      -4.012821000000000     -4.217218000000000     -2.297846000000000
H      -5.900867000000000     -2.489228000000000     -3.301683000000000
C      -2.336727000000000      1.768335000000000     -0.027131000000000
C      -1.661653000000000      2.965416000000000     -0.255191000000000
C      -3.478329000000000      1.777949000000000      0.778453000000000
C      -2.109521000000000      4.155676000000000      0.322590000000000
H      -0.751711000000000      2.973338000000000     -0.846806000000000
C      -3.942175000000000      2.970732000000000      1.332833000000000
H      -4.019688000000000      0.860450000000000      0.998243000000000
C      -3.254212000000000      4.164688000000000      1.113412000000000
C      -1.344545000000000      5.426375000000000      0.173980000000000
C      -5.168957000000000      2.909235000000000      2.175588000000000
H      -3.588277000000000      5.095804000000000      1.558554000000000
C       1.965874000000000     -1.752582000000000      0.431511000000000
C       2.799471000000000     -1.910374000000000      1.543142000000000
C       1.051907000000000     -2.758482000000000      0.134880000000000
C       2.702886000000000     -3.057421000000000      2.333525000000000
H       3.502036000000000     -1.135067000000000      1.831793000000000
C       0.945218000000000     -3.899485000000000      0.932829000000000
H       0.386151000000000     -2.641642000000000     -0.711074000000000
C       1.777191000000000     -4.059756000000000      2.031440000000000
C       3.517770000000000     -3.220277000000000      3.567227000000000
C      -0.120451000000000     -4.907014000000000      0.649116000000000
H       1.685157000000000     -4.931057000000000      2.672421000000000
C       3.640246000000000     -0.045737000000000     -1.181845000000000
C       4.726958000000000      0.238917000000000     -0.348180000000000
C       3.862791000000000     -0.235532000000000     -2.546876000000000
C       6.015906000000000      0.317877000000000     -0.876328000000000
H       4.580605000000000      0.430140000000000      0.710323000000000
C       5.155333000000000     -0.158703000000000     -3.071240000000000
H       3.017608000000000     -0.436946000000000     -3.200153000000000
C       6.234695000000000      0.114859000000000     -2.238311000000000
C       7.195197000000000      0.625990000000000     -0.019460000000000
C       5.421036000000000     -0.349044000000000     -4.525222000000000
H       7.238839000000000      0.179380000000000     -2.645370000000000
H      -0.195690000000000     -1.424801000000000     -2.063253000000000
C       0.806331000000000      1.934717000000000     -2.496892000000000
O       1.286223000000000      2.952985000000000     -2.699871000000000
Rh      0.169577000000000      0.098264000000000     -2.186540000000000
H       0.901728000000000     -0.345592000000000      3.620866000000000
H      -0.592020000000000      2.265003000000000      2.892431000000000
C       2.013777000000000      3.534963000000000      1.076382000000000
C       2.687073000000000      4.759768000000000      0.833423000000000
C       0.928683000000000      3.511870000000000      1.990106000000000
C       2.284876000000000      5.911616000000000      1.464535000000000
H       3.519118000000000      4.770413000000000      0.134325000000000
C       0.535680000000000      4.714281000000000      2.631020000000000
C       1.194512000000000      5.889897000000000      2.369191000000000
H       2.804316000000000      6.846065000000000      1.274941000000000
H      -0.308784000000000      4.693623000000000      3.315092000000000
H       0.873301000000000      6.809917000000000      2.846176000000000
C      -2.141924000000000     -3.720466000000000      2.898276000000000
C      -1.683415000000000     -4.439433000000000      3.973232000000000
C      -0.647603000000000     -3.924084000000000      4.791223000000000
C      -0.085870000000000     -2.703458000000000      4.513027000000000
C      -0.518048000000000     -1.958066000000000      3.387279000000000
C      -1.559986000000000     -2.468219000000000      2.572830000000000
H      -2.927168000000000     -4.116011000000000      2.259097000000000
H      -2.105569000000000     -5.413920000000000      4.194487000000000
H      -0.289877000000000     -4.507179000000000      5.633497000000000
H       0.720541000000000     -2.311778000000000      5.127663000000000
O       6.514326000000000     -0.299833000000000     -5.031428000000000
O       4.299278000000000     -0.582251000000000     -5.231698000000000
H       4.574657000000000     -0.691814000000000     -6.158584000000000
O       8.329993999999999      0.700971000000000     -0.419826000000000
O       6.864490000000000      0.818769000000000      1.271697000000000
H       7.695352000000000      1.010182000000000      1.740640000000000
O       3.403036000000000     -4.130673000000000      4.351263000000000
O       4.407104000000000     -2.222497000000000      3.745704000000000
H       4.877243000000000     -2.424791000000000      4.573175000000000
O      -0.205249000000000     -5.990971000000000      1.170110000000000
O      -0.992139000000000     -4.433101000000000     -0.254181000000000
H      -1.689914000000000     -5.081689000000000     -0.467940000000000
O      -7.077568000000000     -0.371930000000000     -3.941858000000000
O      -6.159436000000000      1.453261000000000     -3.021715000000000
H      -6.889542000000000      1.853589000000000     -3.524160000000000
O      -3.246484000000000     -4.942499000000000     -1.698811000000000
O      -4.948797000000000     -4.711393000000000     -3.118959000000000
H      -4.857221000000000     -5.680161000000000     -3.095996000000000
O      -1.657125000000000      6.474608000000000      0.684800000000000
O      -0.242819000000000      5.272814000000000     -0.577767000000000
H       0.252614000000000      6.109370000000000     -0.533795000000000
O      -5.794702000000000      1.901857000000000      2.397797000000000
O      -5.517666000000000      4.108244000000000      2.676100000000000
H      -6.322125000000000      3.961815000000000      3.203724000000000
C       0.480582000000000     -0.454663000000000     -4.266989000000000
C      -0.868363000000000     -0.081499000000000     -4.052802000000000
C      -1.405095000000000      1.222590000000000     -4.577170000000000
O      -1.976401000000000      1.052957000000000     -5.893175000000000
C      -3.274975000000000      0.723802000000000     -5.941374000000000
C      -3.731490000000000      0.516080000000000     -7.361579000000000
O      -3.978414000000000      0.611381000000000     -4.964817000000000
H       1.143655000000000      0.228472000000000     -4.796020000000000
H       0.752661000000000     -1.501698000000000     -4.349299000000000
H      -1.625685000000000     -0.859334000000000     -3.953466000000000
H      -0.599182000000000      1.947348000000000     -4.720038000000000
H      -2.170926000000000      1.645873000000000     -3.921696000000000
H      -3.182683000000000     -0.321525000000000     -7.799856000000000
H      -3.509873000000000      1.404309000000000     -7.957827000000000
H      -4.800193000000000      0.307470000000000     -7.369964000000000
