145

C      -2.429538000000000     -1.777878000000000      1.020266000000000
C      -1.578105000000000     -0.719230000000000      0.793561000000000
C      -0.435851000000000     -0.539244000000000      1.651293000000000
C      -0.230062000000000     -1.429472000000000      2.679509000000000
H      -3.298636000000000     -1.922471000000000      0.383258000000000
C       0.521762000000000      0.614908000000000      1.546943000000000
C       0.426671000000000      1.590956000000000      2.511787000000000
C       1.553406000000000      0.720981000000000      0.551039000000000
C       2.424523000000000      1.785207000000000      0.596894000000000
H       3.230604000000000      1.861907000000000     -0.127460000000000
P      -1.788900000000000      0.347680000000000     -0.694517000000000
P       1.643813000000000     -0.528458000000000     -0.805644000000000
C       3.291010000000000     -0.234779000000000     -1.564802000000000
C       3.431194000000000      0.864281000000000     -2.416582000000000
C       4.382791000000000     -1.086663000000000     -1.372098000000000
C       4.640115000000000      1.136898000000000     -3.055882000000000
H       2.576984000000000      1.516171000000000     -2.589347000000000
C       5.598640000000000     -0.842788000000000     -2.013506000000000
H       4.294210000000000     -1.955991000000000     -0.726286000000000
C       5.713380000000000      0.272675000000000     -2.844048000000000
C       4.762094000000000      2.356310000000000     -3.934542000000000
C       6.787966000000000     -1.736470000000000     -1.756243000000000
H       6.658083000000000      0.463384000000000     -3.351216000000000
C       1.922290000000000     -2.051592000000000      0.186988000000000
C       1.321534000000000     -3.248652000000000     -0.188933000000000
C       2.707331000000000     -2.015855000000000      1.345409000000000
C       1.475610000000000     -4.407416000000000      0.579230000000000
H       0.709181000000000     -3.287995000000000     -1.085259000000000
C       2.870297000000000     -3.152331000000000      2.134050000000000
H       3.183119000000000     -1.083241000000000      1.647090000000000
C       2.241436000000000     -4.338067000000000      1.740393000000000
C       0.755457000000000     -5.673323000000000      0.187150000000000
C       3.755109000000000     -3.112548000000000      3.356354000000000
H       2.353047000000000     -5.228696000000000      2.357617000000000
C      -1.829619000000000      2.028950000000000      0.051298000000000
C      -1.279725000000000      3.102279000000000     -0.646581000000000
C      -2.378350000000000      2.249477000000000      1.317532000000000
C      -1.264606000000000      4.385383000000000     -0.093841000000000
H      -0.833100000000000      2.931255000000000     -1.623427000000000
C      -2.376665000000000      3.519634000000000      1.891492000000000
H      -2.760374000000000      1.411010000000000      1.898793000000000
C      -1.813956000000000      4.576371000000000      1.173456000000000
C      -0.570021000000000      5.512611000000000     -0.815859000000000
C      -2.989771000000000      3.731767000000000      3.255005000000000
H      -1.787136000000000      5.569222000000000      1.620440000000000
C      -3.554029000000000      0.095311000000000     -1.163673000000000
C      -3.836622000000000     -0.297522000000000     -2.469926000000000
C      -4.615140000000000      0.310975000000000     -0.275775000000000
C      -5.154623000000000     -0.485937000000000     -2.901643000000000
H      -3.014389000000000     -0.443525000000000     -3.166384000000000
C      -5.935639000000000      0.135211000000000     -0.679430000000000
H      -4.418168000000000      0.620381000000000      0.747675000000000
C      -6.188382000000000     -0.266530000000000     -1.996089000000000
C      -5.420920000000000     -0.966146000000000     -4.307660000000000
C      -7.068781000000000      0.446426000000000      0.268155000000000
H      -7.219357000000000     -0.405937000000000     -2.318848000000000
H       0.328218000000000      1.244022000000000     -2.176385000000000
C      -0.877139000000000     -2.053501000000000     -2.516596000000000
O      -1.392272000000000     -3.066158000000000     -2.670195000000000
Rh     -0.156394000000000     -0.251395000000000     -2.293896000000000
H      -0.350921000000000      1.509159000000000      3.268274000000000
H       0.633601000000000     -1.294595000000000      3.326698000000000
C      -2.221399000000000     -2.700215000000000      2.078795000000000
C      -3.116473000000000     -3.772266000000000      2.334376000000000
C      -1.087869000000000     -2.532958000000000      2.914648000000000
C      -2.885934000000000     -4.639989000000000      3.371584000000000
H      -3.985444000000000     -3.891748000000000      1.692590000000000
C      -0.859966000000000     -3.457966000000000      3.966522000000000
C      -1.740604000000000     -4.485743000000000      4.192641000000000
H      -3.575694000000000     -5.456022000000000      3.562686000000000
H       0.021357000000000     -3.331751000000000      4.590310000000000
H      -1.564194000000000     -5.186631000000000      5.002555000000000
C       3.205014000000000      3.913248000000000      1.610926000000000
C       3.053710000000000      4.896985000000000      2.554925000000000
C       1.997784000000000      4.826668000000000      3.498555000000000
C       1.130806000000000      3.763221000000000      3.490432000000000
C       1.277076000000000      2.723642000000000      2.535710000000000
C       2.312691000000000      2.809823000000000      1.571450000000000
H       4.001654000000000      3.967459000000000      0.873059000000000
H       3.736782000000000      5.740304000000000      2.577635000000000
H       1.881852000000000      5.618688000000000      4.231768000000000
H       0.321632000000000      3.698895000000000      4.213914000000000
H      -7.942704000000000     -0.163814000000000      0.014393000000000
H      -6.777540000000000      0.176975000000000      1.289893000000000
C      -7.444306000000000      1.932047000000000      0.218633000000000
H      -8.260935000000000      2.157751000000000      0.910633000000000
H      -6.583593000000000      2.553805000000000      0.484771000000000
H      -7.758734000000000      2.215519000000000     -0.790469000000000
H      -6.465734000000000     -0.770214000000000     -4.572321000000000
H      -4.801646000000000     -0.396376000000000     -5.010519000000000
C      -5.118243000000000     -2.461135000000000     -4.460711000000000
H      -5.742807000000000     -3.051166000000000     -3.783047000000000
H      -5.304977000000000     -2.798907000000000     -5.484128000000000
H      -4.071943000000000     -2.671087000000000     -4.215961000000000
H      -0.716859000000000      5.406049000000000     -1.896444000000000
H      -1.014425000000000      6.470658000000000     -0.523799000000000
C       0.928170000000000      5.516820000000000     -0.493202000000000
H       1.446302000000000      6.331632000000000     -1.008226000000000
H       1.086716000000000      5.626351000000000      0.584446000000000
H       1.386096000000000      4.567694000000000     -0.793781000000000
H      -2.633078000000000      2.954321000000000      3.942977000000000
H      -2.655419000000000      4.692495000000000      3.662069000000000
C      -4.521044000000000      3.695407000000000      3.203351000000000
H      -4.956697000000000      3.852618000000000      4.194307000000000
H      -4.900981000000000      4.470427000000000      2.530849000000000
H      -4.870359000000000      2.728086000000000      2.826701000000000
H       5.665874000000000      2.275269000000000     -4.547739000000000
H       3.915166000000000      2.377443000000000     -4.628574000000000
C       4.803931000000000      3.647057000000000     -3.109325000000000
H       4.887636000000000      4.527552000000000     -3.753164000000000
H       3.893748000000000      3.753445000000000     -2.508524000000000
H       5.657028000000000      3.641157000000000     -2.423036000000000
H       6.442869000000000     -2.751525000000000     -1.530494000000000
H       7.403116000000000     -1.801952000000000     -2.660651000000000
C       7.639569000000000     -1.214665000000000     -0.593494000000000
H       7.042517000000000     -1.155825000000000      0.322092000000000
H       8.497444000000000     -1.866625000000000     -0.404060000000000
H       8.012689999999999     -0.208940000000000     -0.810833000000000
H       0.824654000000000     -5.815023000000000     -0.897522000000000
H       1.244998000000000     -6.534771000000000      0.654776000000000
C      -0.716316000000000     -5.619652000000000      0.608506000000000
H      -1.239366000000000     -6.544120000000000      0.345462000000000
H      -0.798041000000000     -5.466773000000000      1.689135000000000
H      -1.226647000000000     -4.783888000000000      0.117890000000000
H       3.663159000000000     -2.136010000000000      3.845919000000000
H       3.420789000000000     -3.865819000000000      4.078875000000000
C       5.222415000000000     -3.364505000000000      2.991551000000000
H       5.337423000000000     -4.344559000000000      2.518447000000000
H       5.574347000000000     -2.608873000000000      2.281815000000000
H       5.864517000000000     -3.330471000000000      3.876389000000000
C      -0.689972000000000      0.236828000000000     -4.345386000000000
C       0.696369000000000     -0.033337000000000     -4.258646000000000
C       1.312588000000000     -1.288828000000000     -4.801454000000000
O       1.620773000000000     -1.171619000000000     -6.213594000000000
C       2.700508000000000     -0.444189000000000     -6.524373000000000
C       2.895161000000000     -0.379200000000000     -8.018872000000000
O       3.418032000000000      0.088834000000000     -5.710830000000000
H      -1.347509000000000     -0.504544000000000     -4.799632000000000
H      -1.042409000000000      1.260333000000000     -4.428114000000000
H       1.383420000000000      0.808173000000000     -4.257436000000000
H       0.618013000000000     -2.130960000000000     -4.754793000000000
H       2.236511000000000     -1.535686000000000     -4.268804000000000
H       2.040402000000000      0.127134000000000     -8.475092000000000
H       2.940505000000000     -1.388965000000000     -8.433434000000000
H       3.812557000000000      0.163793000000000     -8.241118999999999
