97

C       2.320605000000000     -1.916711000000000     -0.811572000000000
C       1.599030000000000     -0.748195000000000     -0.693703000000000
C       0.578233000000000     -0.456736000000000     -1.662726000000000
C       0.426131000000000     -1.292615000000000     -2.745180000000000
H       3.068500000000000     -2.176280000000000     -0.065682000000000
C      -0.351404000000000      0.713172000000000     -1.556867000000000
C      -0.193527000000000      1.737510000000000     -2.460232000000000
C      -1.417921000000000      0.784731000000000     -0.591600000000000
C      -2.227093000000000      1.897227000000000     -0.575308000000000
H      -3.048320000000000      1.968236000000000      0.131347000000000
P       1.759702000000000      0.281805000000000      0.825907000000000
P      -1.602272000000000     -0.554587000000000      0.674581000000000
C      -3.289884000000000     -0.320541000000000      1.370971000000000
C      -3.495926000000000      0.757222000000000      2.241789000000000
C      -4.321844000000000     -1.235670000000000      1.152274000000000
C      -4.729566000000000      0.907183000000000      2.850959000000000
H      -2.701926000000000      1.460505000000000      2.471365000000000
C      -5.535996000000000     -1.043612000000000      1.799746000000000
H      -4.209904000000000     -2.096210000000000      0.504314000000000
C      -5.777474000000000      0.022931000000000      2.646114000000000
F      -4.915403000000000      1.936892000000000      3.682422000000000
F      -6.517382000000000     -1.929370000000000      1.589098000000000
H      -6.725824000000000      0.141850000000000      3.154052000000000
C      -1.818297000000000     -2.005089000000000     -0.445727000000000
C      -1.067071000000000     -3.156638000000000     -0.225156000000000
C      -2.651877000000000     -1.915155000000000     -1.567219000000000
C      -1.146784000000000     -4.198799000000000     -1.141234000000000
H      -0.394041000000000     -3.246822000000000      0.618919000000000
C      -2.704906000000000     -2.985317000000000     -2.444894000000000
H      -3.235121000000000     -1.023166000000000     -1.775605000000000
C      -1.959131000000000     -4.142731000000000     -2.260676000000000
F      -0.396604000000000     -5.287013000000000     -0.948199000000000
F      -3.489901000000000     -2.901380000000000     -3.525912000000000
H      -1.995589000000000     -4.958067000000000     -2.972436000000000
C       1.819698000000000      1.997336000000000      0.143232000000000
C       2.652902000000000      2.310911000000000     -0.935794000000000
C       0.970918000000000      2.966189000000000      0.673045000000000
C       2.600718000000000      3.587350000000000     -1.469279000000000
H       3.307102000000000      1.579503000000000     -1.396578000000000
C       0.953112000000000      4.231199000000000      0.098193000000000
H       0.304806000000000      2.740727000000000      1.498202000000000
C       1.757976000000000      4.573595000000000     -0.974519000000000
F       3.377136000000000      3.882141000000000     -2.520472000000000
F       0.117040000000000      5.150349000000000      0.590946000000000
H       1.715853000000000      5.558835000000000     -1.421832000000000
C       3.509870000000000      0.038852000000000      1.359431000000000
C       4.590305000000000     -0.087297000000000      0.478629000000000
C       3.731718000000000      0.043852000000000      2.737630000000000
C       5.868239000000000     -0.199298000000000      1.002190000000000
H       4.461911000000000     -0.128865000000000     -0.597097000000000
C       5.033114000000000     -0.064308000000000      3.210561000000000
H       2.902584000000000      0.126069000000000      3.434290000000000
C       6.123835000000000     -0.188317000000000      2.366694000000000
F       6.901259000000000     -0.328887000000000      0.162302000000000
F       5.243321000000000     -0.058032000000000      4.530624000000000
H       7.131463000000000     -0.280754000000000      2.752338000000000
H      -0.456040000000000      1.077627000000000      2.327171000000000
C       0.881374000000000     -2.186763000000000      2.463170000000000
O       1.455648000000000     -3.170581000000000      2.572259000000000
Rh      0.073138000000000     -0.407043000000000      2.323461000000000
H       0.605748000000000      1.671217000000000     -3.195224000000000
H      -0.336323000000000     -1.059431000000000     -3.485173000000000
C       2.114862000000000     -2.823435000000000     -1.883002000000000
C       2.820194000000000     -4.052484000000000     -1.977634000000000
C       1.171460000000000     -2.488319000000000     -2.888730000000000
C       2.589356000000000     -4.906271000000000     -3.024753000000000
H       3.537685000000000     -4.305681000000000     -1.201932000000000
C       0.960843000000000     -3.385305000000000     -3.968446000000000
C       1.650747000000000     -4.568294000000000     -4.032293000000000
H       3.124565000000000     -5.848172000000000     -3.086934000000000
H       0.232223000000000     -3.123006000000000     -4.731201000000000
H       1.480366000000000     -5.254616000000000     -4.855657000000000
C      -2.816038000000000      4.167229000000000     -1.392231000000000
C      -2.582265000000000      5.210362000000000     -2.250804000000000
C      -1.553684000000000      5.122561000000000     -3.222497000000000
C      -0.780289000000000      3.993946000000000     -3.313221000000000
C      -0.995507000000000      2.904432000000000     -2.429853000000000
C      -2.024963000000000      2.990133000000000     -1.458313000000000
H      -3.601773000000000      4.228985000000000     -0.644286000000000
H      -3.184432000000000      6.111012000000000     -2.189314000000000
H      -1.381179000000000      5.956716000000000     -3.895197000000000
H       0.016443000000000      3.921597000000000     -4.049168000000000
C       0.376596000000000     -0.079782000000000      4.453442000000000
C      -0.958191000000000     -0.476099000000000      4.203290000000000
C      -1.469301000000000     -1.843150000000000      4.562247000000000
O      -2.030948000000000     -1.860754000000000      5.892802000000000
C      -3.272646000000000     -1.365218000000000      6.007544000000000
C      -3.740755000000000     -1.406865000000000      7.439346000000000
O      -3.917840000000000     -0.942941000000000      5.077550000000000
H       1.069204000000000     -0.793736000000000      4.897710000000000
H       0.604580000000000      0.960855000000000      4.660869000000000
H      -1.736262000000000      0.283207000000000      4.205345000000000
H      -0.657355000000000     -2.573908000000000      4.601901000000000
H      -2.238667000000000     -2.178832000000000      3.860644000000000
H      -3.094044000000000     -0.773047000000000      8.051726000000000
H      -3.666738000000000     -2.425954000000000      7.826026000000000
H      -4.769233000000000     -1.053586000000000      7.493770000000000
