121

C      -2.454250000000000     -1.615383000000000      0.979359000000000
C      -1.561384000000000     -0.598877000000000      0.729137000000000
C      -0.432185000000000     -0.425485000000000      1.608662000000000
C      -0.287889000000000     -1.274809000000000      2.681218000000000
H      -3.327106000000000     -1.742961000000000      0.345138000000000
C       0.580030000000000      0.680962000000000      1.491604000000000
C       0.520887000000000      1.669548000000000      2.447384000000000
C       1.629312000000000      0.726314000000000      0.506848000000000
C       2.537438000000000      1.758917000000000      0.542471000000000
H       3.351455000000000      1.792936000000000     -0.175939000000000
P      -1.707417000000000      0.466023000000000     -0.778653000000000
P       1.686250000000000     -0.556251000000000     -0.825400000000000
C       3.354662000000000     -0.388461000000000     -1.575440000000000
C       4.351553000000000     -1.353987000000000     -1.428826000000000
C       3.593042000000000      0.715259000000000     -2.405526000000000
C       5.578030000000000     -1.220348000000000     -2.087550000000000
H       4.182387000000000     -2.226267000000000     -0.804586000000000
C       4.814569000000000      0.882181000000000     -3.052842000000000
H       2.806825000000000      1.453404000000000     -2.550065000000000
C       5.796889000000000     -0.096865000000000     -2.880441000000000
C       6.631882000000000     -2.290889000000000     -1.954059000000000
C       5.053975000000000      2.061489000000000     -3.958218000000000
H       6.752388000000000      0.017210000000000     -3.389291000000000
C       1.825126000000000     -2.050260000000000      0.241896000000000
C       0.929036000000000     -3.104916000000000      0.086983000000000
C       2.723863000000000     -2.068384000000000      1.314223000000000
C       0.899401000000000     -4.165963000000000      0.994842000000000
H       0.205080000000000     -3.084522000000000     -0.720498000000000
C       2.730574000000000     -3.124451000000000      2.224416000000000
H       3.410093000000000     -1.234892000000000      1.456221000000000
C       1.805844000000000     -4.158458000000000      2.053938000000000
C      -0.130747000000000     -5.258317000000000      0.875141000000000
C       3.705550000000000     -3.149973000000000      3.374703000000000
H       1.777332000000000     -4.969964000000000      2.780189000000000
C      -1.693755000000000      2.117663000000000      0.031322000000000
C      -2.483360000000000      2.332596000000000      1.167110000000000
C      -0.806522000000000      3.108090000000000     -0.382450000000000
C      -2.390681000000000      3.520634000000000      1.889164000000000
H      -3.158760000000000      1.550346000000000      1.510402000000000
C      -0.674659000000000      4.297307000000000      0.339793000000000
H      -0.170439000000000      2.928524000000000     -1.244696000000000
C      -1.473616000000000      4.486337000000000      1.466128000000000
C      -3.239553000000000      3.754900000000000      3.113464000000000
C       0.349638000000000      5.331742000000000     -0.048253000000000
H      -1.358463000000000      5.399873000000000      2.048485000000000
C      -3.460325000000000      0.279196000000000     -1.320238000000000
C      -4.398538000000000      1.304594000000000     -1.216862000000000
C      -3.836741000000000     -0.914386000000000     -1.955425000000000
C      -5.698143000000000      1.147411000000000     -1.715789000000000
H      -4.128109000000000      2.249283000000000     -0.755393000000000
C      -5.126312000000000     -1.103603000000000     -2.440277000000000
H      -3.112045000000000     -1.714038000000000     -2.077327000000000
C      -6.048298000000000     -0.058608000000000     -2.312207000000000
C      -6.683395000000000      2.284482000000000     -1.613950000000000
C      -5.525048000000000     -2.402078000000000     -3.094639000000000
H      -7.057164000000000     -0.189636000000000     -2.699595000000000
H       0.483804000000000      1.285294000000000     -2.185451000000000
C      -0.699269000000000     -1.987800000000000     -2.698162000000000
O      -1.095668000000000     -3.031640000000000     -2.965549000000000
Rh     -0.058659000000000     -0.187182000000000     -2.349770000000000
H      -0.271607000000000      1.634205000000000      3.191470000000000
H       0.563355000000000     -1.141775000000000      3.344952000000000
C      -2.288188000000000     -2.519235000000000      2.061752000000000
C      -3.199639000000000     -3.580332000000000      2.307923000000000
C      -1.180448000000000     -2.346957000000000      2.929401000000000
C      -3.005726000000000     -4.435701000000000      3.362857000000000
H      -4.051222000000000     -3.702451000000000      1.643699000000000
C      -0.995507000000000     -3.252348000000000      4.006224000000000
C      -1.886661000000000     -4.273687000000000      4.218896000000000
H      -3.705797000000000     -5.245216000000000      3.544009000000000
H      -0.132563000000000     -3.121664000000000      4.654498000000000
H      -1.740208000000000     -4.962635000000000      5.044883000000000
C       3.381371000000000      3.881731000000000      1.521073000000000
C       3.268132000000000      4.878704000000000      2.456265000000000
C       2.222045000000000      4.845361000000000      3.413877000000000
C       1.324057000000000      3.808309000000000      3.421839000000000
C       1.425855000000000      2.759088000000000      2.471604000000000
C       2.457989000000000      2.802405000000000      1.500976000000000
H       4.175776000000000      3.903124000000000      0.779610000000000
H       3.975946000000000      5.701618000000000      2.464663000000000
H       2.138735000000000      5.644773000000000      4.143599000000000
H       0.518285000000000      3.775050000000000      4.151134000000000
H      -6.010835000000000     -2.223729000000000     -4.058844000000000
H      -6.233570000000000     -2.956284000000000     -2.469479000000000
H      -4.654839000000000     -3.041310000000000     -3.265692000000000
H      -6.404903000000000      3.103176000000000     -2.286024000000000
H      -6.711824000000000      2.691905000000000     -0.598669000000000
H      -7.692776000000000      1.960513000000000     -1.879930000000000
H      -3.708621000000000      2.827929000000000      3.453380000000000
H      -4.036710000000000      4.477777000000000      2.908341000000000
H      -2.640908000000000      4.156655000000000      3.937366000000000
H       1.001857000000000      5.559112000000000      0.802299000000000
H      -0.126656000000000      6.266019000000000     -0.364625000000000
H       0.978204000000000      4.974602000000000     -0.868395000000000
H       6.468588000000000     -3.090994000000000     -2.684562000000000
H       6.611987000000000     -2.745619000000000     -0.959531000000000
H       7.632801000000000     -1.885826000000000     -2.126107000000000
H       4.412383000000000      2.904787000000000     -3.686887000000000
H       4.824236000000000      1.781011000000000     -4.990594000000000
H       6.095606000000000      2.392830000000000     -3.911440000000000
H       0.337925000000000     -6.247632000000000      0.859870000000000
H      -0.721221000000000     -5.144959000000000     -0.038122000000000
H      -0.818584000000000     -5.228297000000000      1.728151000000000
H       4.123894000000000     -2.157413000000000      3.561009000000000
H       4.539643000000000     -3.829563000000000      3.167847000000000
H       3.223292000000000     -3.496473000000000      4.294064000000000
C      -0.645317000000000      0.444902000000000     -4.337975000000000
C       0.731097000000000      0.113131000000000     -4.338076000000000
C       1.257028000000000     -1.131347000000000     -4.991542000000000
O       1.508187000000000     -0.926434000000000     -6.405596000000000
C       2.629078000000000     -0.268137000000000     -6.717481000000000
C       2.754244000000000     -0.088833000000000     -8.209913000000000
O       3.430143000000000      0.130460000000000     -5.904376000000000
H      -1.364035000000000     -0.236647000000000     -4.790252000000000
H      -0.954687000000000      1.485082000000000     -4.332241000000000
H       1.459173000000000      0.919979000000000     -4.314659000000000
H       0.521150000000000     -1.937910000000000     -4.975815000000000
H       2.187640000000000     -1.463493000000000     -4.521917000000000
H       1.935898000000000      0.541026000000000     -8.568842000000000
H       2.670722000000000     -1.055985000000000     -8.710856000000000
H       3.711147000000000      0.377179000000000     -8.440296999999999
