129

C      -2.071978000000000     -2.073183000000000      0.918610000000000
C      -1.459563000000000     -0.844648000000000      0.792057000000000
C      -0.429060000000000     -0.479450000000000      1.725779000000000
C      -0.140880000000000     -1.328366000000000      2.770370000000000
H      -2.833680000000000     -2.377880000000000      0.204285000000000
C       0.369703000000000      0.786755000000000      1.630959000000000
C       0.130116000000000      1.762865000000000      2.569361000000000
C       1.399463000000000      0.996790000000000      0.647262000000000
C       2.100990000000000      2.179911000000000      0.655910000000000
H       2.895903000000000      2.347814000000000     -0.065590000000000
P      -1.797778000000000      0.205922000000000     -0.686821000000000
P       1.672885000000000     -0.263052000000000     -0.678292000000000
C       3.291341000000000      0.157146000000000     -1.440294000000000
C       4.398055000000000     -0.697421000000000     -1.330395000000000
C       3.343991000000000      1.267863000000000     -2.273302000000000
C       5.544898000000000     -0.412833000000000     -2.069970000000000
H       4.349795000000000     -1.568459000000000     -0.692301000000000
C       4.499651000000000      1.535532000000000     -3.015767000000000
H       2.482532000000000      1.913645000000000     -2.410862000000000
C       5.604042000000000      0.698065000000000     -2.917265000000000
O       6.671270000000000     -1.172747000000000     -2.035594000000000
O       4.439421000000000      2.625987000000000     -3.814854000000000
H       6.508760000000000      0.853162000000000     -3.490840000000000
C       2.055834000000000     -1.734020000000000      0.365668000000000
C       1.370221000000000     -2.928073000000000      0.125425000000000
C       2.930365000000000     -1.620939000000000      1.439570000000000
C       1.545942000000000     -4.001991000000000      0.996597000000000
H       0.671879000000000     -2.986598000000000     -0.697466000000000
C       3.117003000000000     -2.715063000000000      2.294830000000000
H       3.456899000000000     -0.695167000000000      1.653355000000000
C       2.426799000000000     -3.903518000000000      2.080066000000000
O       0.887364000000000     -5.180220000000000      0.890307000000000
O       3.981207000000000     -2.517382000000000      3.324348000000000
H       2.515448000000000     -4.761268000000000      2.734934000000000
C      -2.024885000000000      1.874101000000000      0.072995000000000
C      -2.844096000000000      2.050161000000000      1.180078000000000
C      -1.272881000000000      2.940448000000000     -0.430306000000000
C      -2.909445000000000      3.303653000000000      1.800741000000000
H      -3.407322000000000      1.237296000000000      1.623730000000000
C      -1.327290000000000      4.175541000000000      0.211720000000000
H      -0.625003000000000      2.772724000000000     -1.280056000000000
C      -2.157197000000000      4.369441000000000      1.321544000000000
O      -3.717438000000000      3.376365000000000      2.892691000000000
O      -0.590492000000000      5.252320000000000     -0.155347000000000
H      -2.149516000000000      5.344044000000000      1.793028000000000
C      -3.508093000000000     -0.260728000000000     -1.191586000000000
C      -3.734491000000000     -0.348593000000000     -2.564206000000000
C      -4.546620000000000     -0.471319000000000     -0.279451000000000
C      -5.023420000000000     -0.641551000000000     -3.029842000000000
H      -2.903419000000000     -0.186389000000000     -3.241200000000000
C      -5.825621000000000     -0.761711000000000     -0.759735000000000
H      -4.350663000000000     -0.439470000000000      0.783975000000000
C      -6.064472000000000     -0.844948000000000     -2.131173000000000
O      -5.342207000000000     -0.750731000000000     -4.343659000000000
O      -6.900035000000000     -0.987688000000000      0.038808000000000
H      -7.059099000000000     -1.076800000000000     -2.493764000000000
H       0.272481000000000      1.330687000000000     -2.184452000000000
C      -0.628695000000000     -2.059238000000000     -2.500273000000000
O      -1.050735000000000     -3.113251000000000     -2.663516000000000
Rh     -0.071287000000000     -0.204343000000000     -2.271252000000000
H      -0.646897000000000      1.598774000000000      3.312851000000000
H       0.639314000000000     -1.047713000000000      3.474583000000000
C      -1.741428000000000     -2.976818000000000      1.960678000000000
C      -2.348025000000000     -4.257374000000000      2.070300000000000
C      -0.768690000000000     -2.589365000000000      2.917344000000000
C      -1.983269000000000     -5.116382000000000      3.074139000000000
H      -3.097666000000000     -4.544955000000000      1.336872000000000
C      -0.419880000000000     -3.493638000000000      3.954466000000000
C      -1.006647000000000     -4.730229000000000      4.027015000000000
H      -2.442394000000000     -6.097286000000000      3.145964000000000
H       0.332402000000000     -3.189827000000000      4.678219000000000
H      -0.727326000000000     -5.421578000000000      4.815777000000000
C       2.483896000000000      4.469950000000000      1.538298000000000
C       2.158068000000000      5.463396000000000      2.425046000000000
C       1.159232000000000      5.246561000000000      3.407743000000000
C       0.508287000000000      4.042063000000000      3.478807000000000
C       0.813910000000000      3.003240000000000      2.561710000000000
C       1.813699000000000      3.218203000000000      1.579823000000000
H       3.251662000000000      4.626677000000000      0.784581000000000
H       2.665575000000000      6.421753000000000      2.380611000000000
H       0.914131000000000      6.041595000000000      4.105087000000000
H      -0.260561000000000      3.865814000000000      4.227284000000000
C      -6.703437000000000     -0.896580000000000      1.432869000000000
H      -7.674762000000000     -1.088811000000000      1.887955000000000
H      -5.982136000000000     -1.644857000000000      1.784519000000000
H      -6.355231000000000      0.102491000000000      1.722193000000000
C      -4.293242000000000     -0.619501000000000     -5.279147000000000
H      -3.828702000000000      0.372618000000000     -5.226271000000000
H      -3.523146000000000     -1.384835000000000     -5.120831000000000
H      -4.746096000000000     -0.756564000000000     -6.260813000000000
C      -3.793451000000000      4.616850000000000      3.557461000000000
H      -2.811464000000000      4.926635000000000      3.936930000000000
H      -4.183246000000000      5.400227000000000      2.896483000000000
H      -4.477523000000000      4.472675000000000      4.393671000000000
C       0.308186000000000      5.083119000000000     -1.231735000000000
H       0.839417000000000      6.029496000000000     -1.332301000000000
H       1.025936000000000      4.279512000000000     -1.025585000000000
H      -0.225549000000000      4.859603000000000     -2.163585000000000
C       6.660452000000000     -2.311183000000000     -1.203349000000000
H       5.891320000000000     -3.027378000000000     -1.516991000000000
H       7.644839000000000     -2.768250000000000     -1.303776000000000
H       6.488251000000000     -2.038784000000000     -0.154882000000000
C       5.476041000000000      2.789573000000000     -4.759884000000000
H       5.551325000000000      1.903743000000000     -5.398029000000000
H       5.200294000000000      3.656421000000000     -5.360810000000000
H       6.436771000000000      2.984409000000000     -4.267117000000000
C       0.016969000000000     -5.337303000000000     -0.212200000000000
H      -0.781998000000000     -4.587564000000000     -0.198388000000000
H       0.562905000000000     -5.263948000000000     -1.160817000000000
H      -0.417179000000000     -6.332050000000000     -0.112827000000000
C       4.165920000000000     -3.581594000000000      4.229731000000000
H       3.224095000000000     -3.852848000000000      4.723142000000000
H       4.573438000000000     -4.467305000000000      3.727541000000000
H       4.877271000000000     -3.226413000000000      4.975010000000000
C      -0.531169000000000      0.194404000000000     -4.353822000000000
C       0.868351000000000      0.046464000000000     -4.183324000000000
C       1.618071000000000     -1.160629000000000     -4.665380000000000
O       1.950279000000000     -1.058495000000000     -6.073755000000000
C       2.992008000000000     -0.280947000000000     -6.389029000000000
C       3.199286000000000     -0.238320000000000     -7.882607000000000
O       3.670280000000000      0.308696000000000     -5.580591000000000
H      -1.093730000000000     -0.609566000000000     -4.828847000000000
H      -0.958734000000000      1.183681000000000     -4.488254000000000
H       1.481733000000000      0.943879000000000     -4.168320000000000
H       1.008086000000000     -2.065251000000000     -4.608862000000000
H       2.546219000000000     -1.297406000000000     -4.100847000000000
H       2.330929000000000      0.228160000000000     -8.355409999999999
H       3.285479000000000     -1.253154000000000     -8.277495000000000
H       4.097526000000000      0.334486000000000     -8.108701000000000
