129

C      -2.193212000000000     -2.284163000000000      0.952004000000000
C      -1.544133000000000     -1.074791000000000      0.854071000000000
C      -0.372839000000000     -0.835345000000000      1.660154000000000
C       0.093024000000000     -1.837073000000000      2.476518000000000
H      -3.079012000000000     -2.479321000000000      0.351808000000000
C       0.313174000000000      0.498989000000000      1.697100000000000
C       0.038602000000000      1.315733000000000      2.767429000000000
C       1.209855000000000      0.965757000000000      0.675183000000000
C       1.717351000000000      2.240631000000000      0.754949000000000
H       2.414088000000000      2.602462000000000      0.003465000000000
P      -1.943987000000000      0.037985000000000     -0.561950000000000
P       1.586706000000000     -0.150481000000000     -0.742899000000000
C       3.007284000000000      0.665443000000000     -1.582603000000000
C       4.312283000000000      0.169909000000000     -1.506910000000000
C       2.749644000000000      1.808938000000000     -2.339320000000000
C       5.353855000000000      0.824742000000000     -2.166464000000000
H       4.509518000000000     -0.727242000000000     -0.936116000000000
C       3.787459000000000      2.462724000000000     -3.003449000000000
H       1.734735000000000      2.190337000000000     -2.410663000000000
C       5.086810000000000      1.973726000000000     -2.918189000000000
S       7.035084000000000      0.271108000000000     -2.115426000000000
S       3.465483000000000      3.940025000000000     -3.946827000000000
H       5.886894000000000      2.476207000000000     -3.453781000000000
C       2.398704000000000     -1.520219000000000      0.193722000000000
C       2.075432000000000     -2.851903000000000     -0.069793000000000
C       3.298021000000000     -1.206057000000000      1.212233000000000
C       2.628285000000000     -3.868057000000000      0.714662000000000
H       1.371878000000000     -3.084818000000000     -0.862092000000000
C       3.883536000000000     -2.221442000000000      1.975953000000000
H       3.540854000000000     -0.166185000000000      1.422035000000000
C       3.530398000000000     -3.548659000000000      1.735880000000000
S       2.258967000000000     -5.586054000000000      0.499135000000000
S       5.017149000000000     -1.706666000000000      3.236389000000000
H       3.930643000000000     -4.352796000000000      2.344300000000000
C      -2.121935000000000      1.700356000000000      0.213261000000000
C      -2.709849000000000      1.860104000000000      1.466738000000000
C      -1.604611000000000      2.810704000000000     -0.453851000000000
C      -2.791617000000000      3.126765000000000      2.052469000000000
H      -3.035576000000000      0.991993000000000      2.036306000000000
C      -1.654338000000000      4.072486000000000      0.140632000000000
H      -1.136628000000000      2.669115000000000     -1.420517000000000
C      -2.256061000000000      4.232063000000000      1.392216000000000
S      -3.521397000000000      3.190097000000000      3.666574000000000
S      -0.970399000000000      5.517250000000000     -0.628000000000000
H      -2.254062000000000      5.214165000000000      1.852675000000000
C      -3.678720000000000     -0.417625000000000     -0.989284000000000
C      -4.731563000000000     -0.246397000000000     -0.087934000000000
C      -3.912054000000000     -0.967432000000000     -2.249070000000000
C      -6.026460000000000     -0.616187000000000     -0.449450000000000
H      -4.540109000000000      0.176553000000000      0.887808000000000
C      -5.207673000000000     -1.360924000000000     -2.607469000000000
H      -3.076700000000000     -1.064981000000000     -2.934258000000000
C      -6.257217000000000     -1.178811000000000     -1.707970000000000
S      -7.429628000000000     -0.418108000000000      0.612680000000000
S      -5.619151000000000     -2.088073000000000     -4.168626000000000
H      -7.266564000000000     -1.467977000000000     -1.990898000000000
H      -0.105559000000000      1.165507000000000     -2.253375000000000
C      -0.660049000000000     -2.311086000000000     -2.176898000000000
O      -1.009231000000000     -3.402405000000000     -2.216670000000000
Rh     -0.260481000000000     -0.400936000000000     -2.170505000000000
H      -0.630778000000000      0.960050000000000      3.548517000000000
H       0.988237000000000     -1.662124000000000      3.070555000000000
C      -1.706296000000000     -3.332068000000000      1.777430000000000
C      -2.334668000000000     -4.603680000000000      1.825073000000000
C      -0.520282000000000     -3.116325000000000      2.527329000000000
C      -1.784104000000000     -5.623321000000000      2.560766000000000
H      -3.245653000000000     -4.758708000000000      1.253251000000000
C       0.028323000000000     -4.188342000000000      3.276157000000000
C      -0.584813000000000     -5.416584000000000      3.285377000000000
H      -2.262412000000000     -6.597416000000000      2.583764000000000
H       0.952928000000000     -4.023253000000000      3.823271000000000
H      -0.149429000000000     -6.237099000000000      3.846413000000000
C       1.776341000000000      4.481429000000000      1.821899000000000
C       1.389438000000000      5.315574000000000      2.839885000000000
C       0.576593000000000      4.828407000000000      3.893288000000000
C       0.151691000000000      3.522537000000000      3.898326000000000
C       0.517924000000000      2.647716000000000      2.843479000000000
C       1.348579000000000      3.128873000000000      1.799400000000000
H       2.403920000000000      4.846857000000000      1.012768000000000
H       1.707681000000000      6.352938000000000      2.843930000000000
H       0.295642000000000      5.495709000000000      4.703087000000000
H      -0.482061000000000      3.143581000000000      4.696381000000000
C      -4.018465000000000     -2.131700000000000     -5.007870000000000
H      -3.297087000000000     -2.742874000000000     -4.458817000000000
H      -4.203270000000000     -2.590679000000000     -5.980687000000000
H      -3.621855000000000     -1.125228000000000     -5.159849000000000
C      -6.729011000000000      0.505589000000000      2.003048000000000
H      -7.569168000000000      0.743246000000000      2.657581000000000
H      -6.006818000000000     -0.093372000000000      2.562789000000000
H      -6.265896000000000      1.436970000000000      1.667829000000000
C      -3.289943000000000      4.921126000000000      4.133665000000000
H      -3.846717000000000      5.589835000000000      3.473870000000000
H      -3.682840000000000      5.015833000000000      5.147435000000000
H      -2.228728000000000      5.183197000000000      4.130813000000000
C       0.270066000000000      4.786997000000000     -1.732060000000000
H      -0.187397000000000      4.298603000000000     -2.596205000000000
H       0.899687000000000      5.605904000000000     -2.084610000000000
H       0.889278000000000      4.072655000000000     -1.182533000000000
C       6.954973000000000     -1.099325000000000     -0.935720000000000
H       6.566204000000000     -0.771707000000000      0.032067000000000
H       6.354124000000000     -1.926906000000000     -1.319870000000000
H       7.983411000000000     -1.440989000000000     -0.806825000000000
C       2.144830000000000      3.319531000000000     -5.034605000000000
H       2.480362000000000      2.405336000000000     -5.527450000000000
H       1.222481000000000      3.129004000000000     -4.479094000000000
H       1.955097000000000      4.098132000000000     -5.776425000000000
C       0.629513000000000     -5.516228000000000     -0.289261000000000
H       0.696726000000000     -5.242798000000000     -1.343503000000000
H       0.206342000000000     -6.519215000000000     -0.208258000000000
H      -0.017073000000000     -4.814585000000000      0.244337000000000
C       5.601181000000000     -3.281487000000000      3.906504000000000
H       6.350602000000000     -3.026604000000000      4.657703000000000
H       4.794154000000000     -3.837054000000000      4.389124000000000
H       6.069186000000000     -3.893022000000000      3.131997000000000
C      -0.764649000000000     -0.270674000000000     -4.289971000000000
C       0.638387000000000     -0.282576000000000     -4.113191000000000
C       1.486670000000000     -1.472161000000000     -4.459462000000000
O       1.918942000000000     -1.443003000000000     -5.840163000000000
C       2.886719000000000     -0.562649000000000     -6.129754000000000
C       3.234508000000000     -0.599881000000000     -7.595887000000000
O       3.399480000000000      0.169364000000000     -5.314757000000000
H      -1.253534000000000     -1.168576000000000     -4.665955000000000
H      -1.283461000000000      0.656550000000000     -4.513533000000000
H       1.181197000000000      0.656879000000000     -4.173783000000000
H       0.921994000000000     -2.404442000000000     -4.376977000000000
H       2.377432000000000     -1.518958000000000     -3.824880000000000
H       2.374999000000000     -0.260580000000000     -8.180597000000001
H       3.458980000000000     -1.623960000000000     -7.902144000000000
H       4.089258000000000      0.049029000000000     -7.780694000000000
