135

H       5.570024000000000      3.622204000000000     -4.663247000000000
C      -1.070600000000000      0.216728000000000      2.045137000000000
C       5.810538000000000     -1.461128000000000      0.568182000000000
C       0.075180000000000      1.004693000000000      3.979089000000000
C       4.954736000000000      0.309202000000000     -1.441196000000000
C       3.597115000000000      2.758004000000000     -4.688686000000000
H       3.254021000000000      3.355377000000000     -5.527093000000000
C      -3.732291000000000      3.558072000000000     -1.745274000000000
C      -0.036170000000000     -0.700220000000000      1.812802000000000
C      -4.710570000000000      3.280554000000000     -3.929519000000000
C       3.179795000000000      1.086282000000000     -3.017268000000000
C      -4.188148000000000      4.109686000000000     -2.937905000000000
H       7.591423000000000     -1.690925000000000     -0.621735000000000
C      -3.795719000000000      2.184461000000000     -1.560139000000000
H       6.132417000000000     -2.151063000000000      1.341355000000000
C       4.896818000000000      2.904666000000000     -4.206138000000000
H       1.717392000000000      1.696150000000000     -4.445442000000000
H       1.865165000000000     -1.413862000000000      2.431304000000000
C      -5.696667000000000     -2.190395000000000     -2.488826000000000
Rh      0.069607000000000      1.986226000000000     -0.792217000000000
H      -4.119995000000000      5.183095000000000     -3.076239000000000
C       0.284908000000000     -3.193327000000000     -1.102342000000000
C       5.334892000000000      2.128112000000000     -3.138752000000000
C      -3.492581000000000     -2.231798000000000     -1.514426000000000
C      -1.065861000000000      1.059375000000000      3.167179000000000
C       2.734335000000000      1.842857000000000     -4.094499000000000
C      -0.600579000000000     -4.153765000000000     -0.604603000000000
H       3.914559000000000     -1.005242000000000      1.517556000000000
C      -4.777545000000000      1.906657000000000     -3.725367000000000
C      -1.143089000000000     -2.810623000000000      1.280801000000000
H      -3.328201000000000      4.189693000000000     -0.963086000000000
O      -2.123773000000000      0.253373000000000      1.141871000000000
H      -5.062297000000000      3.703021000000000     -4.865169000000000
O       2.978776000000000      0.742496000000000     -0.130560000000000
H       0.111076000000000      1.649811000000000      4.845581000000000
C       4.163898000000000      0.049880000000000     -0.315051000000000
C       0.482412000000000     -2.039486000000000     -0.317444000000000
H      -4.720468000000000     -3.973412000000000     -1.769764000000000
C      -5.579581000000000     -0.818627000000000     -2.672251000000000
C       1.176520000000000      0.184109000000000      3.723915000000000
C      -4.319330000000000      1.330021000000000     -2.534907000000000
H      -5.170651000000000      1.256946000000000     -4.502030000000000
O      -2.169428000000000     -0.275012000000000     -1.404599000000000
O      -3.377029000000000      1.647658000000000     -0.352056000000000
H      -2.648632000000000     -2.754215000000000     -1.080404000000000
P      -1.891012000000000      0.936673000000000     -0.341959000000000
O       2.343639000000000      0.129656000000000     -2.481299000000000
H      -0.742555000000000     -5.058922000000000     -1.177625000000000
O       1.512594000000000     -1.191288000000000     -0.669227000000000
H       6.346451000000000      2.241091000000000     -2.759314000000000
H      -6.399628000000000     -0.255531000000000     -3.108165000000000
C       4.574107000000000     -0.834359000000000      0.674127000000000
C       6.196712000000000     -0.329776000000000     -1.523770000000000
C      -1.322668000000000     -3.998922000000000      0.582509000000000
C       4.485942000000000      1.201663000000000     -2.524504000000000
P       1.634137000000000      0.396945000000000     -1.013440000000000
H      -6.603918000000000     -2.702202000000000     -2.792160000000000
H      -1.679109000000000     -2.627244000000000      2.207553000000000
C      -0.236085000000000     -1.832962000000000      0.862570000000000
H       6.814797000000000     -0.152123000000000     -2.399138000000000
C      -3.390693000000000     -0.858448000000000     -1.696915000000000
C      -4.425365000000000     -0.123229000000000     -2.290526000000000
C       1.087026000000000     -0.685379000000000      2.635823000000000
C      -4.646015000000000     -2.899096000000000     -1.910956000000000
C       6.627236000000000     -1.202136000000000     -0.530448000000000
H      -0.363437000000000      1.647705000000000     -2.256374000000000
C       0.801186000000000      2.533477000000000      0.993784000000000
O       1.360544000000000      2.915866000000000      1.908826000000000
C      -2.259155000000000     -5.078631000000000      1.131588000000000
C       0.958881000000000     -3.381145000000000     -2.469926000000000
C      -2.230388000000000      2.004846000000000      3.508210000000000
C       2.442783000000000      0.248750000000000      4.582773000000000
C      -2.514684000000000     -6.190836000000000      0.108432000000000
H      -3.225906000000000     -6.912943000000000      0.521929000000000
H      -2.939443000000000     -5.791099000000000     -0.819864000000000
H      -1.598182000000000     -6.735593000000000     -0.140520000000000
C      -1.609392000000000     -5.698508000000000      2.380644000000000
H      -0.643039000000000     -6.149535000000000      2.132173000000000
H      -1.440348000000000     -4.940459000000000      3.152247000000000
H      -2.256464000000000     -6.476578000000000      2.801641000000000
C      -3.614555000000000     -4.465512000000000      1.521209000000000
H      -4.283856000000000     -5.249773000000000      1.891824000000000
H      -3.513940000000000     -3.717414000000000      2.312527000000000
H      -4.092460000000000     -3.980504000000000      0.664030000000000
C       0.400817000000000     -2.309545000000000     -3.425105000000000
H       0.877030000000000     -2.400980000000000     -4.408343000000000
H      -0.680094000000000     -2.440292000000000     -3.548509000000000
H       0.580637000000000     -1.297546000000000     -3.061664000000000
C       2.495678000000000     -3.299390000000000     -2.380879000000000
H       2.851914000000000     -2.305011000000000     -2.116422000000000
H       2.873137000000000     -4.014121000000000     -1.640985000000000
H       2.923843000000000     -3.564887000000000     -3.353985000000000
C       0.622929000000000     -4.749434000000000     -3.082020000000000
H       1.113922000000000     -4.828155000000000     -4.056747000000000
H       0.983236000000000     -5.575559000000000     -2.458952000000000
H      -0.452429000000000     -4.875535000000000     -3.244981000000000
C      -2.260666000000000      3.185901000000000      2.522458000000000
H      -3.053653000000000      3.886440000000000      2.810484000000000
H      -1.307349000000000      3.726745000000000      2.540174000000000
H      -2.464959000000000      2.864095000000000      1.499375000000000
C      -3.576363000000000      1.257337000000000      3.470903000000000
H      -3.554053000000000      0.394421000000000      4.145695000000000
H      -4.372358000000000      1.929995000000000      3.808662000000000
H      -3.826207000000000      0.910555000000000      2.468239000000000
C      -2.076124000000000      2.592439000000000      4.919373000000000
H      -1.202585000000000      3.247406000000000      5.001856000000000
H      -2.959282000000000      3.196214000000000      5.149110000000000
H      -1.997105000000000      1.807319000000000      5.678946000000000
C       2.142140000000000      0.740874000000000      6.005759000000000
H       1.802418000000000      1.780659000000000      6.018076000000000
H       1.378556000000000      0.121904000000000      6.489097000000000
H       3.054095000000000      0.693161000000000      6.609573000000000
C       3.108536000000000     -1.131613000000000      4.695315000000000
H       3.493241000000000     -1.486494000000000      3.734446000000000
H       3.961143000000000     -1.074048000000000      5.379685000000000
H       2.408132000000000     -1.880528000000000      5.079829000000000
C       3.424618000000000      1.228742000000000      3.916113000000000
H       4.367572000000000      1.262946000000000      4.474399000000000
H       3.642059000000000      0.929944000000000      2.884651000000000
H       3.002585000000000      2.237919000000000      3.885562000000000
C       1.012260000000000      3.740390000000000     -1.704857000000000
C      -0.316144000000000      4.073633000000000     -1.380213000000000
C      -0.598390000000000      5.021972000000000     -0.247064000000000
O      -0.451305000000000      6.395817000000000     -0.676859000000000
C      -1.486477000000000      6.935508000000000     -1.330215000000000
C      -1.174505000000000      8.341402000000000     -1.773184000000000
O      -2.530850000000000      6.361448000000000     -1.534722000000000
H       1.829008000000000      4.116447000000000     -1.090764000000000
H       1.285770000000000      3.513586000000000     -2.727642000000000
H      -1.067526000000000      4.072368000000000     -2.165959000000000
H       0.142399000000000      4.924131000000000      0.548961000000000
H      -1.599265000000000      4.893315000000000      0.172637000000000
H      -0.357305000000000      8.318576000000000     -2.499054000000000
H      -0.841953000000000      8.936548000000000     -0.919724000000000
H      -2.061042000000000      8.784485999999999     -2.224064000000000
