99

C      -8.185822999999999      2.491369000000000      1.336733000000000
C       0.635992000000000     -2.004371000000000      2.203172000000000
C      -4.246588000000000     -3.393695000000000     -1.262398000000000
C      -0.937833000000000     -3.766609000000000      2.636606000000000
C      -4.846221000000000     -0.764253000000000     -0.463060000000000
C      -5.796824000000000      3.155956000000000      1.001220000000000
H      -6.047314000000000      4.144051000000000      1.371802000000000
C       4.763910000000000     -2.882197000000000     -0.175853000000000
C      -0.156220000000000     -1.083112000000000      2.898893000000000
C       6.973619000000000     -1.941287000000000     -0.210758000000000
C      -4.193829000000000      1.584254000000000      0.146673000000000
C       6.138254000000000     -3.045961000000000     -0.066386000000000
C      -6.242721000000000     -3.432254000000000     -2.766300000000000
C       4.239801000000000     -1.619058000000000     -0.422662000000000
H      -4.030768000000000     -4.411097000000000     -1.570461000000000
C      -6.788365000000000      2.184292000000000      0.881912000000000
H      -3.699929000000000      3.588152000000000      0.688859000000000
H      -1.988795000000000     -0.828067000000000      3.975959000000000
C       4.489231000000000      2.966736000000000     -1.965133000000000
Rh     -0.023678000000000     -0.057246000000000     -0.821304000000000
H       6.561966000000000     -4.027007000000000      0.118015000000000
C      -0.134995000000000      2.697535000000000      2.558082000000000
C      -6.481380000000000      0.916051000000000      0.405002000000000
C       2.909047000000000      2.602693000000000     -0.188798000000000
C       0.255008000000000     -3.333245000000000      2.063150000000000
C      -4.494481000000000      2.852864000000000      0.630041000000000
C       1.061560000000000      3.025320000000000      3.188863000000000
H      -2.534106000000000     -3.213581000000000      0.057413000000000
C       6.442322000000000     -0.679270000000000     -0.450864000000000
C       1.466914000000000      0.692016000000000      3.628587000000000
H       4.082323000000000     -3.721243000000000     -0.093117000000000
O       1.832241000000000     -1.603550000000000      1.634292000000000
C       8.456609000000000     -2.096317000000000     -0.038288000000000
O      -2.904704000000000     -0.811540000000000      0.936007000000000
H      -1.235423000000000     -4.805643000000000      2.536333000000000
C      -3.706926000000000     -1.431263000000000      0.009001000000000
C      -0.524013000000000      1.365253000000000      2.476938000000000
H       3.048437000000000      4.429894000000000     -1.318635000000000
C       5.034618000000000      1.706124000000000     -1.765962000000000
C      -1.744215000000000     -2.867974000000000      3.331076000000000
C       5.063488000000000     -0.492659000000000     -0.556453000000000
H       7.103198000000000      0.176601000000000     -0.550332000000000
O       2.854981000000000      0.471030000000000      0.891377000000000
O       2.884150000000000     -1.515497000000000     -0.656348000000000
H       2.092630000000000      2.915396000000000      0.454225000000000
P       1.833716000000000     -0.667221000000000      0.284223000000000
O      -2.920228000000000      1.353027000000000     -0.326783000000000
H       1.365396000000000      4.065046000000000      3.258301000000000
O      -1.733404000000000      1.081937000000000      1.871810000000000
H      -7.260000000000000      0.162798000000000      0.332692000000000
H       5.831095000000000      1.352527000000000     -2.410903000000000
C      -3.409146000000000     -2.735336000000000     -0.371625000000000
C      -5.679055000000000     -1.444495000000000     -1.353324000000000
C       1.866084000000000      2.020344000000000      3.721396000000000
C      -5.175785000000000      0.590630000000000      0.030996000000000
P      -1.846185000000000      0.345391000000000      0.411143000000000
C       4.940691000000000      3.796726000000000     -3.128991000000000
H       2.098024000000000     -0.098186000000000      4.023449000000000
C       0.262863000000000      0.338879000000000      3.011891000000000
H      -6.565015000000000     -0.951596000000000     -1.741676000000000
C       3.419245000000000      1.316836000000000     -0.042311000000000
C       4.501015000000000      0.854255000000000     -0.798691000000000
C      -1.353884000000000     -1.538837000000000      3.455987000000000
C       3.445639000000000      3.431848000000000     -1.164995000000000
C      -5.376518000000000     -2.741516000000000     -1.752557000000000
H       0.322324000000000      1.372741000000000     -0.268452000000000
C      -0.417567000000000     -1.854453000000000     -1.564974000000000
O      -0.583115000000000     -2.897934000000000     -1.993057000000000
H       2.804669000000000      2.269501000000000      4.204418000000000
H      -0.781518000000000      3.455743000000000      2.128276000000000
H       0.902675000000000     -4.007411000000000      1.511994000000000
H      -2.678822000000000     -3.199201000000000      3.770854000000000
F      -7.496151000000000     -2.958206000000000     -2.755524000000000
F      -6.303046000000000     -4.752708000000000     -2.541833000000000
F      -5.769816000000000     -3.268994000000000     -4.010744000000000
F      -8.497566000000001      3.778940000000000      1.131267000000000
F      -8.341931000000001      2.256370000000000      2.648220000000000
F      -9.092665999999999      1.743012000000000      0.693296000000000
F       6.165511000000000      3.461232000000000     -3.549093000000000
F       4.954397000000000      5.105124000000000     -2.829323000000000
F       4.109461000000000      3.654601000000000     -4.178617000000000
F       8.829855000000000     -1.895000000000000      1.234901000000000
F       9.136763999999999     -1.216984000000000     -0.787379000000000
F       8.868209000000000     -3.326451000000000     -0.376727000000000
C      -0.514382000000000      1.053989000000000     -2.675535000000000
C       0.848800000000000      0.748406000000000     -2.707897000000000
C       1.394927000000000     -0.306116000000000     -3.633184000000000
O       1.789397000000000      0.308533000000000     -4.875743000000000
C       3.050187000000000      0.772243000000000     -4.938927000000000
C       3.299284000000000      1.494812000000000     -6.235119000000000
O       3.861875000000000      0.626769000000000     -4.056749000000000
H      -1.212853000000000      0.478791000000000     -3.278789000000000
H      -0.861181000000000      2.036774000000000     -2.376070000000000
H       1.574381000000000      1.507803000000000     -2.421000000000000
H       0.619228000000000     -1.024761000000000     -3.910838000000000
H       2.253263000000000     -0.826741000000000     -3.203481000000000
H       2.705801000000000      2.412913000000000     -6.249468000000000
H       2.984297000000000      0.876835000000000     -7.078490000000000
H       4.356296000000000      1.744408000000000     -6.309865000000000
