95

C      -0.778989000000000     -2.635938000000000      0.834175000000000
C       5.624663000000000     -2.405035000000000      1.930413000000000
C       0.194172000000000     -3.542571000000000      2.831571000000000
C       5.094490000000000      0.112172000000000      0.782251000000000
C       4.332465000000000      3.904164000000000     -1.084473000000000
H       4.172134000000000      4.870803000000000     -1.551343000000000
C      -2.326461000000000      2.160333000000000      2.597925000000000
C       0.226970000000000     -3.197736000000000      0.044354000000000
C      -4.052712000000000      3.764315000000000      2.087772000000000
C       3.952327000000000      1.537352000000000     -0.927501000000000
C      -2.863048000000000      3.433471000000000      2.741227000000000
C      -2.988167000000000      1.230892000000000      1.798635000000000
H       5.860873000000000     -3.367505000000000      2.372852000000000
C       5.183200000000000      3.825180000000000      0.022923000000000
H       3.067080000000000      2.771801000000000     -2.428914000000000
H       2.015751000000000     -4.375172000000000      0.083674000000000
C      -6.985539000000000     -0.702155000000000     -0.130601000000000
Rh      0.104951000000000      0.837804000000000     -0.583803000000000
H      -2.345422000000000      4.180362000000000      3.337922000000000
C       1.286321000000000     -2.111816000000000     -3.430135000000000
C       5.421783000000000      2.598901000000000      0.637903000000000
C      -4.949642000000000     -1.284049000000000     -1.274961000000000
C      -0.803041000000000     -2.793784000000000      2.216068000000000
C       3.717792000000000      2.757656000000000     -1.561460000000000
C       0.270042000000000     -2.648763000000000     -4.213188000000000
H       3.481896000000000     -2.712104000000000      1.795970000000000
C      -4.734968000000000      2.804444000000000      1.338464000000000
C      -0.789462000000000     -3.531932000000000     -2.234407000000000
H      -1.397270000000000      1.871887000000000      3.077157000000000
O      -1.794755000000000     -1.923420000000000      0.219084000000000
O       2.754254000000000     -0.447457000000000      0.842006000000000
H       0.177846000000000     -3.678398000000000      3.907887000000000
C       4.070025000000000     -0.807801000000000      1.042186000000000
C       1.250174000000000     -2.294341000000000     -2.053015000000000
H      -6.855720000000000     -2.243006000000000     -1.613981000000000
C      -6.304996000000000      0.272387000000000      0.594735000000000
C       1.205736000000000     -4.119227000000000      2.065513000000000
C      -4.219749000000000      1.519863000000000      1.186371000000000
H      -5.650994000000000      3.089042000000000      0.828291000000000
O      -2.970812000000000     -0.042196000000000     -0.864953000000000
O      -2.425031000000000     -0.008448000000000      1.608164000000000
H      -4.384673000000000     -1.856848000000000     -2.002176000000000
P      -1.703335000000000     -0.291383000000000      0.127601000000000
O       3.379759000000000      0.397977000000000     -1.436945000000000
H       0.289121000000000     -2.509673000000000     -5.289058000000000
O       2.253285000000000     -1.729689000000000     -1.282000000000000
H       6.080955000000000      2.547797000000000      1.502505000000000
H      -6.838923000000000      0.869267000000000      1.331771000000000
C       4.324085000000000     -2.055276000000000      1.608658000000000
C       6.397489000000000     -0.262579000000000      1.117830000000000
C      -0.772657000000000     -3.353479000000000     -3.613691000000000
C       4.811410000000000      1.430933000000000      0.176056000000000
P       2.068048000000000     -0.240083000000000     -0.635656000000000
H      -1.599468000000000     -4.077780000000000     -1.760030000000000
C       0.228996000000000     -3.013020000000000     -1.429760000000000
H       7.216012000000000      0.424338000000000      0.910853000000000
C      -4.284931000000000     -0.300906000000000     -0.545819000000000
C      -4.939367000000000      0.488640000000000      0.407116000000000
C       1.224125000000000     -3.938333000000000      0.685844000000000
C      -6.303246000000000     -1.487192000000000     -1.065096000000000
C       6.666190000000000     -1.504324000000000      1.686322000000000
H      -0.223393000000000     -0.025860000000000     -1.854090000000000
C       0.619759000000000      1.953759000000000      0.977994000000000
O       0.982347000000000      2.585900000000000      1.854539000000000
H      -1.570646000000000     -3.767050000000000     -4.221275000000000
H       2.104637000000000     -1.543519000000000     -3.860808000000000
H      -1.606865000000000     -2.332769000000000      2.780148000000000
H       1.979194000000000     -4.713089000000000      2.542906000000000
C       0.259973000000000      2.521822000000000     -2.067121000000000
C      -1.067962000000000      2.413686000000000     -1.666528000000000
C      -1.685233000000000      3.403931000000000     -0.714106000000000
O      -2.476030000000000      4.395465000000000     -1.394082000000000
C      -3.713919000000000      3.996802000000000     -1.742311000000000
C      -4.549834000000000      5.151202000000000     -2.223785000000000
O      -4.103568000000000      2.858629000000000     -1.628035000000000
H       0.877705000000000      3.319877000000000     -1.662094000000000
H       0.600881000000000      2.082490000000000     -2.998800000000000
H      -1.779817000000000      1.859680000000000     -2.272461000000000
H      -0.910799000000000      3.972769000000000     -0.190487000000000
H      -2.330167000000000      2.910879000000000      0.010758000000000
H      -3.940959000000000      5.882237000000000     -2.756791000000000
H      -4.987938000000000      5.638364000000000     -1.345890000000000
H      -5.354044000000000      4.776401000000000     -2.855955000000000
C       8.059986000000000     -1.875671000000000      2.025138000000000
H       8.822604999999999     -1.104265000000000      1.788792000000000
C       5.833786000000000      5.051109000000000      0.543264000000000
H       6.489811000000000      4.896614000000000      1.425317000000000
C      -4.570265000000000      5.151252000000000      2.143651000000000
H      -4.011624000000000      5.837000000000000      2.813459000000000
C      -8.433904000000000     -0.912705000000000      0.095782000000000
H      -8.892963999999999     -0.242206000000000      0.852216000000000
O       8.376011999999999     -2.930123000000000      2.522681000000000
O       5.682082000000000      6.150105000000000      0.065735000000000
O      -9.095685000000000     -1.742196000000000     -0.482178000000000
O      -5.519215000000000      5.544293000000000      1.505094000000000
