87

Cl      6.003040000000000      5.114292000000000      1.032541000000000
C      -0.824660000000000     -2.622370000000000      0.910938000000000
C       5.564687000000000     -2.564133000000000      2.090512000000000
C       0.112255000000000     -3.596906000000000      2.894267000000000
C       5.084215000000000     -0.013814000000000      1.009493000000000
C       4.416375000000000      3.837266000000000     -0.758485000000000
H       4.269262000000000      4.811556000000000     -1.210616000000000
C      -2.233546000000000      2.186798000000000      2.775107000000000
C       0.170224000000000     -3.195878000000000      0.115269000000000
C      -3.993696000000000      3.773391000000000      2.412771000000000
C       4.001070000000000      1.466983000000000     -0.686262000000000
C      -2.771215000000000      3.449574000000000      2.995912000000000
Cl      8.232229000000000     -2.127912000000000      2.323729000000000
C      -2.915187000000000      1.273946000000000      1.976810000000000
H       5.764383000000000     -3.544508000000000      2.507792000000000
C       5.235055000000000      3.703636000000000      0.359285000000000
H       3.169493000000000      2.764812000000000     -2.162720000000000
H       1.925212000000000     -4.423095000000000      0.138744000000000
C      -6.952737000000000     -0.584696000000000      0.100991000000000
Rh      0.149215000000000      0.854892000000000     -0.449690000000000
H      -2.248128000000000      4.178076000000000      3.604845000000000
C       1.280157000000000     -2.074768000000000     -3.332111000000000
C       5.451579000000000      2.465454000000000      0.950203000000000
C      -4.955047000000000     -1.141380000000000     -1.098622000000000
C      -0.860021000000000     -2.807987000000000      2.289442000000000
C       3.798674000000000      2.706996000000000     -1.281411000000000
C       0.255947000000000     -2.571717000000000     -4.131046000000000
H       3.426232000000000     -2.844459000000000      1.899058000000000
C      -4.693105000000000      2.854158000000000      1.641758000000000
C      -0.839354000000000     -3.460919000000000     -2.174944000000000
H      -1.286820000000000      1.895233000000000      3.216838000000000
O      -1.816286000000000     -1.869884000000000      0.306021000000000
Cl     -4.657784000000000      5.367483000000000      2.647821000000000
O       2.730504000000000     -0.538452000000000      0.998003000000000
H       0.086427000000000     -3.753417000000000      3.967602000000000
C       4.040043000000000     -0.923565000000000      1.214345000000000
C       1.230577000000000     -2.279530000000000     -1.958361000000000
H      -6.863271000000000     -2.090868000000000     -1.430493000000000
C      -6.264412000000000      0.367024000000000      0.841655000000000
C       1.111400000000000     -4.186260000000000      2.121560000000000
C      -4.160694000000000      1.582772000000000      1.414560000000000
H      -5.633127000000000      3.132610000000000      1.177241000000000
O      -2.954920000000000      0.077589000000000     -0.705059000000000
O      -2.367255000000000      0.028821000000000      1.754466000000000
H      -4.417433000000000     -1.703082000000000     -1.854548000000000
P      -1.680404000000000     -0.236707000000000      0.260311000000000
O       3.427895000000000      0.345936000000000     -1.243577000000000
H       0.286188000000000     -2.414642000000000     -5.204227000000000
O       2.242404000000000     -1.754961000000000     -1.172708000000000
H       6.087427000000000      2.386354000000000      1.825957000000000
H      -6.781074000000000      0.934526000000000      1.608805000000000
C       4.273275000000000     -2.185022000000000      1.746267000000000
C       6.379453000000000     -0.403647000000000      1.361722000000000
C      -0.808808000000000     -3.259282000000000     -3.550760000000000
C       4.833307000000000      1.324600000000000      0.431932000000000
P       2.086297000000000     -0.277205000000000     -0.487741000000000
Cl     -8.651242000000000     -0.834225000000000      0.402433000000000
H      -1.666331000000000     -3.993516000000000     -1.714945000000000
C       0.186692000000000     -2.982884000000000     -1.354942000000000
H       7.210882000000000      0.273627000000000      1.195800000000000
C      -4.266490000000000     -0.184467000000000     -0.365621000000000
C      -4.901895000000000      0.579504000000000      0.619100000000000
C       1.142652000000000     -3.977294000000000      0.746211000000000
C      -6.309260000000000     -1.348752000000000     -0.867143000000000
C       6.607970000000000     -1.663966000000000      1.897043000000000
H      -0.196030000000000      0.006625000000000     -1.725131000000000
C       0.694610000000000      1.955924000000000      1.113208000000000
O       1.077559000000000      2.581267000000000      1.985825000000000
H      -1.613027000000000     -3.641577000000000     -4.170585000000000
H       2.115393000000000     -1.519773000000000     -3.747302000000000
H      -1.652698000000000     -2.334723000000000      2.859028000000000
H       1.865044000000000     -4.811566000000000      2.590548000000000
C       0.335576000000000      2.536007000000000     -1.914977000000000
C      -0.995606000000000      2.441751000000000     -1.510842000000000
C      -1.605889000000000      3.451939000000000     -0.575649000000000
O      -2.336483000000000      4.452219000000000     -1.310000000000000
C      -3.592861000000000      4.112826000000000     -1.649342000000000
C      -4.288893000000000      5.252127000000000     -2.346265000000000
O      -4.086851000000000      3.037374000000000     -1.407126000000000
H       0.960152000000000      3.327709000000000     -1.507912000000000
H       0.667739000000000      2.104830000000000     -2.853557000000000
H      -1.714736000000000      1.905763000000000     -2.125312000000000
H      -0.831054000000000      4.004542000000000     -0.036002000000000
H      -2.290918000000000      2.989271000000000      0.134236000000000
H      -3.684749000000000      5.600779000000000     -3.186823000000000
H      -4.401232000000000      6.087070000000000     -1.649193000000000
H      -5.267135000000000      4.921207000000000     -2.691294000000000
