99

C      -0.776296000000000     -2.628169000000000      0.782988000000000
C       5.639873000000000     -2.313035000000000      1.851734000000000
C       0.210528000000000     -3.490163000000000      2.793585000000000
C       5.080078000000000      0.176510000000000      0.670414000000000
C       4.282498000000000      3.929501000000000     -1.248918000000000
H       4.111592000000000      4.886137000000000     -1.730996000000000
C      -2.363517000000000      2.175209000000000      2.480480000000000
C       0.235691000000000     -3.190610000000000      0.001261000000000
C      -4.087973000000000      3.764857000000000      1.938360000000000
C       3.915588000000000      1.564798000000000     -1.055329000000000
C      -2.898155000000000      3.450490000000000      2.602938000000000
C      -3.019349000000000      1.228860000000000      1.695754000000000
H       5.885094000000000     -3.266534000000000      2.307021000000000
C       5.142175000000000      3.873012000000000     -0.149565000000000
H       3.012811000000000      2.772317000000000     -2.567459000000000
H       2.039867000000000     -4.343627000000000      0.057405000000000
C      -7.006370000000000     -0.745402000000000     -0.199026000000000
Rh      0.073352000000000      0.832112000000000     -0.682911000000000
H      -2.386312000000000      4.208734000000000      3.184614000000000
C       1.280121000000000     -2.145394000000000     -3.489818000000000
C       5.393680000000000      2.658325000000000      0.486216000000000
C      -4.968612000000000     -1.336339000000000     -1.336965000000000
C      -0.796673000000000     -2.764000000000000      2.167358000000000
C       3.669397000000000      2.771841000000000     -1.704571000000000
C       0.268235000000000     -2.703371000000000     -4.263696000000000
H       3.500170000000000     -2.645892000000000      1.734154000000000
C      -4.767064000000000      2.790981000000000      1.208025000000000
C      -0.779933000000000     -3.568544000000000     -2.271091000000000
H      -1.433957000000000      1.898861000000000      2.966142000000000
O      -1.799668000000000     -1.936411000000000      0.157853000000000
O       2.742877000000000     -0.401387000000000      0.750994000000000
H       0.197622000000000     -3.607851000000000      3.872109000000000
C       4.063763000000000     -0.747479000000000      0.949062000000000
C       1.247897000000000     -2.308428000000000     -2.110038000000000
H      -6.870642000000000     -2.306319000000000     -1.659038000000000
C      -6.330290000000000      0.243930000000000      0.513381000000000
C       1.228478000000000     -4.066419000000000      2.035764000000000
C      -4.249289000000000      1.503050000000000      1.079821000000000
H      -5.682491000000000      3.060742000000000      0.690053000000000
O      -2.994620000000000     -0.080590000000000     -0.950272000000000
O      -2.447904000000000     -0.010302000000000      1.522352000000000
H      -4.405790000000000     -1.919514000000000     -2.057272000000000
P      -1.724758000000000     -0.303779000000000      0.045341000000000
O       3.348743000000000      0.412593000000000     -1.544549000000000
H       0.284313000000000     -2.579014000000000     -5.341455000000000
O       2.245888000000000     -1.723768000000000     -1.348897000000000
H       6.060465000000000      2.626341000000000      1.341838000000000
H      -6.865977000000000      0.846766000000000      1.239595000000000
C       4.332675000000000     -1.981732000000000      1.531260000000000
C       6.389351000000000     -0.174652000000000      1.004478000000000
C      -0.766705000000000     -3.409743000000000     -3.652805000000000
C       4.783422000000000      1.483473000000000      0.043998000000000
P       2.048901000000000     -0.224463000000000     -0.725663000000000
H      -1.584340000000000     -4.114719000000000     -1.787640000000000
C       0.234382000000000     -3.028254000000000     -1.475438000000000
H       7.198794000000000      0.514941000000000      0.787790000000000
C      -4.307248000000000     -0.341518000000000     -0.625584000000000
C      -4.966525000000000      0.458394000000000      0.316201000000000
C       1.242840000000000     -3.908035000000000      0.653323000000000
C      -6.322666000000000     -1.540327000000000     -1.121048000000000
C       6.669938000000000     -1.406706000000000      1.591603000000000
H      -0.248262000000000     -0.049534000000000     -1.942663000000000
C       0.579958000000000      1.969847000000000      0.866306000000000
O       0.938367000000000      2.614416000000000      1.735290000000000
H      -1.561672000000000     -3.839351000000000     -4.253214000000000
H       2.092043000000000     -1.574771000000000     -3.929435000000000
H      -1.604840000000000     -2.302646000000000      2.724917000000000
H       2.010625000000000     -4.641561000000000      2.521862000000000
C       0.212951000000000      2.501711000000000     -2.184526000000000
C      -1.113998000000000      2.386209000000000     -1.783038000000000
C      -1.740037000000000      3.378950000000000     -0.839144000000000
O      -2.543103000000000      4.357574000000000     -1.524878000000000
C      -3.775468000000000      3.941541000000000     -1.871753000000000
C      -4.629093000000000      5.084308000000000     -2.350045000000000
O      -4.149379000000000      2.798116000000000     -1.758160000000000
H       0.824257000000000      3.308759000000000     -1.787633000000000
H       0.558207000000000      2.054908000000000     -3.111065000000000
H      -1.820683000000000      1.818522000000000     -2.382236000000000
H      -0.971314000000000      3.960230000000000     -0.320921000000000
H      -2.378864000000000      2.885650000000000     -0.109515000000000
H      -4.031110000000000      5.828639000000000     -2.877025000000000
H      -5.078031000000000      5.556332000000000     -1.469192000000000
H      -5.424811000000000      4.699263000000000     -2.986883000000000
C       8.054330000000000     -1.806742000000000      1.953139000000000
C       5.769690000000000      5.141204000000000      0.305176000000000
C      -4.643990000000000      5.142505000000000      1.932648000000000
C      -8.456989000000000     -0.997858000000000     -0.005814000000000
O       8.354302000000001     -2.862475000000000      2.456771000000000
O       5.585946000000000      6.219227000000000     -0.206572000000000
O      -9.091710000000001     -1.843220000000000     -0.589945000000000
O      -5.568402000000000      5.507767000000000      1.243802000000000
O      -3.999437000000000      5.973171000000000      2.772056000000000
H      -4.423821000000000      6.843404000000000      2.674852000000000
O      -9.018100000000000     -0.176781000000000      0.904126000000000
H      -9.957694999999999     -0.424985000000000      0.948216000000000
O       8.968852999999999     -0.860397000000000      1.662959000000000
H       9.829292000000001     -1.222997000000000      1.936308000000000
O       6.583734000000000      4.974508000000000      1.365725000000000
H       6.936251000000000      5.856154000000000      1.577962000000000
