103

O       5.584749000000000      5.056767000000000      0.191670000000000
C      -0.754085000000000     -2.678694000000000      0.705165000000000
C       5.667857000000000     -2.162993000000000      1.812511000000000
C       0.241727000000000     -3.458899000000000      2.745889000000000
C       5.031936000000000      0.267937000000000      0.574123000000000
C       4.130622000000000      3.956353000000000     -1.426400000000000
H       3.903318000000000      4.872152000000000     -1.958266000000000
C      -2.402493000000000      2.148540000000000      2.276678000000000
C       0.277020000000000     -3.239749000000000     -0.052937000000000
C      -4.251710000000000      3.633319000000000      1.856766000000000
C       3.840492000000000      1.571653000000000     -1.196878000000000
C      -3.002219000000000      3.397574000000000      2.434319000000000
O       7.933359000000000     -1.595004000000000      1.911877000000000
C      -3.036281000000000      1.153617000000000      1.549515000000000
H       5.941244000000000     -3.096681000000000      2.291548000000000
C       4.981858000000000      3.951202000000000     -0.319942000000000
H       2.916627000000000      2.727842000000000     -2.727305000000000
H       2.110788000000000     -4.341659000000000      0.046759000000000
C      -7.007288000000000     -1.014760000000000     -0.157946000000000
Rh      0.030119000000000      0.756542000000000     -0.867885000000000
H      -2.486188000000000      4.165505000000000      2.997426000000000
C       1.326364000000000     -2.276839000000000     -3.565189000000000
C       5.264688000000000      2.749846000000000      0.335717000000000
C      -4.977501000000000     -1.539188000000000     -1.346498000000000
C      -0.778830000000000     -2.776330000000000      2.093243000000000
C       3.564976000000000      2.757192000000000     -1.858294000000000
C       0.330741000000000     -2.875690000000000     -4.329324000000000
H       3.550807000000000     -2.575648000000000      1.683741000000000
C      -4.897537000000000      2.614634000000000      1.150105000000000
C      -0.715543000000000     -3.701406000000000     -2.319587000000000
H      -1.435975000000000      1.937343000000000      2.721649000000000
O      -1.785368000000000     -2.026288000000000      0.055619000000000
O      -4.919358000000000      4.815659000000000      1.926073000000000
O       2.705430000000000     -0.376068000000000      0.639120000000000
H       0.225617000000000     -3.544106000000000      3.827537000000000
C       4.042764000000000     -0.673359000000000      0.856427000000000
C       1.288663000000000     -2.399423000000000     -2.180957000000000
H      -6.843231000000000     -2.597068000000000     -1.590807000000000
C      -6.350358000000000      0.014529000000000      0.511460000000000
C       1.279196000000000     -4.030559000000000      2.011432000000000
C      -4.305397000000000      1.366743000000000      0.985392000000000
H      -5.856791000000000      2.828427000000000      0.689980000000000
O      -3.031463000000000     -0.194596000000000     -1.054322000000000
O      -2.425139000000000     -0.077263000000000      1.398258000000000
H      -4.418525000000000     -2.119597000000000     -2.072546000000000
P      -1.741080000000000     -0.389764000000000     -0.084063000000000
O       3.320865000000000      0.383897000000000     -1.673901000000000
H       0.351789000000000     -2.781551000000000     -5.410191000000000
O       2.268170000000000     -1.775249000000000     -1.432256000000000
H       5.921000000000000      2.775680000000000      1.199808000000000
H      -6.859143000000000      0.616518000000000      1.255525000000000
C       4.356903000000000     -1.882237000000000      1.470649000000000
C       6.357596000000000     -0.023968000000000      0.925860000000000
C      -0.695719000000000     -3.582889000000000     -3.705221000000000
C       4.701856000000000      1.549756000000000     -0.087661000000000
P       2.035589000000000     -0.259931000000000     -0.849038000000000
O      -8.314012999999999     -1.341637000000000      0.031257000000000
H      -1.514406000000000     -4.245903000000000     -1.825133000000000
C       0.283253000000000     -3.120183000000000     -1.533565000000000
H       7.123803000000000      0.702592000000000      0.681242000000000
C      -4.329059000000000     -0.503861000000000     -0.680938000000000
C      -4.998153000000000      0.280261000000000      0.256931000000000
C       1.297901000000000     -3.912009000000000      0.625316000000000
C      -6.312038000000000     -1.797279000000000     -1.086898000000000
C       6.676730000000000     -1.230620000000000      1.542869000000000
H      -0.266510000000000     -0.183158000000000     -2.091114000000000
C       0.515787000000000      1.972245000000000      0.622537000000000
O       0.867147000000000      2.675362000000000      1.449276000000000
H      -1.479306000000000     -4.043255000000000     -4.297872000000000
H       2.129673000000000     -1.701975000000000     -4.014977000000000
H      -1.599648000000000     -2.315279000000000      2.632043000000000
H       2.074038000000000     -4.568958000000000      2.518650000000000
C       8.974534000000000     -0.680216000000000      1.657408000000000
H       8.810309999999999      0.268067000000000      2.184023000000000
H       9.886602999999999     -1.147170000000000      2.028570000000000
H       9.077978999999999     -0.481465000000000      0.583617000000000
C       5.300693000000000      6.292300000000000     -0.423698000000000
H       4.229181000000000      6.522891000000000     -0.378658000000000
H       5.856944000000000      7.044678000000000      0.135014000000000
H       5.627215000000000      6.302095000000000     -1.470912000000000
C      -9.048628000000001     -0.566862000000000      0.950205000000000
H      -8.630056000000000     -0.642051000000000      1.961496000000000
H      -9.075905000000001      0.488227000000000      0.650860000000000
H     -10.061014999999999     -0.970558000000000      0.947175000000000
C      -4.277887000000000      5.882496000000000      2.586789000000000
H      -4.952885000000000      6.734946000000000      2.513286000000000
H      -4.100466000000000      5.650164000000000      3.644032000000000
H      -3.322770000000000      6.130614000000000      2.107500000000000
C       0.125840000000000      2.362036000000000     -2.416199000000000
C      -1.201359000000000      2.205499000000000     -2.013118000000000
C      -1.881840000000000      3.220505000000000     -1.134843000000000
O      -2.640529000000000      4.159037000000000     -1.925455000000000
C      -3.863063000000000      3.737838000000000     -2.295628000000000
C      -4.586868000000000      4.807868000000000     -3.072422000000000
O      -4.311779000000000      2.650028000000000     -2.027747000000000
H       0.698930000000000      3.210190000000000     -2.048613000000000
H       0.490107000000000      1.906560000000000     -3.331187000000000
H      -1.881126000000000      1.595928000000000     -2.603135000000000
H      -1.148344000000000      3.830381000000000     -0.599074000000000
H      -2.563341000000000      2.753305000000000     -0.424658000000000
H      -3.981989000000000      5.120066000000000     -3.926970000000000
H      -4.737251000000000      5.682885000000000     -2.434570000000000
H      -5.547684000000000      4.421609000000000     -3.408920000000000
