103

C       5.885387000000000      5.097595000000000     -0.784307000000000
C      -1.003854000000000     -2.522504000000000      0.956962000000000
C       5.545120000000000     -1.710554000000000      2.572780000000000
C      -0.439166000000000     -3.430181000000000      3.103041000000000
C       5.063679000000000      0.418599000000000      0.797991000000000
C       4.472967000000000      3.524993000000000     -2.107921000000000
H       4.348347000000000      4.295826000000000     -2.863308000000000
C      -2.641411000000000      2.507331000000000      2.228493000000000
C      -0.022612000000000     -3.294584000000000      0.332355000000000
C      -4.569690000000000      3.829970000000000      1.639539000000000
C       4.028925000000000      1.300011000000000     -1.299248000000000
C      -3.347673000000000      3.705063000000000      2.297486000000000
C       7.974739000000000     -1.142087000000000      2.634981000000000
C      -3.172121000000000      1.442427000000000      1.487417000000000
H       5.706148000000000     -2.544851000000000      3.251683000000000
C       5.243663000000000      3.770145000000000     -0.973469000000000
C       3.098472000000000      2.001265000000000     -3.523514000000000
H       1.511499000000000     -4.754656000000000      0.656970000000000
C      -6.801898000000000     -1.133198000000000     -0.413639000000000
Rh      0.151185000000000      0.892495000000000     -0.803234000000000
H      -2.939268000000000      4.538719000000000      2.861795000000000
C       1.477472000000000     -2.371470000000000     -3.026430000000000
C       5.423104000000000      2.768053000000000     -0.019540000000000
C      -4.648426000000000     -1.492710000000000     -1.436844000000000
C      -1.214670000000000     -2.569668000000000      2.330563000000000
C       3.865979000000000      2.284386000000000     -2.281118000000000
C       0.563681000000000     -2.944325000000000     -3.906503000000000
C       3.134847000000000     -2.342448000000000      2.579416000000000
C      -5.096262000000000      2.751203000000000      0.928202000000000
C      -0.725965000000000     -3.759902000000000     -2.039064000000000
C      -1.345327000000000      2.372605000000000      2.948886000000000
O      -1.836504000000000     -1.747138000000000      0.161904000000000
C      -5.313304000000000      5.114954000000000      1.688408000000000
O       2.716516000000000     -0.101284000000000      0.920264000000000
H      -0.598845000000000     -3.478987000000000      4.174977000000000
C       4.018327000000000     -0.404923000000000      1.249455000000000
C       1.265014000000000     -2.490085000000000     -1.657698000000000
H      -6.334609000000000     -2.769302000000000     -1.755836000000000
C      -6.301005000000000     -0.013262000000000      0.261262000000000
C       0.529081000000000     -4.231635000000000      2.502324000000000
C      -4.412822000000000      1.539362000000000      0.838668000000000
H      -6.042098000000000      2.859365000000000      0.401433000000000
O      -2.905202000000000      0.077096000000000     -1.045632000000000
O      -2.471858000000000      0.262095000000000      1.427028000000000
C      -3.738496000000000     -2.294069000000000     -2.298690000000000
P      -1.672622000000000     -0.132125000000000      0.009665000000000
O       3.441469000000000      0.071148000000000     -1.471231000000000
H       0.716324000000000     -2.847137000000000     -4.976297000000000
O       2.139773000000000     -1.863979000000000     -0.774323000000000
H       6.033651000000000      2.964328000000000      0.859816000000000
H      -6.966266000000000      0.525058000000000      0.931422000000000
C       4.247214000000000     -1.468073000000000      2.123245000000000
C       6.345680000000000      0.156573000000000      1.271015000000000
C      -0.545570000000000     -3.629554000000000     -3.413001000000000
C       4.820731000000000      1.517457000000000     -0.162682000000000
P       2.062121000000000     -0.247354000000000     -0.581282000000000
C      -8.217485999999999     -1.530462000000000     -0.212663000000000
H      -1.592947000000000     -4.288952000000000     -1.653968000000000
C       0.180030000000000     -3.195270000000000     -1.137157000000000
H       7.188129000000000      0.758839000000000      0.940929000000000
C      -4.179777000000000     -0.357314000000000     -0.777657000000000
C      -4.978589000000000      0.385615000000000      0.103202000000000
C       0.741596000000000     -4.150954000000000      1.128510000000000
C      -5.974565000000000     -1.879084000000000     -1.244905000000000
C       6.590462000000000     -0.896795000000000      2.157355000000000
H      -0.162748000000000     -0.156479000000000     -1.927471000000000
C       0.731952000000000      2.303134000000000      0.498083000000000
O       1.165795000000000      3.113954000000000      1.166236000000000
H      -1.278327000000000     -4.058115000000000     -4.088718000000000
H       2.346412000000000     -1.824375000000000     -3.380296000000000
H      -1.993054000000000     -1.952023000000000      2.765968000000000
H       1.144130000000000     -4.889329000000000      3.104772000000000
O       8.921987000000000     -0.467621000000000      2.309836000000000
H       8.089612000000001     -2.001399000000000      3.325900000000000
O       3.323244000000000     -3.300006000000000      3.295079000000000
H       2.124373000000000     -2.080611000000000      2.223358000000000
O       5.782307000000000      6.006484000000000     -1.570454000000000
H       6.479861000000000      5.205821000000000      0.146008000000000
O       2.868785000000000      2.847103000000000     -4.355368000000000
H       2.750934000000000      0.960065000000000     -3.649154000000000
O      -4.058278000000000     -3.359701000000000     -2.776065000000000
H      -2.734764000000000     -1.870080000000000     -2.471496000000000
O      -8.987610000000000     -0.928881000000000      0.497023000000000
H      -8.535337000000000     -2.436034000000000     -0.768017000000000
O      -4.920012000000000      6.095573000000000      2.270857000000000
H      -6.277802000000000      5.120654000000000      1.139471000000000
O      -0.848124000000000      3.282941000000000      3.568253000000000
H      -0.854597000000000      1.383580000000000      2.887612000000000
C       0.198597000000000      2.350727000000000     -2.534840000000000
C      -1.101222000000000      2.275535000000000     -2.050191000000000
C      -1.730988000000000      3.390906000000000     -1.256967000000000
O      -2.496558000000000      4.242819000000000     -2.126311000000000
C      -3.732915000000000      3.807375000000000     -2.425712000000000
C      -4.445718000000000      4.784738000000000     -3.321290000000000
O      -4.194421000000000      2.767690000000000     -2.016313000000000
H       0.827513000000000      3.206070000000000     -2.296672000000000
H       0.479497000000000      1.792077000000000     -3.419372000000000
H      -1.816472000000000      1.626637000000000     -2.548490000000000
H      -0.972545000000000      4.043116000000000     -0.815493000000000
H      -2.397221000000000      3.015187000000000     -0.478173000000000
H      -3.877963000000000      4.915343000000000     -4.245856000000000
H      -4.504413000000000      5.759625000000000     -2.830795000000000
H      -5.444109000000000      4.411269000000000     -3.542992000000000
