111

C      -5.697113000000000      4.736629000000000     -2.144948000000000
C       1.370698000000000     -2.852240000000000      0.804840000000000
C      -6.433212000000000     -2.520334000000000      0.040567000000000
C       0.830676000000000     -5.073541000000000      0.065704000000000
C      -5.360193000000000      0.052616000000000     -0.336469000000000
C      -3.830493000000000      4.047594000000000     -0.686532000000000
H      -3.443915000000000      5.057248000000000     -0.780591000000000
C       4.566689000000000     -2.270536000000000     -1.609764000000000
C       0.232829000000000     -2.811049000000000      1.614778000000000
C       6.760089000000000     -2.033140000000000     -0.626668000000000
C      -3.638893000000000      1.802584000000000      0.156331000000000
C       5.844663000000000     -2.774463000000000     -1.365119000000000
C      -8.718809000000000     -1.503406000000000      0.342527000000000
C       4.217653000000000     -1.021488000000000     -1.079768000000000
H      -6.848323000000000     -3.509298000000000      0.189668000000000
C      -5.004028000000000      3.690897000000000     -1.344891000000000
C      -1.858795000000000      3.520415000000000      0.719821000000000
H      -1.537634000000000     -3.871254000000000      2.179209000000000
C       5.424572000000000      3.505537000000000     -0.223866000000000
Rh     -0.166108000000000      0.200518000000000     -0.875447000000000
H       6.103746000000000     -3.749605000000000     -1.761852000000000
C      -1.493448000000000      0.066098000000000      3.383063000000000
C      -5.495217000000000      2.387422000000000     -1.252900000000000
C       3.226853000000000      2.903093000000000      0.569109000000000
C       1.689832000000000     -3.979401000000000      0.057509000000000
C      -3.148005000000000      3.112349000000000      0.086376000000000
C      -0.531533000000000      0.424245000000000      4.321997000000000
C      -4.186138000000000     -3.580082000000000     -0.261426000000000
C       6.414822000000000     -0.768210000000000     -0.150013000000000
C       0.943158000000000     -1.281990000000000      3.472548000000000
C       3.666979000000000     -3.128249000000000     -2.439370000000000
O       2.234368000000000     -1.766901000000000      0.774541000000000
C       8.129650000000000     -2.532632000000000     -0.333812000000000
O      -3.231728000000000     -0.953067000000000     -0.765370000000000
H       1.083065000000000     -5.954570000000000     -0.515227000000000
C      -4.541298000000000     -1.090139000000000     -0.397783000000000
C      -1.220218000000000     -0.969413000000000      2.496381000000000
H       3.887833000000000      4.924842000000000      0.233342000000000
C       5.742877000000000      2.157657000000000     -0.360365000000000
C      -0.343925000000000     -5.027412000000000      0.810649000000000
C       5.146805000000000     -0.240591000000000     -0.373140000000000
H       7.157696000000000     -0.199724000000000      0.402139000000000
O       2.701659000000000      0.592740000000000      0.934525000000000
O       2.967882000000000     -0.520043000000000     -1.294016000000000
C       1.855880000000000      3.343500000000000      0.958069000000000
P       1.860801000000000     -0.405953000000000     -0.069784000000000
O      -3.011225000000000      0.868953000000000      0.915794000000000
H      -0.734302000000000      1.236546000000000      5.012349000000000
O      -2.148406000000000     -1.287192000000000      1.502367000000000
H      -6.406392000000000      2.119978000000000     -1.778645000000000
H       6.707369000000000      1.874887000000000     -0.769149000000000
C      -5.066497000000000     -2.375197000000000     -0.201780000000000
C      -6.719377000000000     -0.128202000000000     -0.093960000000000
C       0.690948000000000     -0.242090000000000      4.359656000000000
C      -4.817552000000000      1.423941000000000     -0.507893000000000
P      -2.070919000000000     -0.303554000000000      0.195336000000000
C       6.380599000000000      4.583101000000000     -0.585588000000000
H       1.893996000000000     -1.805257000000000      3.495352000000000
C      -0.013886000000000     -1.669925000000000      2.528688000000000
H      -7.382543000000000      0.729401000000000     -0.026453000000000
C       3.571347000000000      1.547807000000000      0.479478000000000
C       4.819090000000000      1.165556000000000     -0.039007000000000
C      -0.631748000000000     -3.908491000000000      1.582653000000000
C       4.153058000000000      3.873857000000000      0.197029000000000
C      -7.256936000000000     -1.400772000000000      0.088156000000000
H      -0.066113000000000      1.321851000000000      0.202362000000000
C      -0.327459000000000     -1.265378000000000     -2.237421000000000
O      -0.421776000000000     -2.117729000000000     -2.986090000000000
H       1.449197000000000      0.048239000000000      5.078919000000000
H      -2.435991000000000      0.594437000000000      3.304266000000000
H       2.623783000000000     -4.010107000000000     -0.489059000000000
H      -1.031362000000000     -5.866477000000000      0.800535000000000
O      -9.470416999999999     -0.560156000000000      0.389002000000000
O      -9.130838000000001     -2.771872000000000      0.517301000000000
H     -10.090230000000000     -2.729595000000000      0.674651000000000
O      -2.990937000000000     -3.593928000000000     -0.415407000000000
O      -4.898272000000000     -4.718458000000000     -0.117143000000000
H      -4.252545000000000     -5.443970000000000     -0.170758000000000
O      -5.320530000000000      5.877455000000000     -2.250852000000000
O      -6.808589000000000      4.276928000000000     -2.750062000000000
H      -7.184668000000000      5.028622000000000     -3.240441000000000
O      -1.191906000000000      4.422938000000000      0.231119000000000
O      -1.517152000000000      2.852018000000000      1.797852000000000
H      -0.546724000000000      2.987120000000000      1.977155000000000
O       1.174958000000000      2.827608000000000      1.828796000000000
O       1.463744000000000      4.373373000000000      0.225710000000000
H       0.502991000000000      4.557143000000000      0.396987000000000
O       6.137800000000000      5.764225000000000     -0.528470000000000
O       7.574091000000000      4.108449000000000     -0.992226000000000
H       8.120196000000000      4.886728000000000     -1.198607000000000
O       8.961380000000000     -1.918622000000000      0.289691000000000
O       8.358722999999999     -3.757270000000000     -0.840966000000000
H       9.271490000000000     -3.988997000000000     -0.596178000000000
O       3.943053000000000     -4.266589000000000     -2.739326000000000
O       2.520805000000000     -2.548297000000000     -2.828246000000000
H       2.029268000000000     -3.225917000000000     -3.327980000000000
C      -0.741342000000000      1.865627000000000     -2.258462000000000
C       0.646725000000000      1.730692000000000     -2.282617000000000
C       1.368582000000000      1.124576000000000     -3.460179000000000
O       1.990276000000000      2.167779000000000     -4.237125000000000
C       3.130023000000000      2.655260000000000     -3.718015000000000
C       3.685042000000000      3.767038000000000     -4.568226000000000
O       3.626355000000000      2.248043000000000     -2.694264000000000
H      -1.341028000000000      1.467968000000000     -3.074187000000000
H      -1.200027000000000      2.663595000000000     -1.687774000000000
H       1.251307000000000      2.417505000000000     -1.693816000000000
H       0.659144000000000      0.647316000000000     -4.142245000000000
H       2.136258000000000      0.410916000000000     -3.160530000000000
H       2.981480000000000      4.603710000000000     -4.572994000000000
H       3.804306000000000      3.427206000000000     -5.599504000000000
H       4.641360000000000      4.089711000000000     -4.159162000000000
