183

C      -5.543144000000000     -1.414853000000000      4.438776000000000
C       1.726777000000000      0.114162000000000     -2.317747000000000
C      -5.184687000000000      2.986959000000000     -1.419073000000000
C       1.553718000000000      2.144095000000000     -3.589898000000000
C      -4.683792000000000      0.593950000000000     -0.052095000000000
C      -4.788597000000000     -2.866753000000000      2.452270000000000
H      -4.932137000000000     -3.744897000000000      3.066599000000000
C       3.247257000000000      3.086065000000000      1.176928000000000
C       0.872562000000000     -0.548262000000000     -3.201706000000000
C       5.684657000000000      3.067707000000000      1.413947000000000
C      -4.081438000000000     -1.870835000000000      0.399718000000000
C       4.455646000000000      3.724958000000000      1.456399000000000
C      -7.353231000000000      3.399216000000000     -0.170786000000000
C       3.293712000000000      1.723697000000000      0.809339000000000
H      -5.374138000000000      3.923877000000000     -1.928690000000000
C      -5.091290000000000     -1.614019000000000      2.989788000000000
C      -3.922812000000000     -4.430159000000000      0.622113000000000
H      -0.339058000000000     -0.326150000000000     -4.954911000000000
C       6.288542000000000     -1.923688000000000     -0.873360000000000
Rh     -0.588101000000000     -0.749377000000000      0.678101000000000
H       4.434392000000000      4.768612000000000      1.735227000000000
C      -0.940120000000000     -3.827734000000000     -2.591863000000000
C      -4.975484000000000     -0.509178000000000      2.151125000000000
C       4.304268000000000     -2.792811000000000      0.278720000000000
C       2.078196000000000      1.448753000000000     -2.506192000000000
C      -4.268215000000000     -3.033475000000000      1.165372000000000
C       0.068476000000000     -4.749755000000000     -2.850464000000000
C      -3.052033000000000      2.770807000000000     -2.808995000000000
C       5.675268000000000      1.731795000000000      1.039703000000000
C       1.604068000000000     -2.944325000000000     -3.290674000000000
C       1.913775000000000      3.844704000000000      1.314743000000000
O       2.255099000000000     -0.588465000000000     -1.252256000000000
C       7.010535000000000      3.745617000000000      1.768793000000000
O      -2.730211000000000      0.357547000000000     -1.514302000000000
H       1.826613000000000      3.183865000000000     -3.741540000000000
C      -3.838670000000000      1.036029000000000     -1.079865000000000
C      -0.662310000000000     -2.467506000000000     -2.681441000000000
H       5.805935000000000     -3.993413000000000     -0.653317000000000
C       5.898357000000000     -0.633811000000000     -0.523628000000000
C       0.675083000000000      1.511921000000000     -4.467361000000000
C       4.512472000000000      1.028236000000000      0.687869000000000
H       6.609645000000000      1.180554000000000      1.029765000000000
O       2.680485000000000     -1.229856000000000      1.094648000000000
O       2.052871000000000      1.164009000000000      0.578263000000000
C       3.481152000000000     -3.979510000000000      0.801806000000000
P       1.585217000000000     -0.362047000000000      0.241468000000000
O      -3.427666000000000     -1.956626000000000     -0.814155000000000
H      -0.144024000000000     -5.811759000000000     -2.780919000000000
O      -1.677565000000000     -1.555429000000000     -2.466209000000000
H      -5.229294000000000      0.477422000000000      2.526467000000000
H       6.493825000000000      0.212520000000000     -0.851947000000000
C      -4.052458000000000      2.258958000000000     -1.757631000000000
C      -5.831050000000000      1.374533000000000      0.203202000000000
C       1.343519000000000     -4.307785000000000     -3.198113000000000
C      -4.530989000000000     -0.611103000000000      0.826568000000000
P      -2.064255000000000     -1.019614000000000     -0.971781000000000
C       7.551977000000000     -2.123986000000000     -1.714684000000000
H       2.596581000000000     -2.590491000000000     -3.554567000000000
C       0.602237000000000     -2.001006000000000     -3.042173000000000
H      -6.530713000000000      0.995487000000000      0.937185000000000
C       3.931371000000000     -1.468904000000000      0.537376000000000
C       4.744015000000000     -0.374825000000000      0.221578000000000
C       0.338360000000000      0.176631000000000     -4.270795000000000
C       5.498392000000000     -2.982525000000000     -0.425359000000000
C      -6.106611000000000      2.558741000000000     -0.454914000000000
H      -0.206699000000000     -2.218037000000000      0.296343000000000
C      -1.244365000000000      1.096432000000000      1.051888000000000
O      -1.716118000000000      2.124257000000000      1.192879000000000
H       2.135137000000000     -5.023595000000000     -3.394713000000000
H      -1.946512000000000     -4.139549000000000     -2.331234000000000
H       2.765577000000000      1.919967000000000     -1.810337000000000
H       0.256686000000000      2.056167000000000     -5.307992000000000
C      -6.924841000000000      4.797134000000000      0.306641000000000
H      -7.806925000000000      5.413329000000000      0.514399000000000
H      -6.328994000000000      4.727137000000000      1.222564000000000
H      -6.324029000000000      5.315130000000000     -0.447250000000000
C      -8.184944000000000      3.531376000000000     -1.457528000000000
H      -9.080005999999999      4.135460000000000     -1.270691000000000
H      -7.614917000000000      4.013970000000000     -2.257527000000000
H      -8.501759000000000      2.546680000000000     -1.816121000000000
C      -8.237356000000000      2.772202000000000      0.912036000000000
H      -8.596812999999999      1.781177000000000      0.615426000000000
H      -7.701815000000000      2.675323000000000      1.863043000000000
H      -9.111955000000000      3.407603000000000      1.084766000000000
C      -2.974562000000000      1.809142000000000     -4.010077000000000
H      -3.964843000000000      1.683146000000000     -4.461600000000000
H      -2.307495000000000      2.233581000000000     -4.769794000000000
H      -2.589407000000000      0.827768000000000     -3.729541000000000
C      -3.480228000000000      4.140821000000000     -3.355779000000000
H      -2.742542000000000      4.473830000000000     -4.092233000000000
H      -4.452533000000000      4.095685000000000     -3.857958000000000
H      -3.528523000000000      4.898785000000000     -2.566454000000000
C      -1.657332000000000      2.958771000000000     -2.176876000000000
H      -0.995285000000000      3.460528000000000     -2.891808000000000
H      -1.727153000000000      3.585519000000000     -1.280831000000000
H      -1.186801000000000      2.009578000000000     -1.904650000000000
C      -6.920081000000000     -0.729784000000000      4.462632000000000
H      -6.892573000000000      0.252891000000000      3.980915000000000
H      -7.665560000000000     -1.340114000000000      3.942396000000000
H      -7.253338000000000     -0.585586000000000      5.496394000000000
C      -5.652340000000000     -2.740996000000000      5.197817000000000
H      -5.972488000000000     -2.548220000000000      6.226758000000000
H      -6.387978000000000     -3.410011000000000      4.738484000000000
H      -4.689228000000000     -3.260816000000000      5.239184000000000
C      -4.515990000000000     -0.526932000000000      5.162964000000000
H      -3.529103000000000     -1.002893000000000      5.172757000000000
H      -4.415158000000000      0.448889000000000      4.676824000000000
H      -4.825530000000000     -0.356449000000000      6.200327000000000
C      -2.397332000000000     -4.611172000000000      0.527544000000000
H      -1.949964000000000     -4.658858000000000      1.527005000000000
H      -2.162895000000000     -5.552592000000000      0.015141000000000
H      -1.912470000000000     -3.798905000000000     -0.015938000000000
C      -4.457416000000000     -5.540709000000000      1.538095000000000
H      -5.541899000000000     -5.467991000000000      1.672792000000000
H      -4.238601000000000     -6.511753000000000      1.082477000000000
H      -3.981336000000000     -5.527865000000000      2.523793000000000
C      -4.575479000000000     -4.639643000000000     -0.757987000000000
H      -4.221685000000000     -3.921534000000000     -1.498542000000000
H      -4.352525000000000     -5.650858000000000     -1.117385000000000
H      -5.663796000000000     -4.541399000000000     -0.681863000000000
C       2.006596000000000     -3.908474000000000      0.352137000000000
H       1.902238000000000     -3.500679000000000     -0.659145000000000
H       1.564005000000000     -4.911720000000000      0.356003000000000
H       1.421703000000000     -3.286932000000000      1.028963000000000
C       4.055565000000000     -5.314872000000000      0.309516000000000
H       5.087366000000000     -5.469316000000000      0.641083000000000
H       3.453315000000000     -6.131174000000000      0.719683000000000
H       4.023412000000000     -5.389700000000000     -0.783777000000000
C       3.537998000000000     -3.969785000000000      2.340560000000000
H       2.939451000000000     -4.798938000000000      2.737245000000000
H       4.567981000000000     -4.093872000000000      2.692362000000000
H       3.143286000000000     -3.036854000000000      2.753107000000000
C       7.371172000000000     -1.419003000000000     -3.069605000000000
H       7.200273000000000     -0.345382000000000     -2.944593000000000
H       8.266384000000000     -1.549005000000000     -3.688305000000000
H       6.514426000000000     -1.834864000000000     -3.610022000000000
C       8.760541000000000     -1.517882000000000     -0.981168000000000
H       8.904294000000000     -1.999254000000000     -0.008351000000000
H       9.672355000000000     -1.656268000000000     -1.573022000000000
H       8.632690000000000     -0.443907000000000     -0.810850000000000
C       7.843906000000000     -3.604801000000000     -1.977343000000000
H       7.026370000000000     -4.085209000000000     -2.525309000000000
H       8.751741000000001     -3.697400000000000     -2.582184000000000
H       8.005388999999999     -4.155783000000000     -1.044671000000000
C       7.636031000000000      3.034273000000000      2.980291000000000
H       7.831923000000000      1.978381000000000      2.770044000000000
H       8.587669999999999      3.507414000000000      3.247760000000000
H       6.968868000000000      3.086573000000000      3.846681000000000
C       7.970365000000000      3.650865000000000      0.570513000000000
H       8.180280000000000      2.610036000000000      0.303254000000000
H       7.544134000000000      4.145899000000000     -0.308226000000000
H       8.924424000000000      4.133817000000000      0.809755000000000
C       6.825434000000000      5.225359000000000      2.119978000000000
H       7.797511000000000      5.669766000000000      2.356636000000000
H       6.394744000000000      5.787524000000000      1.284352000000000
H       6.178064000000000      5.354495000000000      2.993870000000000
C       2.138332000000000      5.323869000000000      1.663800000000000
H       2.714893000000000      5.843280000000000      0.890728000000000
H       1.165197000000000      5.818147000000000      1.742690000000000
H       2.649498000000000      5.447792000000000      2.623972000000000
C       1.100414000000000      3.822598000000000      0.005780000000000
H       0.198502000000000      4.432601000000000      0.131421000000000
H       1.684809000000000      4.252676000000000     -0.816695000000000
H       0.788166000000000      2.818821000000000     -0.285985000000000
C       1.097459000000000      3.230652000000000      2.465941000000000
H       0.145859000000000      3.763272000000000      2.577142000000000
H       0.881502000000000      2.178029000000000      2.282862000000000
H       1.650102000000000      3.309710000000000      3.408845000000000
C      -1.489989000000000     -1.629035000000000      2.540672000000000
C      -0.149765000000000     -1.368766000000000      2.799583000000000
C       0.283884000000000     -0.213475000000000      3.658816000000000
O       0.311271000000000     -0.592638000000000      5.050516000000000
C       1.373547000000000     -1.321844000000000      5.433121000000000
C       1.289554000000000     -1.668474000000000      6.897271000000000
O       2.266305000000000     -1.648571000000000      4.690351000000000
H      -2.268074000000000     -0.958779000000000      2.901158000000000
H      -1.817800000000000     -2.629350000000000      2.290494000000000
H       0.575796000000000     -2.176872000000000      2.735531000000000
H      -0.439535000000000      0.604885000000000      3.614707000000000
H       1.277017000000000      0.150272000000000      3.379643000000000
H       0.401566000000000     -2.280479000000000      7.076048000000000
H       1.187711000000000     -0.756690000000000      7.490472000000000
H       2.184910000000000     -2.214210000000000      7.190528000000000
