75

P      -1.193120000000000     -0.123966000000000      0.286052000000000
P       1.888058000000000     -0.228251000000000      0.108525000000000
C      -0.242843000000000     -0.031507000000000      1.871540000000000
C       1.156977000000000     -0.150803000000000      1.802585000000000
C      -0.857925000000000      0.166003000000000      3.109728000000000
H      -1.938365000000000      0.269312000000000      3.165070000000000
C      -0.101299000000000      0.194537000000000      4.277457000000000
H      -0.591353000000000      0.329461000000000      5.236412000000000
C       1.280070000000000      0.032486000000000      4.212599000000000
H       1.872073000000000      0.034490000000000      5.122410000000000
C       1.907867000000000     -0.127619000000000      2.979868000000000
H       2.986754000000000     -0.241406000000000      2.936099000000000
C       2.170288000000000      1.561383000000000     -0.236221000000000
C       1.934140000000000      2.580926000000000      0.688549000000000
C       2.556456000000000      1.899862000000000     -1.540322000000000
C       2.071296000000000      3.917508000000000      0.311912000000000
H       1.620587000000000      2.340793000000000      1.700491000000000
C       2.700132000000000      3.231491000000000     -1.911566000000000
H       2.722494000000000      1.111074000000000     -2.271248000000000
C       2.450845000000000      4.245216000000000     -0.985112000000000
H       1.869365000000000      4.701252000000000      1.035469000000000
H       2.994833000000000      3.479466000000000     -2.926507000000000
H       2.549860000000000      5.286009000000000     -1.277712000000000
C       3.605790000000000     -0.826447000000000      0.338476000000000
C       3.940335000000000     -2.100789000000000     -0.124482000000000
C       4.595696000000000     -0.032286000000000      0.932093000000000
C       5.234774000000000     -2.591539000000000      0.034838000000000
H       3.184759000000000     -2.693995000000000     -0.630326000000000
C       5.887261000000000     -0.523292000000000      1.091510000000000
H       4.355345000000000      0.977177000000000      1.257178000000000
C       6.206218000000000     -1.806242000000000      0.647782000000000
H       5.484244000000000     -3.582960000000000     -0.329850000000000
H       6.648104000000000      0.098397000000000      1.553047000000000
H       7.216065000000000     -2.185900000000000      0.768439000000000
C      -1.760519000000000      1.611615000000000      0.067500000000000
C      -2.795138000000000      2.157541000000000      0.838477000000000
C      -1.093626000000000      2.425962000000000     -0.851301000000000
C      -3.150439000000000      3.493670000000000      0.692745000000000
H      -3.336007000000000      1.530820000000000      1.542555000000000
C      -1.445437000000000      3.767628000000000     -0.990136000000000
H      -0.289073000000000      2.016643000000000     -1.455498000000000
C      -2.472939000000000      4.301978000000000     -0.220004000000000
H      -3.957436000000000      3.905078000000000      1.291122000000000
H      -0.911331000000000      4.387810000000000     -1.703045000000000
H      -2.751276000000000      5.345454000000000     -0.331136000000000
C      -2.734649000000000     -1.009905000000000      0.729214000000000
C      -2.779221000000000     -1.995385000000000      1.722033000000000
C      -3.865312000000000     -0.801267000000000     -0.072460000000000
C      -3.939386000000000     -2.742284000000000      1.918705000000000
H      -1.909639000000000     -2.193199000000000      2.343257000000000
C      -5.022050000000000     -1.546225000000000      0.129655000000000
H      -3.839280000000000     -0.048066000000000     -0.856434000000000
C      -5.061942000000000     -2.518259000000000      1.127896000000000
H      -3.956992000000000     -3.503604000000000      2.692131000000000
H      -5.891397000000000     -1.369553000000000     -0.495805000000000
H      -5.963914000000000     -3.101701000000000      1.283567000000000
H       1.361647000000000     -1.998043000000000     -2.098175000000000
C       0.097695000000000     -0.181934000000000     -2.882238000000000
O       0.043513000000000      0.388105000000000     -3.877031000000000
Rh      0.287460000000000     -1.213749000000000     -1.284537000000000
C      -0.928486000000000     -2.981554000000000     -1.514294000000000
C      -0.208364000000000     -3.090860000000000     -0.302740000000000
C       0.905017000000000     -4.077146000000000     -0.120054000000000
O       0.395179000000000     -5.373735000000000      0.283041000000000
C      -0.047824000000000     -5.461587000000000      1.542991000000000
C      -0.597894000000000     -6.837300000000000      1.826752000000000
O      -0.015796000000000     -4.554340000000000      2.341930000000000
H      -0.617567000000000     -3.562356000000000     -2.379102000000000
H      -1.984320000000000     -2.721435000000000     -1.493351000000000
H      -0.739147000000000     -2.906284000000000      0.625346000000000
H       1.615164000000000     -3.748713000000000      0.644336000000000
H       1.427432000000000     -4.271923000000000     -1.059605000000000
H      -1.485836000000000     -7.004417000000000      1.210931000000000
H      -0.857571000000000     -6.913022000000000      2.881652000000000
H       0.137883000000000     -7.598784000000000      1.558725000000000
