74

P      -1.032504000000000     -1.415305000000000      1.048146000000000
P       1.851598000000000     -0.558572000000000     -0.550800000000000
C      -0.432579000000000     -2.007608000000000      2.686425000000000
C      -2.851846000000000     -1.493874000000000      1.265595000000000
C      -0.675930000000000     -2.923346000000000      0.028210000000000
C       0.825547000000000     -3.203321000000000     -0.122564000000000
C       1.586082000000000     -2.301348000000000     -1.111966000000000
C       3.153697000000000     -0.720021000000000      0.743215000000000
C       2.800094000000000      0.199401000000000     -1.933288000000000
H      -1.135002000000000     -2.777640000000000     -0.957530000000000
H      -1.153149000000000     -3.791324000000000      0.498724000000000
H       0.938788000000000     -4.235251000000000     -0.474146000000000
H       1.296081000000000     -3.167380000000000      0.867928000000000
H       1.029365000000000     -2.232330000000000     -2.055291000000000
H       2.548325000000000     -2.766769000000000     -1.349911000000000
C       0.732869000000000     -1.456544000000000      3.223949000000000
C       1.261152000000000     -1.947681000000000      4.417726000000000
C       0.618017000000000     -2.982690000000000      5.088500000000000
C      -0.554873000000000     -3.529162000000000      4.566116000000000
C      -1.075450000000000     -3.046884000000000      3.370464000000000
H       1.227826000000000     -0.639122000000000      2.706113000000000
H       2.172661000000000     -1.514283000000000      4.817567000000000
H       1.023966000000000     -3.362378000000000      6.021161000000000
H      -1.063534000000000     -4.330570000000000      5.093210000000000
H      -1.993965000000000     -3.470453000000000      2.969663000000000
C      -3.674268000000000     -2.409790000000000      0.606209000000000
C      -5.055488000000000     -2.390452000000000      0.805960000000000
C      -5.624268000000000     -1.463413000000000      1.671461000000000
C      -4.809503000000000     -0.545651000000000      2.335373000000000
C      -3.436260000000000     -0.556113000000000      2.127548000000000
H      -3.250973000000000     -3.144961000000000     -0.070915000000000
H      -5.683409000000000     -3.105004000000000      0.282676000000000
H      -6.698435000000000     -1.450578000000000      1.827058000000000
H      -5.247294000000000      0.183804000000000      3.009571000000000
H      -2.804212000000000      0.172632000000000      2.630233000000000
C       3.545936000000000      0.447638000000000      1.410425000000000
C       4.479773000000000      0.400142000000000      2.439236000000000
C       5.034797000000000     -0.820043000000000      2.822804000000000
C       4.664833000000000     -1.983532000000000      2.156679000000000
C       3.735259000000000     -1.933620000000000      1.118583000000000
H       3.114977000000000      1.403213000000000      1.124188000000000
H       4.768690000000000      1.316029000000000      2.944927000000000
H       5.755759000000000     -0.860842000000000      3.633238000000000
H       5.097846000000000     -2.937095000000000      2.442494000000000
H       3.468525000000000     -2.856371000000000      0.613906000000000
C       3.541807000000000     -0.545648000000000     -2.856198000000000
C       4.246668000000000      0.093146000000000     -3.872539000000000
C       4.218464000000000      1.482124000000000     -3.978499000000000
C       3.486254000000000      2.233487000000000     -3.063583000000000
C       2.784209000000000      1.594949000000000     -2.044726000000000
H       3.578722000000000     -1.628632000000000     -2.790862000000000
H       4.816080000000000     -0.496497000000000     -4.584490000000000
H       4.760333000000000      1.975982000000000     -4.779203000000000
H       3.426066000000000      3.313034000000000     -3.150231000000000
H       2.188099000000000      2.188139000000000     -1.354675000000000
H      -1.544132000000000      1.222795000000000      0.537697000000000
C       0.520832000000000      1.788716000000000      1.365393000000000
O       0.848505000000000      2.561291000000000      2.151917000000000
Rh     -0.199023000000000      0.557072000000000      0.117200000000000
C      -1.217557000000000      0.241355000000000     -1.802047000000000
C      -0.546285000000000      1.480650000000000     -1.811183000000000
C      -1.257686000000000      2.800016000000000     -1.694518000000000
O      -1.417446000000000      3.409655000000000     -2.998755000000000
C      -0.316223000000000      3.979217000000000     -3.504438000000000
C      -0.583378000000000      4.555725000000000     -4.871763000000000
O       0.750821000000000      4.018403000000000     -2.935277000000000
H      -2.294973000000000      0.203247000000000     -1.654380000000000
H      -0.806131000000000     -0.591307000000000     -2.369194000000000
H       0.387586000000000      1.547825000000000     -2.360497000000000
H      -0.711523000000000      3.502778000000000     -1.062402000000000
H      -2.272879000000000      2.671939000000000     -1.313922000000000
H      -0.845717000000000      3.748159000000000     -5.560388000000000
H       0.306195000000000      5.073607000000000     -5.227009000000000
H      -1.432343000000000      5.241821000000000     -4.828363000000000
