77

P      -0.957340000000000     -0.872119000000000      1.872398000000000
P       1.888353000000000     -0.004508000000000     -0.012897000000000
C      -0.739653000000000     -1.232290000000000      3.664231000000000
C      -2.783484000000000     -1.016469000000000      1.695927000000000
C       0.818730000000000     -2.440315000000000     -1.181697000000000
C       1.449621000000000     -1.072796000000000     -1.467416000000000
C       3.045472000000000     -1.088966000000000      0.917534000000000
C       3.026958000000000      1.214561000000000     -0.777793000000000
H       0.688054000000000     -2.924560000000000     -2.156329000000000
H       1.531262000000000     -3.063407000000000     -0.625912000000000
H       0.761593000000000     -0.480605000000000     -2.083319000000000
H       2.361574000000000     -1.225954000000000     -2.056983000000000
C      -0.182830000000000     -2.415523000000000      4.158868000000000
C      -0.000201000000000     -2.592866000000000      5.531187000000000
C      -0.379806000000000     -1.595710000000000      6.422618000000000
C      -0.939888000000000     -0.413276000000000      5.939124000000000
C      -1.110534000000000     -0.230845000000000      4.572202000000000
H       0.119923000000000     -3.208989000000000      3.482494000000000
H       0.437310000000000     -3.516093000000000      5.899172000000000
H      -0.237072000000000     -1.734728000000000      7.489617000000000
H      -1.233747000000000      0.372194000000000      6.628237000000000
H      -1.526052000000000      0.701478000000000      4.195659000000000
C      -3.507593000000000     -1.998151000000000      2.383195000000000
C      -4.880356000000000     -2.117013000000000      2.198401000000000
C      -5.544052000000000     -1.257509000000000      1.322577000000000
C      -4.831729000000000     -0.278563000000000      0.637570000000000
C      -3.455404000000000     -0.155891000000000      0.826869000000000
H      -2.995872000000000     -2.662102000000000      3.076606000000000
H      -5.435277000000000     -2.876647000000000      2.740434000000000
H      -6.616538000000000     -1.349744000000000      1.181200000000000
H      -5.345539000000000      0.396423000000000     -0.039951000000000
H      -2.888460000000000      0.612619000000000      0.310344000000000
C       2.792010000000000     -1.391191000000000      2.257776000000000
C       3.638777000000000     -2.245176000000000      2.963792000000000
C       4.750457000000000     -2.796732000000000      2.335309000000000
C       5.019502000000000     -2.490127000000000      1.000904000000000
C       4.173264000000000     -1.640543000000000      0.296963000000000
H       1.927747000000000     -0.957260000000000      2.754917000000000
H       3.425035000000000     -2.469986000000000      4.004363000000000
H       5.413156000000000     -3.459455000000000      2.883133000000000
H       5.892769000000000     -2.910277000000000      0.511683000000000
H       4.397935000000000     -1.389418000000000     -0.737341000000000
C       3.088867000000000      1.450532000000000     -2.152499000000000
C       3.859155000000000      2.501883000000000     -2.652819000000000
C       4.565425000000000      3.326135000000000     -1.785706000000000
C       4.507547000000000      3.097769000000000     -0.410677000000000
C       3.743735000000000      2.051921000000000      0.088284000000000
H       2.529281000000000      0.833071000000000     -2.847849000000000
H       3.894193000000000      2.677596000000000     -3.723624000000000
H       5.149678000000000      4.153940000000000     -2.174472000000000
H       5.035799000000000      3.752777000000000      0.273768000000000
H       3.675709000000000      1.898982000000000      1.163322000000000
C      -0.535403000000000     -2.431401000000000     -0.455057000000000
H      -1.121177000000000     -1.563588000000000     -0.789772000000000
H      -1.099294000000000     -3.313457000000000     -0.772687000000000
C      -0.425435000000000     -2.461631000000000      1.083779000000000
H       0.613814000000000     -2.641486000000000      1.382669000000000
H      -1.026464000000000     -3.278813000000000      1.498449000000000
H      -1.078306000000000      1.835266000000000      1.909328000000000
C       1.130733000000000      1.629553000000000      2.757529000000000
O       1.658663000000000      2.039102000000000      3.689713000000000
Rh      0.121231000000000      1.116772000000000      1.211012000000000
C      -0.697751000000000      1.955117000000000     -0.636380000000000
C       0.230758000000000      2.845335000000000     -0.042297000000000
C      -0.216445000000000      4.107650000000000      0.642830000000000
O      -0.163000000000000      5.228347000000000     -0.270928000000000
C       1.056300000000000      5.744693000000000     -0.483506000000000
C       0.996005000000000      6.870413000000000     -1.485883000000000
O       2.063977000000000      5.353616000000000      0.055630000000000
H      -1.758547000000000      2.186807000000000     -0.572170000000000
H      -0.418951000000000      1.402359000000000     -1.531343000000000
H       1.228488000000000      2.931874000000000     -0.466227000000000
H       0.408049000000000      4.345761000000000      1.506798000000000
H      -1.262683000000000      4.043383000000000      0.948758000000000
H       0.664596000000000      6.478560000000000     -2.451216000000000
H       1.983093000000000      7.319441000000000     -1.585272000000000
H       0.267339000000000      7.618506000000000     -1.165168000000000
