80

P      -1.660920000000000     -0.262520000000000      1.248965000000000
P       1.653267000000000     -0.584643000000000     -0.645034000000000
C      -1.041269000000000      0.042526000000000      2.952983000000000
C      -3.391091000000000      0.337092000000000      1.420662000000000
C       1.062423000000000     -3.422930000000000     -0.929061000000000
C       1.698716000000000     -2.193368000000000     -1.592861000000000
C       2.585259000000000     -0.996954000000000      0.887543000000000
C       2.940181000000000      0.338852000000000     -1.591867000000000
H       1.144859000000000     -4.248201000000000     -1.645054000000000
H       1.653049000000000     -3.719039000000000     -0.052081000000000
H       1.161510000000000     -1.975827000000000     -2.524783000000000
H       2.735798000000000     -2.409820000000000     -1.872898000000000
C      -1.028843000000000      1.367576000000000      3.412299000000000
C      -0.514480000000000      1.681100000000000      4.665377000000000
C      -0.009340000000000      0.672284000000000      5.485793000000000
C      -0.025913000000000     -0.646686000000000      5.044098000000000
C      -0.535636000000000     -0.960525000000000      3.784415000000000
H      -1.438628000000000      2.157585000000000      2.786286000000000
H      -0.514573000000000      2.712092000000000      5.004939000000000
H       0.388969000000000      0.915115000000000      6.466022000000000
H       0.363628000000000     -1.438985000000000      5.676212000000000
H      -0.525559000000000     -1.995888000000000      3.457670000000000
C      -3.958883000000000      1.159078000000000      0.444827000000000
C      -5.269097000000000      1.617492000000000      0.584507000000000
C      -6.023426000000000      1.242216000000000      1.689984000000000
C      -5.465769000000000      0.417343000000000      2.668363000000000
C      -4.155195000000000     -0.024608000000000      2.539104000000000
H      -3.374162000000000      1.470267000000000     -0.415395000000000
H      -5.676648000000000      2.285856000000000     -0.166209000000000
H      -7.042721000000000      1.599655000000000      1.800392000000000
H      -6.049925000000000      0.129805000000000      3.537206000000000
H      -3.714573000000000     -0.640986000000000      3.319642000000000
C       2.288595000000000     -0.296298000000000      2.058862000000000
C       3.003502000000000     -0.537085000000000      3.232190000000000
C       4.017726000000000     -1.488726000000000      3.245170000000000
C       4.322784000000000     -2.194812000000000      2.081329000000000
C       3.615318000000000     -1.946869000000000      0.909928000000000
H       1.490496000000000      0.440642000000000      2.050025000000000
H       2.754596000000000      0.016810000000000      4.132005000000000
H       4.573250000000000     -1.681475000000000      4.157836000000000
H       5.116624000000000     -2.935419000000000      2.085891000000000
H       3.877820000000000     -2.488299000000000      0.005032000000000
C       2.743542000000000      0.543930000000000     -2.964104000000000
C       3.671139000000000      1.255689000000000     -3.715854000000000
C       4.803534000000000      1.792082000000000     -3.103996000000000
C       4.999522000000000      1.607149000000000     -1.739978000000000
C       4.076970000000000      0.880433000000000     -0.987157000000000
H       1.848586000000000      0.158005000000000     -3.446489000000000
H       3.505306000000000      1.399754000000000     -4.779095000000000
H       5.524563000000000      2.354773000000000     -3.688583000000000
H       5.875111000000000      2.026066000000000     -1.253456000000000
H       4.248577000000000      0.738650000000000      0.075552000000000
C      -0.405490000000000     -3.229768000000000     -0.519459000000000
H      -0.855933000000000     -2.460002000000000     -1.155283000000000
H      -0.974151000000000     -4.148504000000000     -0.703407000000000
C      -0.576285000000000     -2.843295000000000      0.956596000000000
H       0.275623000000000     -2.230269000000000      1.276852000000000
H      -0.525306000000000     -3.753070000000000      1.567910000000000
C      -1.895265000000000     -2.099901000000000      1.234614000000000
H      -2.629091000000000     -2.310574000000000      0.447302000000000
H      -2.354767000000000     -2.403949000000000      2.181371000000000
H       0.251691000000000      1.304031000000000     -1.898539000000000
C      -1.586278000000000     -0.072922000000000     -1.921731000000000
O      -2.250568000000000     -0.470593000000000     -2.772610000000000
Rh     -0.406677000000000      0.663395000000000     -0.645804000000000
C       0.359805000000000      2.457346000000000      0.372740000000000
C      -0.930647000000000      2.697487000000000     -0.140492000000000
C      -1.165372000000000      3.532346000000000     -1.370945000000000
O      -1.550963000000000      4.879343000000000     -1.010618000000000
C      -2.838511000000000      5.039913000000000     -0.677671000000000
C      -3.126746000000000      6.470661000000000     -0.300172000000000
O      -3.655191000000000      4.147898000000000     -0.680331000000000
H       1.231053000000000      2.838284000000000     -0.156361000000000
H       0.500079000000000      2.311929000000000      1.440488000000000
H      -1.776507000000000      2.704437000000000      0.546569000000000
H      -1.950319000000000      3.116680000000000     -2.006113000000000
H      -0.244660000000000      3.642929000000000     -1.947160000000000
H      -2.536603000000000      6.740643000000000      0.579499000000000
H      -4.188545000000000      6.582079000000000     -0.086182000000000
H      -2.830015000000000      7.136963000000000     -1.113552000000000
