113

C       2.240961000000000      2.095697000000000      0.786167000000000
C       1.470237000000000      0.943657000000000      0.646713000000000
C       0.386708000000000      0.696619000000000      1.511566000000000
C       0.159639000000000      1.610461000000000      2.556377000000000
C       0.913031000000000      2.777746000000000      2.692873000000000
C       1.941563000000000      3.023358000000000      1.784652000000000
H       3.081659000000000      2.309705000000000      0.136837000000000
H       0.675231000000000      3.494527000000000      3.466222000000000
O       2.707657000000000      4.141253000000000      1.802251000000000
C      -0.528132000000000     -0.481933000000000      1.407186000000000
C      -0.423642000000000     -1.488818000000000      2.398674000000000
C      -1.503035000000000     -0.641539000000000      0.415826000000000
C      -1.198499000000000     -2.637271000000000      2.348294000000000
C      -2.306142000000000     -1.789749000000000      0.367752000000000
C      -2.135000000000000     -2.788438000000000      1.319574000000000
H      -1.098313000000000     -3.441200000000000      3.066649000000000
H      -3.047225000000000     -1.893311000000000     -0.414164000000000
O      -2.841587000000000     -3.944297000000000      1.344384000000000
P       1.750202000000000     -0.188167000000000     -0.788884000000000
P      -1.628522000000000      0.564106000000000     -0.984092000000000
C      -3.347810000000000      0.334967000000000     -1.628391000000000
C      -4.463494000000000      1.052017000000000     -1.182615000000000
C      -3.516838000000000     -0.593482000000000     -2.664738000000000
C      -5.720000000000000      0.823446000000000     -1.735884000000000
H      -4.365611000000000      1.810933000000000     -0.416161000000000
C      -4.769537000000000     -0.827648000000000     -3.220509000000000
H      -2.655645000000000     -1.120326000000000     -3.061553000000000
C      -5.870850000000000     -0.120967000000000     -2.745585000000000
H      -6.578445000000000      1.389409000000000     -1.390617000000000
H      -4.866780000000000     -1.526618000000000     -4.044391000000000
C      -7.228493000000000     -0.410175000000000     -3.318722000000000
C      -1.744016000000000      2.155523000000000     -0.054916000000000
C      -0.981951000000000      3.253261000000000     -0.454716000000000
C      -2.538836000000000      2.260964000000000      1.095971000000000
C      -0.987576000000000      4.432923000000000      0.287087000000000
H      -0.348655000000000      3.182338000000000     -1.331623000000000
C      -2.572412000000000      3.441841000000000      1.822631000000000
H      -3.097896000000000      1.398685000000000      1.448950000000000
C      -1.778314000000000      4.518075000000000      1.425729000000000
H      -0.367228000000000      5.271048000000000     -0.011466000000000
H      -3.190485000000000      3.521954000000000      2.712387000000000
C      -1.732570000000000      5.732223000000000      2.302930000000000
C       1.901748000000000     -1.805556000000000      0.082100000000000
C       2.580363000000000     -1.880905000000000      1.305523000000000
C       1.319634000000000     -2.958327000000000     -0.448150000000000
C       2.653744000000000     -3.082816000000000      1.995968000000000
H       3.027307000000000     -0.987354000000000      1.733309000000000
C       1.372874000000000     -4.161558000000000      0.250261000000000
H       0.795948000000000     -2.905744000000000     -1.396784000000000
C       2.028722000000000     -4.214694000000000      1.475056000000000
H       3.176820000000000     -3.140008000000000      2.945670000000000
H       0.897355000000000     -5.050629000000000     -0.149773000000000
C       2.002161000000000     -5.473132000000000      2.290980000000000
C       3.492947000000000      0.146972000000000     -1.300520000000000
C       4.558709000000000     -0.711229000000000     -1.013873000000000
C       3.741078000000000      1.284569000000000     -2.082664000000000
C       5.840528000000000     -0.433281000000000     -1.482647000000000
H       4.399187000000000     -1.608976000000000     -0.427937000000000
C       5.020180000000000      1.576699000000000     -2.535785000000000
H       2.925090000000000      1.952776000000000     -2.339398000000000
C       6.069922000000000      0.711137000000000     -2.235989000000000
H       6.661639000000000     -1.104620000000000     -1.254561000000000
H       5.203101000000000      2.469130000000000     -3.125147000000000
C       7.438279000000000      0.987668000000000     -2.789514000000000
H      -0.316098000000000     -1.370666000000000     -2.035146000000000
O      -0.864077000000000      1.305740000000000      3.390941000000000
O       0.491444000000000     -1.257142000000000      3.370723000000000
Rh      0.118348000000000      0.071379000000000     -2.483984000000000
C       0.538213000000000      1.832112000000000     -3.208550000000000
O       0.784985000000000      2.842083000000000     -3.692616000000000
C      -1.036081000000000      2.100147000000000      4.543934000000000
H      -1.295372000000000      3.133571000000000      4.286763000000000
H      -1.856365000000000      1.646775000000000      5.100820000000000
H      -0.128974000000000      2.098757000000000      5.160069000000000
C       0.548809000000000     -2.172799000000000      4.443004000000000
H       0.834525000000000     -3.173946000000000      4.101758000000000
H       1.307387000000000     -1.788893000000000      5.125758000000000
H      -0.416642000000000     -2.230903000000000      4.959587000000000
F       7.576562000000000      0.490707000000000     -4.027841000000000
F       8.400339000000001      0.438306000000000     -2.035244000000000
F       7.682172000000000      2.303664000000000     -2.867333000000000
F       0.999638000000000     -5.444620000000000      3.193804000000000
F       3.135834000000000     -5.641887000000000      2.985764000000000
F       1.815712000000000     -6.563017000000000      1.538507000000000
F      -7.757081000000000     -1.523153000000000     -2.783999000000000
F      -7.175543000000000     -0.603320000000000     -4.643136000000000
F      -8.094711999999999      0.586663000000000     -3.086802000000000
F      -1.074450000000000      6.750354000000000      1.737060000000000
F      -1.096587000000000      5.462844000000000      3.468686000000000
F      -2.955235000000000      6.162032000000000      2.634872000000000
C      -3.785328000000000     -4.152505000000000      0.314541000000000
H      -4.225040000000000     -5.131593000000000      0.501915000000000
H      -4.571554000000000     -3.388649000000000      0.333663000000000
H      -3.304695000000000     -4.148271000000000     -0.671264000000000
C       2.389355000000000      5.140074000000000      2.748180000000000
H       1.359172000000000      5.494195000000000      2.623838000000000
H       2.522699000000000      4.774897000000000      3.773682000000000
H       3.081987000000000      5.960819000000000      2.564450000000000
C       0.951368000000000     -0.863819000000000     -4.250073000000000
C      -0.454214000000000     -0.803053000000000     -4.386152000000000
C      -1.151934000000000      0.145249000000000     -5.316660000000000
O      -1.410101000000000     -0.468169000000000     -6.603373000000000
C      -2.411660000000000     -1.354423000000000     -6.634899000000000
C      -2.590615000000000     -1.927295000000000     -8.016676000000000
O      -3.079719000000000     -1.652895000000000     -5.670391000000000
H       1.581259000000000     -0.175813000000000     -4.811080000000000
H       1.430122000000000     -1.805660000000000     -3.999368000000000
H      -1.012639000000000     -1.718348000000000     -4.210830000000000
H      -0.527076000000000      1.010201000000000     -5.550925000000000
H      -2.109190000000000      0.481132000000000     -4.906619000000000
H      -1.682174000000000     -2.459832000000000     -8.309977000000000
H      -2.746924000000000     -1.119896000000000     -8.735865000000000
H      -3.440831000000000     -2.607466000000000     -8.019705999999999
