109

C      -2.446066000000000     -1.880534000000000      1.188048000000000
C      -1.612784000000000     -0.801905000000000      0.865023000000000
C      -0.512851000000000     -0.467041000000000      1.668162000000000
C      -0.309216000000000     -1.221156000000000      2.847292000000000
C      -1.117529000000000     -2.302719000000000      3.166186000000000
C      -2.184405000000000     -2.634659000000000      2.327196000000000
H      -3.295129000000000     -2.114194000000000      0.560830000000000
H      -0.963149000000000     -2.906405000000000      4.050810000000000
O      -2.921738000000000     -3.701524000000000      2.717379000000000
C       0.376291000000000      0.709616000000000      1.409165000000000
C       0.220598000000000      1.833193000000000      2.261829000000000
C       1.322577000000000      0.798175000000000      0.380272000000000
C       0.934215000000000      3.003916000000000      2.055998000000000
C       2.026007000000000      1.991181000000000      0.150819000000000
C       1.818813000000000      3.088029000000000      0.977927000000000
H       0.810144000000000      3.878643000000000      2.681966000000000
H       2.722202000000000      2.050805000000000     -0.674442000000000
O       2.432519000000000      4.286578000000000      0.821557000000000
P      -1.860114000000000      0.073761000000000     -0.746840000000000
P       1.564598000000000     -0.572697000000000     -0.833007000000000
C       3.219182000000000     -0.201728000000000     -1.566246000000000
C       4.356325000000000      0.000801000000000     -0.763402000000000
C       3.346086000000000     -0.185347000000000     -2.953362000000000
C       5.589500000000000      0.233802000000000     -1.347077000000000
H       4.265265000000000     -0.018608000000000      0.319450000000000
C       4.591985000000000      0.029117000000000     -3.544577000000000
H       2.477682000000000     -0.348092000000000     -3.579203000000000
C       5.708041000000000      0.245802000000000     -2.743799000000000
H       6.479430000000000      0.399314000000000     -0.747555000000000
H       4.672697000000000      0.018368000000000     -4.628698000000000
C       7.031677000000000      0.486408000000000     -3.368896000000000
C       2.064979000000000     -2.001717000000000      0.222092000000000
C       2.041740000000000     -3.281085000000000     -0.350295000000000
C       2.543675000000000     -1.841946000000000      1.525563000000000
C       2.464526000000000     -4.386700000000000      0.373141000000000
H       1.698395000000000     -3.405523000000000     -1.373630000000000
C       2.965854000000000     -2.950597000000000      2.251900000000000
H       2.562493000000000     -0.858851000000000      1.984018000000000
C       2.922197000000000     -4.222615000000000      1.682617000000000
H       2.448406000000000     -5.384509000000000     -0.054012000000000
H       3.340705000000000     -2.825992000000000      3.266038000000000
C       3.367814000000000     -5.399627000000000      2.466077000000000
C      -1.925078000000000      1.825271000000000     -0.188559000000000
C      -2.641099000000000      2.158478000000000      0.973437000000000
C      -1.235413000000000      2.817443000000000     -0.886232000000000
C      -2.643321000000000      3.461008000000000      1.441425000000000
H      -3.164924000000000      1.381934000000000      1.525337000000000
C      -1.229451000000000      4.126508000000000     -0.408052000000000
H      -0.674525000000000      2.551976000000000     -1.777115000000000
C      -1.913864000000000      4.443363000000000      0.762721000000000
H      -3.178850000000000      3.736568000000000      2.345066000000000
H      -0.660269000000000      4.895191000000000     -0.926116000000000
C      -1.807229000000000      5.803147000000000      1.341305000000000
C      -3.624917000000000     -0.259213000000000     -1.196573000000000
C      -4.649156000000000      0.689266000000000     -1.062021000000000
C      -3.933600000000000     -1.501365000000000     -1.771927000000000
C      -5.946429000000000      0.393415000000000     -1.462749000000000
H      -4.437300000000000      1.669232000000000     -0.650984000000000
C      -5.234076000000000     -1.804943000000000     -2.154679000000000
H      -3.150124000000000     -2.236253000000000     -1.924713000000000
C      -6.246079000000000     -0.857503000000000     -2.001403000000000
H      -6.744313000000000      1.123070000000000     -1.364041000000000
H      -5.461414000000000     -2.775519000000000     -2.589754000000000
C      -7.633331000000000     -1.174257000000000     -2.421371000000000
H       0.120177000000000      0.773596000000000     -2.543768000000000
O       0.723689000000000     -0.820035000000000      3.629221000000000
O      -0.688299000000000      1.694774000000000      3.254887000000000
Rh     -0.268146000000000     -0.736788000000000     -2.283372000000000
C      -0.691841000000000     -2.622700000000000     -2.011632000000000
O      -0.969315000000000     -3.721485000000000     -1.843177000000000
C       0.954265000000000     -1.528715000000000      4.825931000000000
H       1.812005000000000     -1.049921000000000      5.299028000000000
H       0.087442000000000     -1.470032000000000      5.494341000000000
H       1.185836000000000     -2.582107000000000      4.624993000000000
C      -0.819273000000000      2.757076000000000      4.177257000000000
H      -1.154460000000000      3.679664000000000      3.687626000000000
H      -1.571097000000000      2.435906000000000      4.898074000000000
H       0.129316000000000      2.945002000000000      4.693749000000000
O      -8.561605000000000     -0.408603000000000     -2.317416000000000
H      -7.774973000000000     -2.188730000000000     -2.849293000000000
O      -2.216035000000000      6.096748000000000      2.441643000000000
H      -1.296035000000000      6.553608000000000      0.704292000000000
O       8.044536000000001      0.704203000000000     -2.746336000000000
H       7.038143000000000      0.456238000000000     -4.478080000000000
O       3.355643000000000     -6.534614000000000      2.052858000000000
H       3.725933000000000     -5.170595000000000      3.492317000000000
C       3.346079000000000      4.413217000000000     -0.248621000000000
H       4.169717000000000      3.695274000000000     -0.156760000000000
H       2.847922000000000      4.265206000000000     -1.214542000000000
H       3.738710000000000      5.427943000000000     -0.192125000000000
C      -3.969221000000000     -4.115082000000000      1.865563000000000
H      -4.739540000000000     -3.339938000000000      1.774950000000000
H      -3.590132000000000     -4.366526000000000      0.867424000000000
H      -4.400440000000000     -5.002897000000000      2.326949000000000
C      -1.212224000000000     -0.689268000000000     -4.232096000000000
C       0.178119000000000     -0.871423000000000     -4.404121000000000
C       0.770966000000000     -2.187034000000000     -4.821527000000000
O       0.977764000000000     -2.244413000000000     -6.253036000000000
C       2.043592000000000     -1.576940000000000     -6.710513000000000
C       2.155433000000000     -1.688323000000000     -8.208501999999999
O       2.811064000000000     -0.964461000000000     -6.002272000000000
H      -1.887485000000000     -1.531874000000000     -4.373243000000000
H      -1.660073000000000      0.282518000000000     -4.413551000000000
H       0.768949000000000     -0.009883000000000     -4.704514000000000
H       0.086080000000000     -3.012718000000000     -4.611679000000000
H       1.733999000000000     -2.377440000000000     -4.338350000000000
H       1.275199000000000     -1.236339000000000     -8.673035000000000
H       2.180172000000000     -2.740406000000000     -8.501844000000000
H       3.057806000000000     -1.179696000000000     -8.543920000000000
