113

C      -2.197189000000000     -2.103520000000000      0.552244000000000
C      -1.513943000000000     -0.876844000000000      0.600590000000000
C      -0.468267000000000     -0.673881000000000      1.505084000000000
C      -0.198500000000000     -1.693500000000000      2.452344000000000
C      -0.886634000000000     -2.897014000000000      2.428245000000000
C      -1.867316000000000     -3.109575000000000      1.453078000000000
H      -2.972291000000000     -2.258078000000000     -0.187766000000000
H      -0.674066000000000     -3.702331000000000      3.120052000000000
O      -2.450695000000000     -4.333024000000000      1.473208000000000
C       0.416461000000000      0.529274000000000      1.500245000000000
C       0.309442000000000      1.449831000000000      2.568911000000000
C       1.380262000000000      0.768134000000000      0.512202000000000
C       1.100017000000000      2.588628000000000      2.620748000000000
C       2.193740000000000      1.907902000000000      0.568840000000000
C       2.037781000000000      2.816583000000000      1.610380000000000
H       1.015931000000000      3.320969000000000      3.413768000000000
H       2.950549000000000      2.069012000000000     -0.184665000000000
O       2.761755000000000      3.956624000000000      1.735713000000000
P      -1.845733000000000      0.350368000000000     -0.737614000000000
P       1.498746000000000     -0.368586000000000     -0.950883000000000
C       3.114797000000000      0.038333000000000     -1.731802000000000
C       4.188912000000000     -0.855771000000000     -1.748884000000000
C       3.229908000000000      1.249385000000000     -2.434912000000000
C       5.354876000000000     -0.546620000000000     -2.445109000000000
H       4.120456000000000     -1.804534000000000     -1.227641000000000
C       4.399176000000000      1.570639000000000     -3.104018000000000
H       2.384536000000000      1.932053000000000     -2.463671000000000
C       5.463387000000000      0.668123000000000     -3.115300000000000
H       6.179201000000000     -1.250612000000000     -2.469156000000000
H       4.496926000000000      2.500805000000000     -3.653926000000000
C       6.674137000000000      1.035826000000000     -3.893251000000000
C       1.844040000000000     -1.965036000000000     -0.099985000000000
C       1.221755000000000     -3.136683000000000     -0.534145000000000
C       2.685174000000000     -2.005345000000000      1.020318000000000
C       1.393911000000000     -4.329801000000000      0.162005000000000
H       0.572193000000000     -3.110777000000000     -1.402378000000000
C       2.860718000000000     -3.190801000000000      1.716871000000000
H       3.169416000000000     -1.096077000000000      1.366225000000000
C       2.196862000000000     -4.348391000000000      1.301296000000000
H       0.883406000000000     -5.232704000000000     -0.154738000000000
H       3.487489000000000     -3.235079000000000      2.602074000000000
C       2.334408000000000     -5.563417000000000      2.145761000000000
C      -1.887741000000000      1.951581000000000      0.176184000000000
C      -2.603422000000000      2.068248000000000      1.373909000000000
C      -1.165797000000000      3.046936000000000     -0.303114000000000
C      -2.559685000000000      3.247008000000000      2.101154000000000
H      -3.149884000000000      1.219772000000000      1.772000000000000
C      -1.116684000000000      4.231274000000000      0.425961000000000
H      -0.610734000000000      2.952929000000000     -1.230930000000000
C      -1.797205000000000      4.321916000000000      1.639561000000000
H      -3.087058000000000      3.343922000000000      3.044859000000000
H      -0.527091000000000      5.070887000000000      0.073998000000000
C      -1.686999000000000      5.515385000000000      2.517064000000000
C      -3.632246000000000      0.105600000000000     -1.134250000000000
C      -4.616560000000000     -0.204611000000000     -0.184327000000000
C      -4.005891000000000      0.282746000000000     -2.469824000000000
C      -5.944297000000000     -0.330790000000000     -0.566248000000000
H      -4.341493000000000     -0.376983000000000      0.851604000000000
C      -5.339163000000000      0.167258000000000     -2.855364000000000
H      -3.236657000000000      0.504797000000000     -3.205881000000000
C      -6.307327000000000     -0.141624000000000     -1.901958000000000
H      -6.717299000000000     -0.576583000000000      0.154533000000000
H      -5.626878000000000      0.306937000000000     -3.891474000000000
C      -7.745264000000000     -0.291532000000000     -2.256093000000000
H       0.190059000000000      1.421077000000000     -2.306282000000000
O       0.782750000000000     -1.420013000000000      3.342122000000000
O      -0.623506000000000      1.153390000000000      3.502997000000000
Rh     -0.290481000000000     -0.074252000000000     -2.460470000000000
C      -1.074385000000000     -1.839505000000000     -2.754385000000000
O      -1.644902000000000     -2.817468000000000     -2.932782000000000
C       1.023266000000000     -2.362353000000000      4.366757000000000
H       1.377400000000000     -3.319161000000000      3.964314000000000
H       1.800855000000000     -1.928056000000000      4.995176000000000
H       0.118799000000000     -2.529114000000000      4.963459000000000
C      -0.728431000000000      2.013989000000000      4.618496000000000
H      -1.509756000000000      1.591095000000000      5.250122000000000
H       0.215271000000000      2.048275000000000      5.175581000000000
H      -1.012749000000000      3.030637000000000      4.319802000000000
O      -8.618793999999999     -0.573293000000000     -1.471603000000000
O      -7.989223000000000     -0.079535000000000     -3.563295000000000
H      -8.947169000000001     -0.200042000000000     -3.683771000000000
O      -2.062074000000000      5.555167000000000      3.666781000000000
O      -1.100944000000000      6.565661000000000      1.915008000000000
H      -1.055091000000000      7.271943000000000      2.582730000000000
O       6.824157000000000      2.079960000000000     -4.481955000000000
O       7.622073000000000      0.077332000000000     -3.879541000000000
H       8.356420999999999      0.419775000000000     -4.417676000000000
O       2.835097000000000     -5.576973000000000      3.246924000000000
O       1.823875000000000     -6.668319000000000      1.573470000000000
H       1.943744000000000     -7.388960000000000      2.216263000000000
C       3.695944000000000      4.247832000000000      0.718120000000000
H       4.141758000000000      5.206330000000000      0.982247000000000
H       4.479534000000000      3.482965000000000      0.663210000000000
H       3.205439000000000      4.328104000000000     -0.259924000000000
C      -3.413325000000000     -4.607697000000000      0.476841000000000
H      -3.738675000000000     -5.633721000000000      0.645789000000000
H      -4.274606000000000     -3.933431000000000      0.558180000000000
H      -2.980657000000000     -4.518657000000000     -0.527025000000000
C      -0.719797000000000      0.505929000000000     -4.512609000000000
C       0.631364000000000      0.101435000000000     -4.383705000000000
C       1.129143000000000     -1.207086000000000     -4.931354000000000
O       1.650132000000000     -1.051940000000000     -6.269781000000000
C       2.908858000000000     -0.592399000000000     -6.354716000000000
C       3.329576000000000     -0.434622000000000     -7.793567000000000
O       3.601857000000000     -0.341661000000000     -5.398021000000000
H      -1.428840000000000     -0.159396000000000     -5.003731000000000
H      -0.967961000000000      1.560195000000000     -4.580012000000000
H       1.405293000000000      0.864510000000000     -4.334178000000000
H       0.312952000000000     -1.926878000000000     -5.037768000000000
H       1.919478000000000     -1.629533000000000     -4.304153000000000
H       2.681065000000000      0.295357000000000     -8.284834000000000
H       3.216133000000000     -1.384847000000000     -8.320869999999999
H       4.365100000000000     -0.100130000000000     -7.832122000000000
