113

C      -2.507959000000000     -1.721902000000000      0.912583000000000
C      -1.587578000000000     -0.680740000000000      0.732609000000000
C      -0.495521000000000     -0.524081000000000      1.597140000000000
C      -0.389880000000000     -1.411296000000000      2.692046000000000
C      -1.283845000000000     -2.458485000000000      2.865800000000000
C      -2.339564000000000     -2.615025000000000      1.964106000000000
H      -3.345474000000000     -1.820515000000000      0.235487000000000
H      -1.203510000000000     -3.166056000000000      3.680493000000000
O      -3.164509000000000     -3.665221000000000      2.207800000000000
C       0.490805000000000      0.595747000000000      1.481141000000000
C       0.375607000000000      1.647902000000000      2.421910000000000
C       1.478984000000000      0.704777000000000      0.495399000000000
C       1.166327000000000      2.783328000000000      2.343171000000000
C       2.267611000000000      1.862196000000000      0.397700000000000
C       2.095001000000000      2.897924000000000      1.306089000000000
H       1.072994000000000      3.609368000000000      3.036625000000000
H       2.998409000000000      1.940823000000000     -0.395631000000000
O       2.787765000000000      4.065807000000000      1.272765000000000
P      -1.702279000000000      0.354717000000000     -0.797541000000000
P       1.678505000000000     -0.576850000000000     -0.821659000000000
C       3.368711000000000     -0.251368000000000     -1.476406000000000
C       4.494818000000000     -0.204153000000000     -0.639688000000000
C       3.552253000000000     -0.110644000000000     -2.849592000000000
C       5.758510000000000     -0.003939000000000     -1.173527000000000
H       4.378063000000000     -0.319788000000000      0.434974000000000
C       4.828674000000000      0.072203000000000     -3.384860000000000
H       2.699209000000000     -0.153215000000000     -3.515795000000000
C       5.945757000000000      0.133402000000000     -2.557209000000000
H       6.621382000000000      0.035178000000000     -0.512306000000000
H       4.933932000000000      0.156339000000000     -4.462843000000000
C       7.330345000000000      0.326790000000000     -3.120144000000000
C       2.027778000000000     -2.109249000000000      0.138012000000000
C       1.905062000000000     -3.343320000000000     -0.506479000000000
C       2.510548000000000     -2.087853000000000      1.449221000000000
C       2.230885000000000     -4.525362000000000      0.149859000000000
H       1.564748000000000     -3.380783000000000     -1.537851000000000
C       2.835843000000000     -3.273825000000000      2.100319000000000
H       2.613196000000000     -1.144559000000000      1.976637000000000
C       2.692191000000000     -4.510486000000000      1.467739000000000
H       2.124961000000000     -5.474235000000000     -0.369938000000000
H       3.216604000000000     -3.236436000000000      3.118864000000000
C       3.003152000000000     -5.794119000000000      2.193321000000000
C      -1.626010000000000      2.055598000000000     -0.113844000000000
C      -2.344545000000000      2.394132000000000      1.038819000000000
C      -0.831869000000000      3.030264000000000     -0.721996000000000
C      -2.270626000000000      3.680124000000000      1.562433000000000
H      -2.946412000000000      1.640881000000000      1.542035000000000
C      -0.747109000000000      4.309028000000000     -0.180016000000000
H      -0.257631000000000      2.771782000000000     -1.606831000000000
C      -1.456903000000000      4.651180000000000      0.972454000000000
H      -2.841422000000000      3.929992000000000      2.453983000000000
H      -0.102785000000000      5.048977000000000     -0.649231000000000
C      -1.303773000000000      6.018527000000000      1.586202000000000
C      -3.467363000000000      0.207069000000000     -1.325048000000000
C      -4.437778000000000      1.183025000000000     -1.083077000000000
C      -3.851489000000000     -0.927076000000000     -2.056979000000000
C      -5.746311000000000      1.016402000000000     -1.533576000000000
H      -4.180701000000000      2.090507000000000     -0.548999000000000
C      -5.161542000000000     -1.097771000000000     -2.484724000000000
H      -3.115593000000000     -1.688365000000000     -2.295620000000000
C      -6.133696000000000     -0.124807000000000     -2.232917000000000
H      -6.479203000000000      1.794151000000000     -1.333979000000000
H      -5.430615000000000     -1.993454000000000     -3.039591000000000
C      -7.543162000000000     -0.296714000000000     -2.736575000000000
H       0.389739000000000      0.995448000000000     -2.484959000000000
O       0.635835000000000     -1.170143000000000      3.547144000000000
O      -0.580138000000000      1.481862000000000      3.369890000000000
Rh     -0.119298000000000     -0.493545000000000     -2.331994000000000
C      -0.712145000000000     -2.343393000000000     -2.177063000000000
O      -1.100899000000000     -3.417655000000000     -2.076520000000000
C       0.800344000000000     -2.050637000000000      4.633717000000000
H       0.970179000000000     -3.078056000000000      4.288571000000000
H       1.678678000000000     -1.699274000000000      5.176484000000000
H      -0.072144000000000     -2.029590000000000      5.297902000000000
C      -0.677363000000000      2.462578000000000      4.375130000000000
H      -0.937127000000000      3.441639000000000      3.953312000000000
H      -1.472731000000000      2.131972000000000      5.043567000000000
H       0.261829000000000      2.549243000000000      4.935052000000000
H      -7.904058000000000     -1.315011000000000     -2.563583000000000
H      -7.597321000000000     -0.109705000000000     -3.814690000000000
H      -8.228427999999999      0.397391000000000     -2.243381000000000
H      -1.393563000000000      6.806501000000000      0.832397000000000
H      -0.314559000000000      6.120940000000000      2.047700000000000
H      -2.056781000000000      6.196934000000000      2.358573000000000
H       7.299396000000000      0.470183000000000     -4.202858000000000
H       7.963348000000000     -0.542483000000000     -2.912034000000000
H       7.819986000000000      1.199130000000000     -2.674612000000000
H       2.102417000000000     -6.203020000000000      2.665283000000000
H       3.745979000000000     -5.635710000000000      2.980064000000000
H       3.387455000000000     -6.554653000000000      1.507961000000000
C       3.717705000000000      4.231684000000000      0.223835000000000
H       3.223165000000000      4.190464000000000     -0.754318000000000
H       4.163338000000000      5.215963000000000      0.367123000000000
H       4.501342000000000      3.465198000000000      0.259029000000000
C      -4.188365000000000     -3.911594000000000      1.268222000000000
H      -4.694908000000000     -4.816611000000000      1.603316000000000
H      -4.906684000000000     -3.083667000000000      1.232117000000000
H      -3.774057000000000     -4.070877000000000      0.265026000000000
C      -0.983290000000000     -0.270041000000000     -4.301202000000000
C       0.400216000000000     -0.532571000000000     -4.435331000000000
C       0.927161000000000     -1.855786000000000     -4.907542000000000
O       1.155485000000000     -1.860435000000000     -6.340091000000000
C       2.257524000000000     -1.224534000000000     -6.752024000000000
C       2.378145000000000     -1.263851000000000     -8.254384000000000
O       3.048210000000000     -0.686567000000000     -6.010629000000000
H      -1.704001000000000     -1.057025000000000     -4.519077000000000
H      -1.361892000000000      0.737261000000000     -4.443123000000000
H       1.053794000000000      0.304787000000000     -4.665573000000000
H       0.196022000000000     -2.652612000000000     -4.748305000000000
H       1.870751000000000     -2.118995000000000     -4.420226000000000
H       1.538606000000000     -0.722934000000000     -8.699045999999999
H       2.328965000000000     -2.296985000000000     -8.605956000000001
H       3.318420000000000     -0.804146000000000     -8.554861000000001
