133

C      -1.977095000000000     -2.263541000000000      0.550049000000000
C      -1.403440000000000     -0.983035000000000      0.649718000000000
C      -0.390920000000000     -0.732672000000000      1.577908000000000
C      -0.049238000000000     -1.756734000000000      2.494018000000000
C      -0.636553000000000     -3.010008000000000      2.423513000000000
C      -1.571177000000000     -3.269488000000000      1.416422000000000
H      -2.723024000000000     -2.454089000000000     -0.211302000000000
H      -0.359001000000000     -3.822571000000000      3.083529000000000
O      -2.027473000000000     -4.550996000000000      1.366176000000000
C       0.384884000000000      0.540681000000000      1.631685000000000
C       0.155492000000000      1.410781000000000      2.718936000000000
C       1.339672000000000      0.901768000000000      0.674922000000000
C       0.810325000000000      2.628801000000000      2.818563000000000
C       2.021185000000000      2.123635000000000      0.780568000000000
C       1.731355000000000      2.986087000000000      1.830831000000000
H       0.621653000000000      3.331231000000000      3.621116000000000
H       2.771420000000000      2.381621000000000      0.046228000000000
O       2.295231000000000      4.217002000000000      1.984865000000000
P      -1.829784000000000      0.259599000000000     -0.654821000000000
P       1.591748000000000     -0.166518000000000     -0.823926000000000
C       3.139340000000000      0.412472000000000     -1.604524000000000
C       4.241934000000000     -0.425454000000000     -1.787687000000000
C       3.155307000000000      1.645536000000000     -2.272864000000000
C       5.289974000000000     -0.072194000000000     -2.628690000000000
H       4.273035000000000     -1.394481000000000     -1.298688000000000
C       4.208584000000000      2.024783000000000     -3.085232000000000
H       2.294355000000000      2.305978000000000     -2.193910000000000
C       5.289972000000000      1.151941000000000     -3.319729000000000
H       6.098380000000000     -0.779339000000000     -2.766434000000000
H       4.145924000000000      2.974523000000000     -3.601177000000000
N       6.298960000000000      1.476705000000000     -4.216657000000000
C       2.055465000000000     -1.748297000000000     -0.033520000000000
C       1.440949000000000     -2.941946000000000     -0.409264000000000
C       2.959177000000000     -1.788308000000000      1.035192000000000
C       1.659573000000000     -4.123553000000000      0.285849000000000
H       0.746208000000000     -2.948750000000000     -1.242107000000000
C       3.202469000000000     -2.961781000000000      1.729883000000000
H       3.461420000000000     -0.875831000000000      1.348800000000000
C       2.505478000000000     -4.145877000000000      1.408876000000000
H       1.130119000000000     -5.015296000000000     -0.026381000000000
H       3.897423000000000     -2.941624000000000      2.561605000000000
N       2.618634000000000     -5.275334000000000      2.206884000000000
C      -1.984781000000000      1.837065000000000      0.267539000000000
C      -2.761592000000000      1.954151000000000      1.424226000000000
C      -1.281761000000000      2.968563000000000     -0.154282000000000
C      -2.823589000000000      3.140972000000000      2.141750000000000
H      -3.302247000000000      1.093826000000000      1.807555000000000
C      -1.320980000000000      4.156821000000000      0.557580000000000
H      -0.668092000000000      2.907117000000000     -1.047174000000000
C      -2.085666000000000      4.270623000000000      1.733320000000000
H      -3.425132000000000      3.172146000000000      3.043030000000000
H      -0.737633000000000      4.997425000000000      0.200683000000000
N      -2.094357000000000      5.453677000000000      2.455182000000000
C      -3.558310000000000     -0.162583000000000     -1.090332000000000
C      -4.543752000000000     -0.538113000000000     -0.168206000000000
C      -3.936955000000000     -0.063527000000000     -2.431992000000000
C      -5.846099000000000     -0.800417000000000     -0.562437000000000
H      -4.287798000000000     -0.657431000000000      0.881226000000000
C      -5.239382000000000     -0.312956000000000     -2.844231000000000
H      -3.186298000000000      0.218209000000000     -3.167786000000000
C      -6.227937000000000     -0.696489000000000     -1.917768000000000
H      -6.569310000000000     -1.089364000000000      0.190526000000000
H      -5.479691000000000     -0.213117000000000     -3.895537000000000
N      -7.521267000000000     -0.975284000000000     -2.318983000000000
H       0.142185000000000      1.534852000000000     -2.174871000000000
O       0.897931000000000     -1.434058000000000      3.409098000000000
O      -0.760024000000000      0.980365000000000      3.622682000000000
Rh     -0.198381000000000      0.007563000000000     -2.367684000000000
C      -0.815512000000000     -1.805365000000000     -2.719435000000000
O      -1.299576000000000     -2.819550000000000     -2.953745000000000
C       1.230343000000000     -2.409010000000000      4.368852000000000
H       0.360085000000000     -2.666318000000000      4.985928000000000
H       1.619254000000000     -3.320822000000000      3.897636000000000
H       2.003190000000000     -1.962940000000000      4.996188000000000
C      -0.965306000000000      1.774104000000000      4.764538000000000
H      -1.361476000000000      2.760729000000000      4.493511000000000
H      -1.697337000000000      1.244594000000000      5.375299000000000
H      -0.035088000000000      1.901223000000000      5.332233000000000
C      -8.550521000000000     -1.121483000000000     -1.311808000000000
H      -9.507223000000000     -1.299205000000000     -1.804271000000000
H      -8.345605000000001     -1.981914000000000     -0.665464000000000
H      -8.646298000000000     -0.229950000000000     -0.674458000000000
C      -7.916508000000000     -0.649131000000000     -3.672935000000000
H      -8.964696999999999     -0.916533000000000     -3.811658000000000
H      -7.794589000000000      0.419942000000000     -3.901871000000000
H      -7.328441000000000     -1.222070000000000     -4.397695000000000
C      -0.986578000000000      6.372946000000000      2.263621000000000
H      -0.013562000000000      5.863765000000000      2.328504000000000
H      -1.048188000000000      6.869909000000000      1.288877000000000
H      -1.030244000000000      7.146420000000000      3.031839000000000
C      -2.808401000000000      5.504346000000000      3.710038000000000
H      -2.382006000000000      4.843361000000000      4.482693000000000
H      -2.791415000000000      6.527907000000000      4.087945000000000
H      -3.855629000000000      5.222867000000000      3.563888000000000
C       7.063826000000000      0.371807000000000     -4.767622000000000
H       7.755437000000000      0.761426000000000     -5.516557000000000
H       7.663740000000000     -0.111371000000000     -3.991016000000000
H       6.413977000000000     -0.381169000000000     -5.236866000000000
C       6.046341000000000      2.577372000000000     -5.129112000000000
H       5.148111000000000      2.407244000000000     -5.739820000000000
H       5.931095000000000      3.514083000000000     -4.575963000000000
H       6.910313000000000      2.692815000000000     -5.786126000000000
C       3.772073000000000     -5.400466000000000      3.075106000000000
H       3.749475000000000     -6.379183000000000      3.556284000000000
H       4.721554000000000     -5.300712000000000      2.529456000000000
H       3.754725000000000     -4.642744000000000      3.867000000000000
C       1.932554000000000     -6.483277000000000      1.798154000000000
H       2.311622000000000     -6.893933000000000      0.849716000000000
H       2.052104000000000     -7.239036000000000      2.576093000000000
H       0.861587000000000     -6.285017000000000      1.683678000000000
C       3.174622000000000      4.650334000000000      0.970428000000000
H       2.675612000000000      4.665306000000000     -0.006803000000000
H       3.477992000000000      5.661417000000000      1.242719000000000
H       4.060870000000000      4.008132000000000      0.906573000000000
C      -2.921501000000000     -4.869610000000000      0.321313000000000
H      -3.144077000000000     -5.931679000000000      0.425575000000000
H      -3.850909000000000     -4.292315000000000      0.400411000000000
H      -2.468156000000000     -4.681329000000000     -0.659646000000000
C      -0.666799000000000      0.572216000000000     -4.405150000000000
C       0.729896000000000      0.352653000000000     -4.261345000000000
C       1.416775000000000     -0.847966000000000     -4.842402000000000
O       1.749682000000000     -0.642244000000000     -6.243280000000000
C       2.915236000000000     -0.052716000000000     -6.517918000000000
C       3.075740000000000      0.149980000000000     -8.005357999999999
O       3.732467000000000      0.279612000000000     -5.689407000000000
H      -1.268015000000000     -0.168430000000000     -4.931978000000000
H      -1.051410000000000      1.585587000000000     -4.464517000000000
H       1.386607000000000      1.217367000000000     -4.185192000000000
H       0.757476000000000     -1.719255000000000     -4.857804000000000
H       2.338321000000000     -1.081178000000000     -4.301214000000000
H       2.319371000000000      0.856774000000000     -8.357132999999999
H       2.916005000000000     -0.793474000000000     -8.532140000000000
H       4.072054000000000      0.538081000000000     -8.213842000000000
