109

C      -2.529459000000000     -1.656373000000000      0.894397000000000
C      -1.599494000000000     -0.624644000000000      0.709387000000000
C      -0.498418000000000     -0.481921000000000      1.564695000000000
C      -0.389536000000000     -1.378438000000000      2.651566000000000
C      -1.293558000000000     -2.416196000000000      2.830547000000000
C      -2.361690000000000     -2.555088000000000      1.940909000000000
H      -3.375514000000000     -1.740088000000000      0.225780000000000
H      -1.210654000000000     -3.130479000000000      3.639031000000000
O      -3.199514000000000     -3.594401000000000      2.191620000000000
C       0.502111000000000      0.625787000000000      1.445859000000000
C       0.415519000000000      1.674090000000000      2.394519000000000
C       1.483882000000000      0.722811000000000      0.452848000000000
C       1.232095000000000      2.792190000000000      2.321025000000000
C       2.302677000000000      1.859674000000000      0.364109000000000
C       2.162784000000000      2.889371000000000      1.284132000000000
H       1.152620000000000      3.621485000000000      3.012312000000000
H       3.031578000000000      1.925397000000000     -0.432060000000000
O       2.892938000000000      4.035662000000000      1.260279000000000
P      -1.728980000000000      0.430331000000000     -0.807089000000000
P       1.650198000000000     -0.549351000000000     -0.878909000000000
C       3.326328000000000     -0.234852000000000     -1.557754000000000
C       4.476500000000000     -0.255666000000000     -0.754890000000000
C       3.487867000000000     -0.014840000000000     -2.926728000000000
C       5.732904000000000     -0.045554000000000     -1.298964000000000
H       4.388061000000000     -0.434137000000000      0.313893000000000
C       4.744915000000000      0.177472000000000     -3.487923000000000
H       2.619464000000000     -0.006988000000000     -3.574092000000000
C       5.885193000000000      0.169985000000000     -2.679456000000000
H       6.612507000000000     -0.054392000000000     -0.659813000000000
H       4.827983000000000      0.320725000000000     -4.561678000000000
N       7.146010000000000      0.419678000000000     -3.218243000000000
C       1.971014000000000     -2.088039000000000      0.071432000000000
C       1.800319000000000     -3.324916000000000     -0.557662000000000
C       2.490199000000000     -2.081398000000000      1.370512000000000
C       2.113662000000000     -4.514348000000000      0.085810000000000
H       1.428853000000000     -3.362274000000000     -1.577960000000000
C       2.809537000000000     -3.265228000000000      2.021549000000000
H       2.626185000000000     -1.140728000000000      1.895592000000000
C       2.620284000000000     -4.501656000000000      1.390975000000000
H       1.961812000000000     -5.463414000000000     -0.421676000000000
H       3.209827000000000     -3.236628000000000      3.032668000000000
N       2.879252000000000     -5.692589000000000      2.069754000000000
C      -1.645891000000000      2.109737000000000     -0.088241000000000
C      -2.378112000000000      2.421440000000000      1.065893000000000
C      -0.823867000000000      3.096740000000000     -0.636092000000000
C      -2.303269000000000      3.678806000000000      1.643052000000000
H      -2.999230000000000      1.659981000000000      1.532216000000000
C      -0.725844000000000      4.353291000000000     -0.050437000000000
H      -0.231910000000000      2.864943000000000     -1.516926000000000
C      -1.456344000000000      4.658171000000000      1.103384000000000
H      -2.875497000000000      3.901198000000000      2.540849000000000
H      -0.052531000000000      5.096851000000000     -0.469766000000000
N      -1.291796000000000      5.878377000000000      1.758254000000000
C      -3.492559000000000      0.288889000000000     -1.325245000000000
C      -4.464651000000000      1.263652000000000     -1.072908000000000
C      -3.891355000000000     -0.834026000000000     -2.066162000000000
C      -5.774042000000000      1.114612000000000     -1.513383000000000
H      -4.201619000000000      2.169144000000000     -0.537968000000000
C      -5.200241000000000     -1.003820000000000     -2.491142000000000
H      -3.162403000000000     -1.597039000000000     -2.319804000000000
C      -6.167377000000000     -0.025993000000000     -2.221581000000000
H      -6.504587000000000      1.892164000000000     -1.304857000000000
H      -5.476867000000000     -1.892548000000000     -3.052615000000000
N      -7.491965000000000     -0.207991000000000     -2.610275000000000
H       0.356526000000000      1.095131000000000     -2.479503000000000
O       0.650469000000000     -1.155919000000000      3.495473000000000
O      -0.535250000000000      1.521021000000000      3.350560000000000
Rh     -0.165319000000000     -0.394973000000000     -2.374217000000000
C      -0.770184000000000     -2.240703000000000     -2.281929000000000
O      -1.164309000000000     -3.317303000000000     -2.229102000000000
C       0.818521000000000     -2.048825000000000      4.570852000000000
H       0.967510000000000     -3.075480000000000      4.214109000000000
H       1.709789000000000     -1.714516000000000      5.103742000000000
H      -0.043099000000000     -2.020823000000000      5.249078000000000
C      -0.616160000000000      2.511664000000000      4.347646000000000
H      -0.847006000000000      3.494258000000000      3.917458000000000
H      -1.423642000000000      2.204231000000000      5.013103000000000
H       0.320981000000000      2.578882000000000      4.914067000000000
H      -8.023528000000001      0.646592000000000     -2.713717000000000
H      -7.619183000000000     -0.823847000000000     -3.402839000000000
H      -2.101661000000000      6.191181000000000      2.278262000000000
H      -0.912040000000000      6.618068000000000      1.181545000000000
H       7.219101000000000      0.231362000000000     -4.209817000000000
H       7.914538000000000      0.009674000000000     -2.703534000000000
H       3.582329000000000     -5.617626000000000      2.793697000000000
H       3.052807000000000     -6.487633000000000      1.468291000000000
C       3.829582000000000      4.177895000000000      0.214631000000000
H       3.336699000000000      4.163548000000000     -0.765266000000000
H       4.310208000000000      5.144259000000000      0.367730000000000
H       4.585632000000000      3.383802000000000      0.242014000000000
C      -4.242515000000000     -3.816934000000000      1.267982000000000
H      -4.761452000000000     -4.713254000000000      1.607830000000000
H      -4.945083000000000     -2.975089000000000      1.245393000000000
H      -3.848145000000000     -3.980587000000000      0.257430000000000
C      -1.052256000000000     -0.096426000000000     -4.318972000000000
C       0.328795000000000     -0.362643000000000     -4.483029000000000
C       0.841174000000000     -1.670232000000000     -5.008945000000000
O       1.040669000000000     -1.629626000000000     -6.447307000000000
C       2.137652000000000     -0.989611000000000     -6.862519000000000
C       2.220080000000000     -0.974904000000000     -8.368532999999999
O       2.953455000000000     -0.485809000000000     -6.123992000000000
H      -1.781216000000000     -0.870388000000000     -4.555996000000000
H      -1.425824000000000      0.917421000000000     -4.423361000000000
H       0.982967000000000      0.478958000000000     -4.695857000000000
H       0.111089000000000     -2.470241000000000     -4.862126000000000
H       1.793810000000000     -1.951493000000000     -4.550310000000000
H       1.378363000000000     -0.405042000000000     -8.770981000000001
H       2.145459000000000     -1.993210000000000     -8.756954000000000
H       3.159397000000000     -0.517956000000000     -8.676341000000001
