105

C      -2.136780000000000     -1.938335000000000      0.661298000000000
C      -1.404227000000000     -0.738822000000000      0.665511000000000
C      -0.384334000000000     -0.533959000000000      1.596727000000000
C      -0.196531000000000     -1.498706000000000      2.613316000000000
C      -0.935635000000000     -2.671158000000000      2.633618000000000
C      -1.880462000000000     -2.901868000000000      1.627722000000000
H      -2.888736000000000     -2.103302000000000     -0.099761000000000
H      -0.782959000000000     -3.444976000000000      3.375201000000000
O      -2.504747000000000     -4.107394000000000      1.683995000000000
C       0.546781000000000      0.626266000000000      1.510642000000000
C       0.430182000000000      1.665251000000000      2.462975000000000
C       1.481868000000000      0.764538000000000      0.481371000000000
C       1.175194000000000      2.828132000000000      2.351881000000000
C       2.214554000000000      1.955299000000000      0.345068000000000
C       2.046626000000000      2.978297000000000      1.267995000000000
H       1.081070000000000      3.652085000000000      3.047807000000000
H       2.894690000000000      2.066604000000000     -0.489305000000000
O       2.688577000000000      4.175256000000000      1.203289000000000
P      -1.651026000000000      0.431403000000000     -0.744402000000000
P       1.653373000000000     -0.511568000000000     -0.855743000000000
C       3.391878000000000     -0.281140000000000     -1.409970000000000
C       4.457902000000000     -0.027343000000000     -0.536589000000000
C       3.679001000000000     -0.418391000000000     -2.772081000000000
C       5.758985000000000      0.082878000000000     -1.008812000000000
H       4.276449000000000      0.119296000000000      0.523702000000000
C       4.976012000000000     -0.316039000000000     -3.259753000000000
H       2.876833000000000     -0.602071000000000     -3.476133000000000
C       6.021292000000000     -0.066850000000000     -2.373760000000000
H       6.574436000000000      0.286057000000000     -0.317668000000000
H       5.172977000000000     -0.418256000000000     -4.320862000000000
O       7.276941000000000      0.032770000000000     -2.885287000000000
C       1.770414000000000     -2.079319000000000      0.105615000000000
C       1.046336000000000     -3.199287000000000     -0.301248000000000
C       2.577500000000000     -2.193018000000000      1.246565000000000
C       1.101891000000000     -4.395357000000000      0.409879000000000
H       0.412022000000000     -3.139473000000000     -1.178732000000000
C       2.653731000000000     -3.379853000000000      1.956514000000000
H       3.124841000000000     -1.331096000000000      1.614347000000000
C       1.897262000000000     -4.481669000000000      1.548646000000000
H       0.507416000000000     -5.248844000000000      0.091566000000000
H       3.275588000000000     -3.471084000000000      2.841291000000000
O       1.967234000000000     -5.602569000000000      2.316873000000000
C      -1.659135000000000      2.089824000000000      0.041228000000000
C      -2.408074000000000      2.351309000000000      1.197152000000000
C      -0.919894000000000      3.129300000000000     -0.523441000000000
C      -2.409837000000000      3.608969000000000      1.777502000000000
H      -2.971144000000000      1.554838000000000      1.673831000000000
C      -0.906088000000000      4.395145000000000      0.056670000000000
H      -0.330543000000000      2.937741000000000     -1.415382000000000
C      -1.640383000000000      4.631694000000000      1.215467000000000
H      -2.985789000000000      3.819485000000000      2.672856000000000
H      -0.303414000000000      5.189402000000000     -0.378585000000000
O      -1.639916000000000      5.831690000000000      1.855911000000000
C      -3.427899000000000      0.202196000000000     -1.161659000000000
C      -4.440179000000000      0.003895000000000     -0.208830000000000
C      -3.798086000000000      0.292936000000000     -2.504649000000000
C      -5.769742000000000     -0.103121000000000     -0.583881000000000
H      -4.184427000000000     -0.097877000000000      0.841765000000000
C      -5.131307000000000      0.196629000000000     -2.894567000000000
H      -3.025657000000000      0.442587000000000     -3.253624000000000
C      -6.119479000000000     -0.002859000000000     -1.933827000000000
H      -6.554385000000000     -0.263581000000000      0.147686000000000
H      -5.399858000000000      0.270130000000000     -3.945974000000000
O      -7.436526000000000     -0.115433000000000     -2.245278000000000
H       0.556812000000000      1.295937000000000     -2.312616000000000
O       0.769572000000000     -1.212260000000000      3.518136000000000
O      -0.480119000000000      1.454974000000000      3.444287000000000
Rh     -0.090082000000000     -0.135999000000000     -2.460443000000000
C      -0.987049000000000     -1.851253000000000     -2.720623000000000
O      -1.610389000000000     -2.801958000000000     -2.873166000000000
C       0.943098000000000     -2.113687000000000      4.588092000000000
H       0.024323000000000     -2.201002000000000      5.180662000000000
H       1.239459000000000     -3.107048000000000      4.229911000000000
H       1.738665000000000     -1.697649000000000      5.206714000000000
C      -0.594374000000000      2.441290000000000      4.444676000000000
H      -1.355037000000000      2.081167000000000      5.137735000000000
H       0.355115000000000      2.572898000000000      4.977759000000000
H      -0.909223000000000      3.403278000000000      4.022130000000000
H      -7.546284000000000     -0.024609000000000     -3.202653000000000
H      -1.051202000000000      6.439642000000000      1.386061000000000
H       7.902240000000000      0.188877000000000     -2.163536000000000
H       1.385762000000000     -6.279159000000000      1.941301000000000
C       3.561354000000000      4.377138000000000      0.113339000000000
H       3.977162000000000      5.376970000000000      0.238348000000000
H       4.373953000000000      3.640364000000000      0.109287000000000
H       3.024630000000000      4.318409000000000     -0.841736000000000
C      -3.427830000000000     -4.400352000000000      0.657002000000000
H      -2.945775000000000     -4.375092000000000     -0.328253000000000
H      -3.797608000000000     -5.405529000000000      0.859176000000000
H      -4.267870000000000     -3.695047000000000      0.661197000000000
C      -0.664319000000000      0.584660000000000     -4.408173000000000
C       0.641904000000000      0.033748000000000     -4.473666000000000
C       0.875004000000000     -1.276223000000000     -5.173799000000000
O       1.219500000000000     -1.080866000000000     -6.567399000000000
C       2.488327000000000     -0.731547000000000     -6.806390000000000
C       2.727658000000000     -0.519487000000000     -8.279215000000001
O       3.327603000000000     -0.603059000000000     -5.944744000000000
H      -1.485892000000000      0.027909000000000     -4.858624000000000
H      -0.803837000000000      1.661320000000000     -4.403511000000000
H       1.493173000000000      0.710381000000000     -4.500317000000000
H      -0.043334000000000     -1.868005000000000     -5.206023000000000
H       1.670239000000000     -1.868128000000000     -4.712201000000000
H       2.112469000000000      0.313174000000000     -8.630305000000000
H       2.428429000000000     -1.409839000000000     -8.837111999999999
H       3.781215000000000     -0.301890000000000     -8.447355000000000
