117

C       2.253840000000000      1.862675000000000      0.687823000000000
C       1.510684000000000      0.668661000000000      0.719594000000000
C       0.476941000000000      0.501834000000000      1.643888000000000
C       0.286986000000000      1.505170000000000      2.626390000000000
C       1.041258000000000      2.667780000000000      2.622410000000000
C       1.995439000000000      2.860129000000000      1.618433000000000
H       3.013929000000000      1.997365000000000     -0.071587000000000
H       0.890559000000000      3.462246000000000      3.342608000000000
O       2.621222000000000      4.067561000000000      1.638496000000000
C      -0.488088000000000     -0.636881000000000      1.625651000000000
C      -0.417694000000000     -1.593496000000000      2.663201000000000
C      -1.489401000000000     -0.773525000000000      0.656975000000000
C      -1.286727000000000     -2.674039000000000      2.706284000000000
C      -2.376795000000000     -1.859441000000000      0.701809000000000
C      -2.252292000000000     -2.810936000000000      1.706998000000000
H      -1.233113000000000     -3.435868000000000      3.474160000000000
H      -3.158536000000000     -1.944002000000000     -0.039347000000000
O      -3.026536000000000     -3.927676000000000      1.799731000000000
P       1.760133000000000     -0.534840000000000     -0.664632000000000
P      -1.555339000000000      0.407905000000000     -0.776752000000000
C      -3.177597000000000      0.114486000000000     -1.574549000000000
C      -4.157122000000000      1.102947000000000     -1.659558000000000
C      -3.378836000000000     -1.076372000000000     -2.296828000000000
C      -5.292441000000000      0.933018000000000     -2.451868000000000
H      -4.031665000000000      2.039127000000000     -1.124410000000000
C      -4.515856000000000     -1.271240000000000     -3.056859000000000
H      -2.608818000000000     -1.844414000000000     -2.285012000000000
C      -5.466182000000000     -0.249533000000000     -3.166309000000000
H      -6.013211000000000      1.738795000000000     -2.523865000000000
H      -4.664896000000000     -2.178305000000000     -3.633082000000000
O      -6.504518000000000     -0.493024000000000     -4.002413000000000
C      -1.778675000000000      1.996225000000000      0.108689000000000
C      -1.013740000000000      3.105877000000000     -0.237705000000000
C      -2.644244000000000      2.098315000000000      1.209840000000000
C      -1.051329000000000      4.281111000000000      0.511605000000000
H      -0.340415000000000      3.049089000000000     -1.085835000000000
C      -2.702423000000000      3.260446000000000      1.957192000000000
H      -3.249615000000000      1.243266000000000      1.500786000000000
C      -1.871029000000000      4.342659000000000      1.636732000000000
H      -0.405114000000000      5.106526000000000      0.237891000000000
H      -3.348636000000000      3.344720000000000      2.825222000000000
O      -1.909485000000000      5.392037000000000      2.498970000000000
C       1.685899000000000     -2.164751000000000      0.173692000000000
C       2.456969000000000     -2.439347000000000      1.312539000000000
C       0.787367000000000     -3.134669000000000     -0.265879000000000
C       2.294979000000000     -3.622350000000000      2.011090000000000
H       3.162360000000000     -1.704590000000000      1.687147000000000
C       0.600423000000000     -4.323462000000000      0.436092000000000
H       0.187300000000000     -2.939293000000000     -1.148814000000000
C       1.328985000000000     -4.550036000000000      1.602842000000000
H       2.870825000000000     -3.834224000000000      2.906379000000000
H      -0.143727000000000     -5.031854000000000      0.091293000000000
O       1.149588000000000     -5.618989000000000      2.421840000000000
C       3.538513000000000     -0.346698000000000     -1.079703000000000
C       4.561187000000000     -0.140282000000000     -0.137592000000000
C       3.894693000000000     -0.455101000000000     -2.423352000000000
C       5.884284000000000     -0.055235000000000     -0.530736000000000
H       4.315970000000000     -0.011630000000000      0.912812000000000
C       5.226087000000000     -0.381416000000000     -2.835391000000000
H       3.109686000000000     -0.595495000000000     -3.163728000000000
C       6.226031000000000     -0.181630000000000     -1.884630000000000
H       6.680498000000000      0.110809000000000      0.187202000000000
H       5.461886000000000     -0.471482000000000     -3.888985000000000
O       7.548405000000000     -0.085316000000000     -2.167793000000000
H      -0.380528000000000     -1.398656000000000     -2.255272000000000
O      -0.689469000000000      1.260973000000000      3.532461000000000
O       0.558850000000000     -1.391160000000000      3.579740000000000
Rh      0.193612000000000      0.068747000000000     -2.341091000000000
C       1.101530000000000      1.775771000000000     -2.574028000000000
O       1.750409000000000      2.708455000000000     -2.736945000000000
C      -0.874374000000000      2.205676000000000      4.562137000000000
H      -1.683786000000000      1.819318000000000      5.182133000000000
H       0.034441000000000      2.309248000000000      5.167615000000000
H      -1.158437000000000      3.186873000000000      4.162028000000000
C       0.648386000000000     -2.309440000000000      4.645052000000000
H       1.488706000000000     -1.980316000000000      5.256860000000000
H      -0.268296000000000     -2.304021000000000      5.247561000000000
H       0.837046000000000     -3.326886000000000      4.280357000000000
C       7.935268000000000     -0.207521000000000     -3.518853000000000
H       7.650890000000000     -1.184616000000000     -3.927131000000000
H       7.489536000000000      0.583621000000000     -4.133627000000000
H       9.020515000000000     -0.110037000000000     -3.533020000000000
C       0.048823000000000     -6.460254000000000      2.143937000000000
H       0.007431000000000     -7.183227000000000      2.958589000000000
H      -0.886244000000000     -5.886483000000000      2.107541000000000
H       0.183767000000000     -6.993191000000000      1.195148000000000
C      -7.245500000000000      0.627225000000000     -4.437674000000000
H      -7.847967000000000      1.053356000000000     -3.625979000000000
H      -6.574650000000000      1.392836000000000     -4.843151000000000
H      -7.911970000000000      0.264192000000000     -5.220584000000000
C      -0.967953000000000      6.424775000000000      2.293558000000000
H      -1.154619000000000      6.952594000000000      1.350808000000000
H      -1.091971000000000      7.117967000000000      3.125313000000000
H       0.055692000000000      6.029174000000000      2.288459000000000
C      -3.996806000000000     -4.122541000000000      0.793345000000000
H      -3.533592000000000     -4.178246000000000     -0.199872000000000
H      -4.486288000000000     -5.069039000000000      1.022609000000000
H      -4.740404000000000     -3.317100000000000      0.793405000000000
C       3.554840000000000      4.321764000000000      0.609761000000000
H       3.082367000000000      4.259045000000000     -0.378206000000000
H       3.923156000000000      5.333764000000000      0.777689000000000
H       4.394003000000000      3.616696000000000      0.649627000000000
C       0.528749000000000     -0.421908000000000     -4.427388000000000
C      -0.794611000000000      0.054021000000000     -4.233161000000000
C      -1.229840000000000      1.413110000000000     -4.701113000000000
O      -1.723445000000000      1.362787000000000     -6.062901000000000
C      -3.033401000000000      1.136823000000000     -6.225701000000000
C      -3.382213000000000      1.051626000000000     -7.691183000000000
O      -3.826060000000000      1.017579000000000     -5.321331000000000
H       1.258350000000000      0.226104000000000     -4.912073000000000
H       0.709412000000000     -1.483226000000000     -4.563914000000000
H      -1.611082000000000     -0.665424000000000     -4.201902000000000
H      -0.384832000000000      2.105627000000000     -4.745529000000000
H      -2.018816000000000      1.823927000000000     -4.065332000000000
H      -2.862985000000000      0.200097000000000     -8.138621000000001
H      -3.044857000000000      1.952827000000000     -8.208517000000001
H      -4.458936000000000      0.930448000000000     -7.801073000000000
