117

C      -2.285740000000000     -1.793460000000000      0.483939000000000
C      -1.453692000000000     -0.671822000000000      0.648120000000000
C      -0.448279000000000     -0.670890000000000      1.617508000000000
C      -0.379157000000000     -1.760406000000000      2.517538000000000
C      -1.220838000000000     -2.853956000000000      2.384730000000000
C      -2.142873000000000     -2.882019000000000      1.334074000000000
H      -3.021601000000000     -1.803564000000000     -0.310282000000000
H      -1.154523000000000     -3.721187000000000      3.031004000000000
O      -2.856675000000000     -4.035332000000000      1.221926000000000
C       0.586830000000000      0.398780000000000      1.695306000000000
C       0.544495000000000      1.309049000000000      2.777825000000000
C       1.562808000000000      0.576764000000000      0.710220000000000
C       1.405210000000000      2.393496000000000      2.837978000000000
C       2.409845000000000      1.697242000000000      0.745923000000000
C       2.313807000000000      2.599909000000000      1.795816000000000
H       1.367431000000000      3.124352000000000      3.637011000000000
H       3.120658000000000      1.852296000000000     -0.055400000000000
O       3.060238000000000      3.734121000000000      1.897267000000000
P      -1.558384000000000      0.676307000000000     -0.614409000000000
P       1.655565000000000     -0.524009000000000     -0.782517000000000
C       3.423470000000000     -0.389460000000000     -1.271384000000000
C       4.490622000000000     -0.345092000000000     -0.358448000000000
C       3.726789000000000     -0.376914000000000     -2.630860000000000
C       5.802055000000000     -0.289811000000000     -0.799446000000000
H       4.298095000000000     -0.320096000000000      0.709815000000000
C       5.043274000000000     -0.326175000000000     -3.088137000000000
H       2.929170000000000     -0.395985000000000     -3.363145000000000
C       6.092874000000000     -0.281700000000000     -2.173329000000000
H       6.613628000000000     -0.250906000000000     -0.077789000000000
H       5.206885000000000     -0.308895000000000     -4.158736000000000
S       7.801488000000000     -0.199550000000000     -2.623570000000000
C       1.596235000000000     -2.207911000000000     -0.033297000000000
C       0.747259000000000     -3.170463000000000     -0.574990000000000
C       2.355261000000000     -2.554196000000000      1.092544000000000
C       0.605500000000000     -4.426742000000000      0.010122000000000
H       0.160263000000000     -2.933589000000000     -1.455264000000000
C       2.226433000000000     -3.802430000000000      1.679693000000000
H       3.010005000000000     -1.824554000000000      1.557887000000000
C       1.319192000000000     -4.739041000000000      1.165514000000000
H      -0.090136000000000     -5.135932000000000     -0.425137000000000
H       2.798198000000000     -4.040849000000000      2.572834000000000
S       1.107970000000000     -6.245904000000000      2.072092000000000
C      -1.438591000000000      2.219588000000000      0.374722000000000
C      -2.190801000000000      2.406896000000000      1.541732000000000
C      -0.559627000000000      3.226422000000000     -0.020367000000000
C      -2.023258000000000      3.543180000000000      2.316173000000000
H      -2.872196000000000      1.634714000000000      1.885172000000000
C      -0.383714000000000      4.370892000000000      0.754307000000000
H       0.022018000000000      3.097296000000000     -0.928237000000000
C      -1.087207000000000      4.519959000000000      1.948408000000000
H      -2.587297000000000      3.657655000000000      3.238216000000000
H       0.333250000000000      5.119018000000000      0.433722000000000
S      -0.831005000000000      5.860177000000000      3.077380000000000
C      -3.338394000000000      0.665006000000000     -1.081925000000000
C      -4.388568000000000      0.430836000000000     -0.180033000000000
C      -3.664041000000000      0.966666000000000     -2.403602000000000
C      -5.708912000000000      0.493879000000000     -0.592828000000000
H      -4.173753000000000      0.167022000000000      0.851386000000000
C      -4.990773000000000      1.040994000000000     -2.827454000000000
H      -2.861804000000000      1.147094000000000     -3.113960000000000
C      -6.026169000000000      0.802701000000000     -1.924681000000000
H      -6.507817000000000      0.303156000000000      0.118540000000000
H      -5.197011000000000      1.279039000000000     -3.864662000000000
S      -7.745420000000000      0.850347000000000     -2.335101000000000
H       0.763097000000000      1.539856000000000     -2.008866000000000
O       0.580849000000000     -1.674170000000000      3.467029000000000
O      -0.411024000000000      1.067290000000000      3.706100000000000
Rh      0.000355000000000      0.205597000000000     -2.360678000000000
C      -1.038161000000000     -1.368914000000000     -2.874148000000000
O      -1.743275000000000     -2.223105000000000     -3.171018000000000
C       0.629117000000000     -2.699147000000000      4.435640000000000
H       0.829452000000000     -3.675733000000000      3.978151000000000
H       1.444414000000000     -2.437172000000000      5.110287000000000
H      -0.311345000000000     -2.750302000000000      4.997581000000000
C      -0.443553000000000      1.909652000000000      4.837160000000000
H       0.498318000000000      1.851507000000000      5.396103000000000
H      -0.631836000000000      2.952987000000000      4.555239000000000
H      -1.260897000000000      1.545644000000000      5.460091000000000
C      -7.717786000000000      1.284166000000000     -4.090049000000000
H      -7.209527000000000      0.519642000000000     -4.681615000000000
H      -8.762157999999999      1.336491000000000     -4.402138000000000
H      -7.251180000000000      2.258388000000000     -4.250956000000000
C       0.781665000000000      6.491218000000000      2.541292000000000
H       0.706083000000000      7.041643000000000      1.601260000000000
H       1.113460000000000      7.177102000000000      3.322822000000000
H       1.502055000000000      5.673525000000000      2.445006000000000
C       7.723959000000000     -0.232027000000000     -4.430406000000000
H       7.263666000000000     -1.154757000000000     -4.789496000000000
H       7.181041000000000      0.631181000000000     -4.820819000000000
H       8.758058000000000     -0.190483000000000     -4.776645000000000
C      -0.489223000000000     -6.831238000000000      1.445237000000000
H      -0.797780000000000     -7.640273000000000      2.109752000000000
H      -1.232722000000000     -6.029392000000000      1.478410000000000
H      -0.403376000000000     -7.224963000000000      0.430408000000000
C       3.960279000000000      4.009135000000000      0.844044000000000
H       4.710958000000000      3.216269000000000      0.744320000000000
H       3.430164000000000      4.121346000000000     -0.109802000000000
H       4.452366000000000      4.946527000000000      1.102867000000000
C      -3.733212000000000     -4.144723000000000      0.119381000000000
H      -4.170536000000000     -5.141284000000000      0.177559000000000
H      -4.530020000000000     -3.393058000000000      0.168085000000000
H      -3.191832000000000     -4.032071000000000     -0.828137000000000
C      -0.447773000000000      1.228341000000000     -4.203241000000000
C       0.809602000000000      0.580073000000000     -4.316220000000000
C       0.957260000000000     -0.637221000000000     -5.186116000000000
O       1.363143000000000     -0.281736000000000     -6.531344000000000
C       2.663058000000000     -0.021299000000000     -6.698183000000000
C       2.961639000000000      0.374805000000000     -8.121305000000000
O       3.487352000000000     -0.094047000000000     -5.814721000000000
H      -1.298076000000000      0.810708000000000     -4.742002000000000
H      -0.497594000000000      2.302445000000000     -4.053610000000000
H       1.714518000000000      1.177863000000000     -4.230892000000000
H      -0.004872000000000     -1.137658000000000     -5.321188000000000
H       1.685173000000000     -1.353635000000000     -4.795626000000000
H       2.436894000000000      1.304606000000000     -8.356125000000000
H       2.595666000000000     -0.393245000000000     -8.806528999999999
H       4.035042000000000      0.511939000000000     -8.242533000000000
