117

C       1.996434000000000      2.410975000000000      0.382538000000000
C       1.424843000000000      1.135444000000000      0.531231000000000
C       0.436927000000000      0.899250000000000      1.489446000000000
C       0.122124000000000      1.943146000000000      2.394467000000000
C       0.715138000000000      3.190746000000000      2.285823000000000
C       1.627094000000000      3.432077000000000      1.251043000000000
H       2.718807000000000      2.591573000000000     -0.403588000000000
H       0.476151000000000      4.011525000000000      2.950184000000000
O       2.095969000000000      4.699334000000000      1.178837000000000
C      -0.340771000000000     -0.370723000000000      1.577518000000000
C      -0.117256000000000     -1.220383000000000      2.685270000000000
C      -1.287813000000000     -0.761828000000000      0.622587000000000
C      -0.775208000000000     -2.434663000000000      2.802970000000000
C      -1.942671000000000     -1.996541000000000      0.725017000000000
C      -1.665905000000000     -2.834913000000000      1.801223000000000
H      -0.604290000000000     -3.112988000000000      3.629372000000000
H      -2.660857000000000     -2.294693000000000     -0.026408000000000
O      -2.202374000000000     -4.065856000000000      1.966331000000000
P       1.808666000000000     -0.144669000000000     -0.737816000000000
P      -1.568371000000000      0.281937000000000     -0.884664000000000
C      -3.226619000000000     -0.244900000000000     -1.497538000000000
C      -3.294604000000000     -1.400110000000000     -2.294123000000000
C      -4.398961000000000      0.477135000000000     -1.285106000000000
C      -4.501166000000000     -1.837404000000000     -2.828413000000000
H      -2.385206000000000     -1.959566000000000     -2.504409000000000
C      -5.613974000000000      0.042907000000000     -1.831218000000000
H      -4.414947000000000      1.395017000000000     -0.706972000000000
C      -5.671488000000000     -1.115469000000000     -2.593772000000000
C      -4.538707000000000     -3.049409000000000     -3.691654000000000
C      -6.842442000000000      0.843386000000000     -1.592744000000000
H      -6.603529000000000     -1.465248000000000     -3.031877000000000
C      -1.935501000000000      1.907844000000000     -0.099510000000000
C      -2.747215000000000      1.995827000000000      1.032828000000000
C      -1.359649000000000      3.077605000000000     -0.601920000000000
C      -3.007358000000000      3.235811000000000      1.625568000000000
H      -3.180911000000000      1.107676000000000      1.488066000000000
C      -1.587539000000000      4.310341000000000      0.007313000000000
H      -0.702742000000000      3.029426000000000     -1.465642000000000
C      -2.426618000000000      4.393494000000000      1.118146000000000
C      -3.866254000000000      3.301134000000000      2.836026000000000
C      -0.893037000000000      5.522105000000000     -0.495638000000000
H      -2.596914000000000      5.364492000000000      1.578930000000000
C       2.012006000000000     -1.679108000000000      0.268572000000000
C       2.842996000000000     -1.702252000000000      1.396258000000000
C       1.286589000000000     -2.822540000000000     -0.047934000000000
C       2.934493000000000     -2.841779000000000      2.190295000000000
H       3.399252000000000     -0.814549000000000      1.690371000000000
C       1.355884000000000     -3.962154000000000      0.763162000000000
H       0.619169000000000     -2.835036000000000     -0.903887000000000
C       2.179166000000000     -3.976972000000000      1.880685000000000
C       3.793343000000000     -2.826179000000000      3.399991000000000
C       0.463732000000000     -5.111140000000000      0.468029000000000
H       2.238630000000000     -4.844781000000000      2.534348000000000
C       3.559272000000000      0.208869000000000     -1.204015000000000
C       3.931997000000000     -0.080530000000000     -2.523170000000000
C       4.528900000000000      0.709204000000000     -0.334828000000000
C       5.242715000000000      0.108954000000000     -2.957529000000000
H       3.175303000000000     -0.450325000000000     -3.214562000000000
C       5.843009000000000      0.912810000000000     -0.771612000000000
H       4.289530000000000      0.984395000000000      0.689261000000000
C       6.204752000000000      0.608128000000000     -2.078801000000000
C       5.613911000000000     -0.202943000000000     -4.362775000000000
C       6.843133000000000      1.473245000000000      0.174615000000000
H       7.220155000000000      0.759757000000000     -2.438454000000000
H      -0.142519000000000     -1.533343000000000     -2.118648000000000
O      -0.817768000000000      1.643625000000000      3.319190000000000
O       0.802469000000000     -0.783807000000000      3.579170000000000
Rh      0.191297000000000     -0.031637000000000     -2.449940000000000
C       0.741794000000000      1.771267000000000     -2.974191000000000
O       1.176197000000000      2.784487000000000     -3.286547000000000
C      -1.060526000000000      2.587357000000000      4.340231000000000
H      -1.424520000000000      3.537091000000000      3.927609000000000
H      -1.832777000000000      2.152705000000000      4.973666000000000
H      -0.150052000000000      2.776053000000000      4.920747000000000
C       0.960018000000000     -1.530360000000000      4.768347000000000
H       0.014752000000000     -1.590740000000000      5.319788000000000
H       1.324996000000000     -2.543990000000000      4.562768000000000
H       1.700095000000000     -0.995847000000000      5.364195000000000
O       6.727770000000000     -0.058333000000000     -4.804484000000000
H       4.787208000000000     -0.584129000000000     -4.996601000000000
O       6.580779000000000      1.793906000000000      1.309128000000000
H       7.868078000000000      1.586476000000000     -0.232240000000000
O       3.846227000000000     -3.734657000000000      4.195473000000000
H       4.389998000000000     -1.902109000000000      3.544011000000000
O      -0.328648000000000     -5.125677000000000     -0.446098000000000
H       0.552591000000000     -5.972262000000000      1.159955000000000
O      -6.862919000000000      1.869515000000000     -0.956106000000000
H      -7.766487000000000      0.432128000000000     -2.047781000000000
O      -5.561976000000000     -3.523643000000000     -4.120636000000000
H      -3.551502000000000     -3.501324000000000     -3.911554000000000
O      -4.298534000000000      2.328645000000000      3.406692000000000
H      -4.080041000000000      4.325760000000000      3.205307000000000
O      -1.028333000000000      6.620919000000000     -0.014645000000000
H      -0.216997000000000      5.350182000000000     -1.359755000000000
C      -3.115697000000000     -4.519745000000000      0.982857000000000
H      -2.631854000000000     -4.583949000000000      0.002638000000000
H      -3.425593000000000     -5.514428000000000      1.301252000000000
H      -3.991581000000000     -3.862842000000000      0.929812000000000
C       3.059440000000000      4.984106000000000      0.184992000000000
H       3.311186000000000      6.037076000000000      0.303120000000000
H       3.958957000000000      4.371291000000000      0.321350000000000
H       2.654405000000000      4.815450000000000     -0.820583000000000
C       0.797313000000000     -0.775945000000000     -4.394828000000000
C      -0.611053000000000     -0.640343000000000     -4.347869000000000
C      -1.351903000000000      0.440341000000000     -5.080678000000000
O      -1.721212000000000      0.021489000000000     -6.415244000000000
C      -2.742551000000000     -0.841938000000000     -6.492910000000000
C      -3.038640000000000     -1.215593000000000     -7.921080000000000
O      -3.340468000000000     -1.259840000000000     -5.527464000000000
H       1.383088000000000     -0.051705000000000     -4.960671000000000
H       1.243132000000000     -1.763763000000000     -4.325597000000000
H      -1.198582000000000     -1.544849000000000     -4.222383000000000
H      -0.723787000000000      1.320544000000000     -5.239326000000000
H      -2.264508000000000      0.727337000000000     -4.549100000000000
H      -2.164364000000000     -1.704403000000000     -8.358707000000001
H      -3.240893000000000     -0.315138000000000     -8.505855000000000
H      -3.895964000000000     -1.886235000000000     -7.948152000000000
