125

C       2.470992000000000      2.287055000000000      0.076267000000000
C       1.718611000000000      1.149090000000000      0.412335000000000
C       0.664981000000000      1.225148000000000      1.326129000000000
C       0.432627000000000      2.470372000000000      1.963248000000000
C       1.207954000000000      3.586062000000000      1.679365000000000
C       2.207951000000000      3.494843000000000      0.708050000000000
H       3.234809000000000      2.221293000000000     -0.687136000000000
H       1.035472000000000      4.548537000000000      2.145648000000000
O       2.854707000000000      4.657507000000000      0.424354000000000
C      -0.231655000000000      0.092047000000000      1.718152000000000
C      -0.028344000000000     -0.450394000000000      3.009848000000000
C      -1.298532000000000     -0.400985000000000      0.956574000000000
C      -0.857091000000000     -1.435096000000000      3.525003000000000
C      -2.155872000000000     -1.377338000000000      1.484927000000000
C      -1.926154000000000     -1.898072000000000      2.754284000000000
H      -0.704770000000000     -1.879286000000000      4.500256000000000
H      -3.011949000000000     -1.713915000000000      0.921249000000000
O      -2.677053000000000     -2.869121000000000      3.320875000000000
P       1.919263000000000     -0.352505000000000     -0.633030000000000
P      -1.519958000000000      0.208810000000000     -0.784100000000000
C      -2.995482000000000     -0.683483000000000     -1.424887000000000
C      -3.976964000000000      0.005392000000000     -2.140494000000000
C      -3.057697000000000     -2.082626000000000     -1.381538000000000
C      -5.011168000000000     -0.684712000000000     -2.774674000000000
H      -3.939506000000000      1.086154000000000     -2.234501000000000
C      -4.125426000000000     -2.763008000000000     -1.968524000000000
H      -2.281073000000000     -2.662246000000000     -0.887233000000000
C      -5.102187000000000     -2.066678000000000     -2.681740000000000
C      -6.029773000000000      0.023069000000000     -3.600311000000000
C      -4.210895000000000     -4.235312000000000     -1.790545000000000
H      -5.921670000000000     -2.580896000000000     -3.171055000000000
C      -2.173023000000000      1.883919000000000     -0.379807000000000
C      -1.333917000000000      2.981075000000000     -0.561665000000000
C      -3.386319000000000      2.062759000000000      0.289680000000000
C      -1.678229000000000      4.229554000000000     -0.038808000000000
H      -0.368110000000000      2.859033000000000     -1.043952000000000
C      -3.754410000000000      3.321297000000000      0.763282000000000
H      -4.056510000000000      1.226306000000000      0.473034000000000
C      -2.889410000000000      4.406625000000000      0.622454000000000
C      -0.688041000000000      5.341515000000000     -0.025696000000000
C      -5.063127000000000      3.440843000000000      1.462708000000000
H      -3.136235000000000      5.376859000000000      1.040797000000000
C       1.885411000000000     -1.729253000000000      0.587297000000000
C       2.706020000000000     -1.775217000000000      1.712877000000000
C       0.900951000000000     -2.702850000000000      0.432025000000000
C       2.520506000000000     -2.774118000000000      2.673685000000000
H       3.475577000000000     -1.030551000000000      1.894964000000000
C       0.685881000000000     -3.670433000000000      1.408600000000000
H       0.255900000000000     -2.673938000000000     -0.437135000000000
C       1.494110000000000     -3.710645000000000      2.541619000000000
C       3.413840000000000     -2.749071000000000      3.862004000000000
C      -0.491667000000000     -4.580046000000000      1.292893000000000
H       1.306000000000000     -4.452289000000000      3.311047000000000
C       3.683383000000000     -0.315221000000000     -1.156573000000000
C       4.739640000000000      0.155476000000000     -0.370723000000000
C       3.960812000000000     -0.799865000000000     -2.435724000000000
C       6.045940000000000      0.136514000000000     -0.859679000000000
H       4.569687000000000      0.575705000000000      0.617145000000000
C       5.271842000000000     -0.840545000000000     -2.913644000000000
H       3.150136000000000     -1.139900000000000     -3.076789000000000
C       6.323090000000000     -0.374140000000000     -2.128191000000000
C       7.111106000000000      0.717838000000000      0.003878000000000
C       5.487588000000000     -1.367695000000000     -4.290149000000000
H       7.339970000000000     -0.390418000000000     -2.502989000000000
H      -0.170094000000000     -1.650027000000000     -1.993772000000000
O      -0.615568000000000      2.502807000000000      2.815545000000000
O       1.045163000000000      0.037554000000000      3.676661000000000
Rh      0.252787000000000     -0.166314000000000     -2.299341000000000
C       0.950561000000000      1.593943000000000     -2.823695000000000
O       1.460294000000000      2.565841000000000     -3.148863000000000
C      -0.879955000000000      3.718534000000000      3.488894000000000
H      -1.772035000000000      3.537911000000000      4.088148000000000
H      -0.043996000000000      3.991757000000000      4.143585000000000
H      -1.070425000000000      4.535555000000000      2.783039000000000
C       1.286042000000000     -0.449078000000000      4.978845000000000
H       1.403365000000000     -1.540066000000000      4.982282000000000
H       2.215589000000000      0.015801000000000      5.306134000000000
H       0.468061000000000     -0.177351000000000      5.656709000000000
O       6.904025000000000      1.317470000000000      1.030598000000000
O       8.347961000000000      0.519781000000000     -0.486522000000000
H       8.962268000000000      0.939680000000000      0.140759000000000
O       4.606959000000000     -1.744657000000000     -5.023483000000000
O       6.785563000000000     -1.380676000000000     -4.646082000000000
H       6.817172000000000     -1.737050000000000     -5.551095000000000
O       4.306252000000000     -1.954246000000000      4.036858000000000
O       3.115385000000000     -3.706283000000000      4.762956000000000
H       3.755460000000000     -3.605483000000000      5.488982000000000
O      -0.891151000000000     -5.303019000000000      2.173129000000000
O      -1.076813000000000     -4.467581000000000      0.090881000000000
H      -1.903830000000000     -4.986214000000000      0.043086000000000
O      -3.538725000000000     -4.891350000000000     -1.019729000000000
O      -5.145000000000000     -4.805364000000000     -2.561088000000000
H      -5.136477000000000     -5.756576000000000     -2.354588000000000
O      -6.926022000000000     -0.526524000000000     -4.192126000000000
O      -5.863684000000000      1.356236000000000     -3.602782000000000
H      -6.551679000000000      1.713719000000000     -4.189769000000000
O      -0.738573000000000      6.276975000000000      0.739526000000000
O       0.305931000000000      5.167873000000000     -0.908932000000000
H       1.014998000000000      5.794101000000000     -0.673111000000000
O      -5.842450000000000      2.532594000000000      1.617124000000000
O      -5.299091000000000      4.685367000000000      1.918531000000000
H      -6.169555000000000      4.656648000000000      2.352470000000000
C      -3.674207000000000     -3.474274000000000      2.523200000000000
H      -4.488026000000000     -2.771542000000000      2.306133000000000
H      -3.257495000000000     -3.846654000000000      1.579801000000000
H      -4.056491000000000     -4.312134000000000      3.104534000000000
C       3.931652000000000      4.585796000000000     -0.492352000000000
H       4.693717000000000      3.877090000000000     -0.147112000000000
H       3.581124000000000      4.290537000000000     -1.488782000000000
H       4.358510000000000      5.587567000000000     -0.535065000000000
C       0.591835000000000     -0.992357000000000     -4.280361000000000
C      -0.749865000000000     -0.557675000000000     -4.155821000000000
C      -1.231549000000000      0.679543000000000     -4.861969000000000
O      -1.738390000000000      0.362701000000000     -6.178499000000000
C      -3.027053000000000      0.005897000000000     -6.250183000000000
C      -3.415460000000000     -0.351145000000000     -7.661273000000000
O      -3.773043000000000     -0.022515000000000     -5.299121000000000
H       1.290741000000000     -0.404897000000000     -4.873813000000000
H       0.832578000000000     -2.048385000000000     -4.219556000000000
H      -1.533027000000000     -1.294616000000000     -3.978039000000000
H      -0.405614000000000      1.370007000000000     -5.050567000000000
H      -2.021210000000000      1.190589000000000     -4.304213000000000
H      -2.837362000000000     -1.219709000000000     -7.987263000000000
H      -3.176345000000000      0.475760000000000     -8.334069000000000
H      -4.480243000000000     -0.576359000000000     -7.696651000000000
