165

C      -2.196758000000000     -1.984788000000000      1.005352000000000
C      -1.453333000000000     -0.811868000000000      0.811105000000000
C      -0.417691000000000     -0.469952000000000      1.691999000000000
C      -0.181425000000000     -1.316597000000000      2.801594000000000
C      -0.910602000000000     -2.483991000000000      2.991455000000000
C      -1.903547000000000     -2.824074000000000      2.073047000000000
H      -3.001040000000000     -2.227079000000000      0.324729000000000
H      -0.727169000000000     -3.152994000000000      3.822325000000000
O      -2.541370000000000     -4.007639000000000      2.302845000000000
C       0.438933000000000      0.750929000000000      1.565214000000000
C       0.255405000000000      1.784726000000000      2.514112000000000
C       1.444047000000000      0.914943000000000      0.602795000000000
C       1.007825000000000      2.950785000000000      2.470017000000000
C       2.214484000000000      2.085332000000000      0.562888000000000
C       1.973533000000000      3.103614000000000      1.475213000000000
H       0.870000000000000      3.759504000000000      3.175746000000000
H       2.993106000000000      2.187441000000000     -0.179869000000000
O       2.635435000000000      4.295449000000000      1.475940000000000
P      -1.755032000000000      0.201950000000000     -0.719823000000000
P       1.680333000000000     -0.358667000000000     -0.727378000000000
C       3.339210000000000     -0.001052000000000     -1.437348000000000
C       4.413651000000000     -0.874117000000000     -1.263051000000000
C       3.454805000000000      1.115962000000000     -2.262891000000000
C       5.628693000000000     -0.611741000000000     -1.910841000000000
H       4.291672000000000     -1.760935000000000     -0.657758000000000
C       4.677946000000000      1.417746000000000     -2.890445000000000
H       2.578713000000000      1.729816000000000     -2.432908000000000
C       5.750262000000000      0.531158000000000     -2.708013000000000
N       6.748752000000000     -1.455132000000000     -1.739873000000000
N       4.831108000000000      2.572413000000000     -3.645584000000000
H       6.709158000000000      0.745915000000000     -3.161146000000000
C       1.951217000000000     -1.847429000000000      0.318654000000000
C       1.190376000000000     -2.983184000000000      0.094590000000000
C       2.825593000000000     -1.768507000000000      1.407372000000000
C       1.232406000000000     -4.061481000000000      1.003611000000000
H       0.493616000000000     -2.994918000000000     -0.730174000000000
C       2.902793000000000     -2.834984000000000      2.303494000000000
H       3.401442000000000     -0.863174000000000      1.561185000000000
C       2.094194000000000     -3.963304000000000      2.105089000000000
N       0.398956000000000     -5.154547000000000      0.837983000000000
N       3.717433000000000     -2.783934000000000      3.461472000000000
H       2.110902000000000     -4.743058000000000      2.857762000000000
C      -1.965155000000000      1.861268000000000      0.047956000000000
C      -2.748542000000000      1.970085000000000      1.194655000000000
C      -1.250992000000000      2.944806000000000     -0.446074000000000
C      -2.809113000000000      3.193104000000000      1.882123000000000
H      -3.265804000000000      1.095942000000000      1.571522000000000
C      -1.255853000000000      4.164174000000000      0.256360000000000
H      -0.630867000000000      2.804275000000000     -1.319329000000000
C      -2.047715000000000      4.277257000000000      1.411813000000000
N      -3.569705000000000      3.307346000000000      3.033510000000000
N      -0.456238000000000      5.219483000000000     -0.164638000000000
H      -2.042888000000000      5.201721000000000      1.972686000000000
C      -3.470271000000000     -0.268756000000000     -1.221465000000000
C      -4.563334000000000      0.572829000000000     -1.016640000000000
C      -3.634395000000000     -1.490432000000000     -1.871626000000000
C      -5.842296000000000      0.172661000000000     -1.429840000000000
H      -4.411052000000000      1.540905000000000     -0.563354000000000
C      -4.913739000000000     -1.928426000000000     -2.263250000000000
H      -2.767151000000000     -2.106619000000000     -2.065540000000000
C      -6.006313000000000     -1.078612000000000     -2.037659000000000
N      -6.969415000000000      0.986848000000000     -1.202029000000000
N      -5.084520000000000     -3.181520000000000     -2.842478000000000
H      -7.003447000000000     -1.399525000000000     -2.306961000000000
H       0.295571000000000      1.323101000000000     -2.123092000000000
O       0.793961000000000     -0.918583000000000      3.656008000000000
O      -0.695849000000000      1.566975000000000      3.459474000000000
Rh     -0.035078000000000     -0.208511000000000     -2.320903000000000
C      -0.402004000000000     -2.064543000000000     -2.722021000000000
O      -0.639630000000000     -3.144888000000000     -3.039219000000000
C       0.974432000000000     -1.674969000000000      4.833556000000000
H       1.314940000000000     -2.690784000000000      4.604100000000000
H       1.749720000000000     -1.162828000000000      5.404772000000000
H       0.048038000000000     -1.710392000000000      5.420339000000000
C      -0.824088000000000      2.534092000000000      4.474651000000000
H      -1.622020000000000      2.184035000000000      5.131505000000000
H       0.107914000000000      2.630556000000000      5.045834000000000
H      -1.099064000000000      3.510707000000000      4.057615000000000
C      -7.872921000000000      1.186157000000000     -2.325001000000000
H      -7.447867000000000      1.865328000000000     -3.082391000000000
H      -8.111132000000000      0.240722000000000     -2.810880000000000
H      -8.807859000000001      1.619200000000000     -1.957820000000000
C      -6.747557000000000      2.216512000000000     -0.467175000000000
H      -7.718982000000000      2.658941000000000     -0.230615000000000
H      -6.229135000000000      2.006677000000000      0.471885000000000
H      -6.156781000000000      2.958979000000000     -1.029939000000000
C      -3.904643000000000     -3.873231000000000     -3.324473000000000
H      -4.208843000000000     -4.818140000000000     -3.777095000000000
H      -3.340331000000000     -3.289620000000000     -4.067906000000000
H      -3.222910000000000     -4.105967000000000     -2.499112000000000
C      -6.339365000000000     -3.459187000000000     -3.508930000000000
H      -7.167458000000000     -3.461707000000000     -2.792374000000000
H      -6.571937000000000     -2.728021000000000     -4.298734000000000
H      -6.291113000000000     -4.452292000000000     -3.957723000000000
C      -4.148133000000000      2.119889000000000      3.622212000000000
H      -4.553315000000000      2.368912000000000      4.604650000000000
H      -4.963112000000000      1.705851000000000      3.010849000000000
H      -3.390060000000000      1.335882000000000      3.747190000000000
C      -3.742554000000000      4.591187000000000      3.665120000000000
H      -2.818290000000000      4.965940000000000      4.134512000000000
H      -4.075858000000000      5.344782000000000      2.940882000000000
H      -4.504690000000000      4.509973000000000      4.441768000000000
C       0.501608000000000      4.959839000000000     -1.221644000000000
H       1.181528000000000      4.127580000000000     -0.979153000000000
H      -0.013777000000000      4.711168000000000     -2.155912000000000
H       1.091472000000000      5.861745000000000     -1.394735000000000
C      -0.126695000000000      6.249547000000000      0.799589000000000
H       0.592287000000000      6.937303000000000      0.352208000000000
H      -1.014916000000000      6.831151000000000      1.070079000000000
H       0.316369000000000      5.834853000000000      1.717195000000000
C       3.650209000000000      3.354777000000000     -3.947798000000000
H       3.955311000000000      4.256664000000000     -4.482223000000000
H       2.925645000000000      2.804967000000000     -4.564777000000000
H       3.156291000000000      3.672655000000000     -3.022635000000000
C       5.897523000000000      2.596870000000000     -4.629185000000000
H       5.843576000000000      1.735971000000000     -5.308611000000000
H       5.811283000000000      3.511967000000000     -5.217606000000000
H       6.878773000000000      2.612368000000000     -4.142582000000000
C       7.397646000000000     -1.916567000000000     -2.957953000000000
H       6.810202000000000     -2.699173000000000     -3.467157000000000
H       7.543835000000000     -1.093936000000000     -3.657076000000000
H       8.379732000000001     -2.329162000000000     -2.707752000000000
C       6.612915000000000     -2.524420000000000     -0.772116000000000
H       5.910383000000000     -3.314110000000000     -1.090607000000000
H       7.594477000000000     -2.982309000000000     -0.620001000000000
H       6.268324000000000     -2.123473000000000      0.184837000000000
C       0.140659000000000     -6.002927000000000      1.981937000000000
H      -0.218460000000000     -5.429079000000000      2.848276000000000
H      -0.624690000000000     -6.733508000000000      1.717258000000000
H       1.041583000000000     -6.554281000000000      2.276224000000000
C      -0.562737000000000     -5.133463000000000     -0.244185000000000
H      -0.053772000000000     -5.084755000000000     -1.213054000000000
H      -1.147258000000000     -6.054662000000000     -0.215782000000000
H      -1.250779000000000     -4.275265000000000     -0.183396000000000
C       4.304060000000000     -1.493577000000000      3.765502000000000
H       5.098903000000000     -1.201447000000000      3.056556000000000
H       3.527183000000000     -0.724332000000000      3.753147000000000
H       4.743010000000000     -1.536677000000000      4.766959000000000
C       4.694327000000000     -3.856984000000000      3.579077000000000
H       5.533294000000000     -3.729546000000000      2.873277000000000
H       5.098223000000000     -3.868406000000000      4.596039000000000
H       4.228944000000000     -4.823452000000000      3.383478000000000
C       3.734447000000000      4.421752000000000      0.598458000000000
H       3.424978000000000      4.355728000000000     -0.452112000000000
H       4.161189000000000      5.407017000000000      0.787781000000000
H       4.487775000000000      3.649138000000000      0.791730000000000
C      -3.685423000000000     -4.285204000000000      1.523167000000000
H      -4.089006000000000     -5.224486000000000      1.902342000000000
H      -4.436022000000000     -3.492482000000000      1.624303000000000
H      -3.437246000000000     -4.400197000000000      0.460533000000000
C      -0.646209000000000      0.337965000000000     -4.326637000000000
C       0.767843000000000      0.246986000000000     -4.262743000000000
C       1.548478000000000     -0.873341000000000     -4.881591000000000
O       1.852574000000000     -0.611965000000000     -6.279509000000000
C       2.868042000000000      0.217512000000000     -6.524743000000000
C       3.056116000000000      0.419417000000000     -8.008361000000001
O       3.546416000000000      0.740413000000000     -5.668944000000000
H      -1.216412000000000     -0.449596000000000     -4.817090000000000
H      -1.127359000000000      1.310818000000000     -4.335577000000000
H       1.337313000000000      1.170578000000000     -4.201783000000000
H       0.972233000000000     -1.800300000000000     -4.914326000000000
H       2.492092000000000     -1.034776000000000     -4.351372000000000
H       2.164180000000000      0.893833000000000     -8.426085000000000
H       3.178620000000000     -0.546531000000000     -8.503742000000001
H       3.928517000000000      1.047971000000000     -8.181796000000000
