117

C      -2.397003000000000     -1.793643000000000      1.163766000000000
C      -1.481515000000000     -0.781234000000000      0.854135000000000
C      -0.376121000000000     -0.534773000000000      1.687587000000000
C      -0.263091000000000     -1.308811000000000      2.858264000000000
C      -1.155175000000000     -2.323143000000000      3.164729000000000
C      -2.225082000000000     -2.572095000000000      2.304838000000000
H      -3.253524000000000     -1.949219000000000      0.523106000000000
H      -1.041734000000000     -2.933016000000000      4.053759000000000
O      -3.060690000000000     -3.577866000000000      2.668793000000000
C       0.592643000000000      0.587983000000000      1.481389000000000
C       0.518042000000000      1.664235000000000      2.401348000000000
C       1.545571000000000      0.671190000000000      0.456311000000000
C       1.305345000000000      2.796437000000000      2.265776000000000
C       2.330791000000000      1.826813000000000      0.306579000000000
C       2.191630000000000      2.885349000000000      1.190562000000000
H       1.239770000000000      3.638707000000000      2.942335000000000
H       3.038762000000000      1.881419000000000     -0.509446000000000
O       2.884778000000000      4.054989000000000      1.097112000000000
P      -1.687934000000000      0.201900000000000     -0.708410000000000
P       1.719808000000000     -0.601036000000000     -0.883861000000000
C       3.402517000000000     -0.236917000000000     -1.536684000000000
C       4.529188000000000     -0.462366000000000     -0.741958000000000
C       3.519347000000000      0.318947000000000     -2.805422000000000
C       5.793143000000000     -0.115304000000000     -1.227071000000000
H       4.430935000000000     -0.911995000000000      0.242581000000000
C       4.790029000000000      0.666988000000000     -3.302148000000000
H       2.636362000000000      0.483160000000000     -3.414319000000000
C       5.913060000000000      0.453776000000000     -2.500329000000000
N       6.938493000000000     -0.386400000000000     -0.474907000000000
N       4.904466000000000      1.264445000000000     -4.550615000000000
H       6.900196000000000      0.710383000000000     -2.879883000000000
C       2.032769000000000     -2.179391000000000      0.000192000000000
C       1.978370000000000     -3.353230000000000     -0.751153000000000
C       2.317201000000000     -2.223720000000000      1.359084000000000
C       2.169761000000000     -4.590533000000000     -0.127313000000000
H       1.792358000000000     -3.314950000000000     -1.821578000000000
C       2.471901000000000     -3.461664000000000      1.998176000000000
H       2.379391000000000     -1.315345000000000      1.948464000000000
C       2.400989000000000     -4.637749000000000      1.251058000000000
N       2.154975000000000     -5.765553000000000     -0.883305000000000
N       2.721383000000000     -3.485506000000000      3.372504000000000
H       2.523263000000000     -5.599914000000000      1.744189000000000
C      -1.713252000000000      1.900769000000000      0.001686000000000
C      -2.497666000000000      2.154185000000000      1.129310000000000
C      -0.887076000000000      2.887741000000000     -0.521445000000000
C      -2.462584000000000      3.414291000000000      1.731266000000000
H      -3.123866000000000      1.371993000000000      1.552301000000000
C      -0.800636000000000      4.133208000000000      0.114819000000000
H      -0.251207000000000      2.668800000000000     -1.373529000000000
C      -1.605159000000000      4.396380000000000      1.225736000000000
N      -3.308772000000000      3.694290000000000      2.812035000000000
N       0.081159000000000      5.104983000000000     -0.365796000000000
H      -1.556271000000000      5.372120000000000      1.705557000000000
C      -3.447143000000000     -0.076165000000000     -1.197846000000000
C      -4.410349000000000      0.925764000000000     -1.116395000000000
C      -3.783873000000000     -1.322435000000000     -1.738238000000000
C      -5.721949000000000      0.677370000000000     -1.552253000000000
H      -4.161084000000000      1.907705000000000     -0.730036000000000
C      -5.093942000000000     -1.584732000000000     -2.148797000000000
H      -3.034836000000000     -2.101974000000000     -1.839936000000000
C      -6.060773000000000     -0.580346000000000     -2.051069000000000
N      -6.664560000000000      1.703413000000000     -1.529299000000000
N      -5.444824000000000     -2.860008000000000     -2.603377000000000
H      -7.078430000000000     -0.775783000000000     -2.381868000000000
H       0.313942000000000      1.047872000000000     -2.375147000000000
O       0.787427000000000     -1.025220000000000      3.697598000000000
O      -0.385441000000000      1.522985000000000      3.411323000000000
Rh     -0.116500000000000     -0.469691000000000     -2.332721000000000
C      -0.583506000000000     -2.356544000000000     -2.362686000000000
O      -0.883726000000000     -3.464092000000000     -2.413101000000000
C       0.470355000000000     -0.955557000000000      5.075409000000000
H      -0.465826000000000     -0.408679000000000      5.225741000000000
H       0.386223000000000     -1.952588000000000      5.525548000000000
H       1.293002000000000     -0.419474000000000      5.552975000000000
C      -0.451442000000000      2.552835000000000      4.367638000000000
H      -0.734255000000000      3.506399000000000      3.904944000000000
H      -1.218912000000000      2.253772000000000      5.083960000000000
H       0.506633000000000      2.675161000000000      4.888767000000000
H      -7.626477000000000      1.397941000000000     -1.463315000000000
H      -6.459855000000000      2.446009000000000     -0.873383000000000
H      -4.664127000000000     -3.384682000000000     -2.979337000000000
H      -3.000207000000000      4.461162000000000      3.396568000000000
H      -3.537090000000000      2.879453000000000      3.368682000000000
H       0.807541000000000      4.711349000000000     -0.953402000000000
H       0.501098000000000      5.665920000000000      0.366463000000000
H       4.168417000000000      1.005291000000000     -5.200687000000000
H       5.820426000000000      1.172688000000000     -4.970698000000000
H       7.715114000000000      0.237580000000000     -0.650859000000000
H       6.766399000000000     -0.495921000000000      0.516091000000000
H       1.602018000000000     -5.695265000000000     -1.728907000000000
H       1.905748000000000     -6.592550000000000     -0.355654000000000
H       2.462843000000000     -4.355367000000000      3.821333000000000
H       2.307285000000000     -2.686201000000000      3.840984000000000
C       3.840001000000000      4.150780000000000      0.060401000000000
H       4.310888000000000      5.127549000000000      0.170968000000000
H       4.598124000000000      3.363162000000000      0.141856000000000
H       3.368853000000000      4.080589000000000     -0.928290000000000
C      -4.131450000000000     -3.874832000000000      1.796383000000000
H      -3.769362000000000     -4.141446000000000      0.796154000000000
H      -4.651409000000000     -4.725761000000000      2.235986000000000
H      -4.823252000000000     -3.028750000000000      1.708786000000000
C      -1.069013000000000     -0.132759000000000     -4.243325000000000
C       0.326039000000000     -0.269686000000000     -4.442324000000000
C       0.943777000000000     -1.493258000000000     -5.046659000000000
O       1.038655000000000     -1.390205000000000     -6.496445000000000
C       2.002270000000000     -0.601022000000000     -6.964230000000000
C       1.977812000000000     -0.532726000000000     -8.469740000000000
O       2.794532000000000     -0.008087000000000     -6.263895000000000
H      -1.736691000000000     -0.951951000000000     -4.506228000000000
H      -1.528595000000000      0.849883000000000     -4.280229000000000
H       0.901953000000000      0.635478000000000     -4.614615000000000
H       0.321645000000000     -2.377334000000000     -4.889800000000000
H       1.950821000000000     -1.672069000000000     -4.658455000000000
H       1.052468000000000     -0.047639000000000     -8.791938000000000
H       1.987021000000000     -1.540761000000000     -8.890100000000000
H       2.836652000000000      0.036030000000000     -8.822816000000000
H      -6.225572000000000     -2.866476000000000     -3.247951000000000
