109

C      -2.050079000000000     -2.075281000000000      0.747247000000000
C      -1.371735000000000     -0.845463000000000      0.709734000000000
C      -0.370254000000000     -0.553364000000000      1.636592000000000
C      -0.147322000000000     -1.466382000000000      2.692850000000000
C      -0.831417000000000     -2.670566000000000      2.754713000000000
C      -1.764482000000000     -2.982815000000000      1.759731000000000
H      -2.794056000000000     -2.301721000000000     -0.005329000000000
H      -0.659435000000000     -3.400637000000000      3.534816000000000
O      -2.358496000000000     -4.196624000000000      1.881824000000000
C       0.488285000000000      0.660112000000000      1.528301000000000
C       0.286092000000000      1.712577000000000      2.451378000000000
C       1.446714000000000      0.827275000000000      0.524293000000000
C       0.980703000000000      2.906409000000000      2.341875000000000
C       2.128684000000000      2.047727000000000      0.387920000000000
C       1.888400000000000      3.075897000000000      1.290890000000000
H       0.829389000000000      3.735811000000000      3.020511000000000
H       2.843205000000000      2.171400000000000     -0.415336000000000
O       2.499292000000000      4.287411000000000      1.245539000000000
P      -1.647599000000000      0.260247000000000     -0.739386000000000
P       1.722131000000000     -0.470652000000000     -0.771145000000000
C       3.464556000000000     -0.144000000000000     -1.295781000000000
C       4.468214000000000      0.130581000000000     -0.359292000000000
C       3.775505000000000     -0.214438000000000     -2.651219000000000
C       5.776235000000000      0.331985000000000     -0.792126000000000
H       4.236309000000000      0.220611000000000      0.697439000000000
C       5.100874000000000     -0.007868000000000     -3.073883000000000
H       3.001766000000000     -0.421145000000000     -3.382742000000000
C       6.099353000000000      0.265249000000000     -2.144068000000000
O       6.788741000000000      0.611377000000000      0.075091000000000
O       5.467187000000000     -0.054667000000000     -4.369180000000000
H       7.119501000000000      0.425627000000000     -2.472352000000000
C       1.952508000000000     -2.001288000000000      0.244270000000000
C       1.415189000000000     -3.195208000000000     -0.235730000000000
C       2.671944000000000     -1.991689000000000      1.437642000000000
C       1.580145000000000     -4.375251000000000      0.488865000000000
H       0.862339000000000     -3.209382000000000     -1.168839000000000
C       2.854577000000000     -3.183365000000000      2.135710000000000
H       3.049831000000000     -1.076697000000000      1.877458000000000
C       2.305389000000000     -4.378060000000000      1.677326000000000
O       1.052119000000000     -5.558109000000000      0.078933000000000
O       3.572815000000000     -3.120770000000000      3.294734000000000
H       2.422871000000000     -5.309517000000000      2.223960000000000
C      -1.750962000000000      1.956088000000000     -0.023088000000000
C      -2.562712000000000      2.224948000000000      1.078376000000000
C      -1.015393000000000      2.974039000000000     -0.626772000000000
C      -2.624532000000000      3.526453000000000      1.571389000000000
H      -3.125749000000000      1.450199000000000      1.585680000000000
C      -1.073112000000000      4.266003000000000     -0.106086000000000
H      -0.376527000000000      2.748516000000000     -1.476612000000000
C      -1.880189000000000      4.551796000000000      0.991430000000000
O      -3.423730000000000      3.746217000000000      2.655556000000000
O      -0.348134000000000      5.288851000000000     -0.631201000000000
H      -1.906325000000000      5.566319000000000      1.379450000000000
C      -3.420478000000000     -0.023608000000000     -1.175298000000000
C      -4.412876000000000     -0.280870000000000     -0.224577000000000
C      -3.753061000000000      0.108889000000000     -2.521875000000000
C      -5.736100000000000     -0.409837000000000     -0.636629000000000
H      -4.186442000000000     -0.406588000000000      0.828232000000000
C      -5.085630000000000     -0.010938000000000     -2.919024000000000
H      -2.990888000000000      0.305657000000000     -3.267296000000000
C      -6.081803000000000     -0.274463000000000     -1.982726000000000
O      -6.663553000000000     -0.678077000000000      0.321385000000000
O      -5.353385000000000      0.129561000000000     -4.243917000000000
H      -7.119163000000000     -0.380291000000000     -2.296427000000000
H       0.519247000000000      1.167223000000000     -2.365919000000000
O       0.788973000000000     -1.094955000000000      3.596367000000000
O      -0.646000000000000      1.475916000000000      3.403216000000000
Rh     -0.035463000000000     -0.310686000000000     -2.401360000000000
C      -0.806910000000000     -2.098982000000000     -2.521634000000000
O      -1.342929000000000     -3.110897000000000     -2.594478000000000
C       0.976320000000000     -1.928112000000000      4.718517000000000
H       0.052521000000000     -2.005763000000000      5.304647000000000
H       1.306856000000000     -2.928768000000000      4.419900000000000
H       1.758946000000000     -1.459370000000000      5.314228000000000
C      -0.866362000000000      2.482120000000000      4.365621000000000
H      -1.652171000000000      2.105640000000000      5.019991000000000
H       0.043408000000000      2.674527000000000      4.947450000000000
H      -1.205573000000000      3.412210000000000      3.896476000000000
H      -7.542865000000000     -0.711960000000000     -0.080415000000000
H      -6.303722000000000      0.030109000000000     -4.395237000000000
H      -3.439452000000000      4.694706000000000      2.847481000000000
H       0.174020000000000      4.948003000000000     -1.371767000000000
H       4.699258000000000     -0.253105000000000     -4.935374000000000
H       6.444758000000000      0.573804000000000      0.978879000000000
H       0.537770000000000     -5.407377000000000     -0.727601000000000
H       3.694074000000000     -4.017574000000000      3.638175000000000
C       3.387476000000000      4.523073000000000      0.176615000000000
H       3.757936000000000      5.539386000000000      0.307533000000000
H       4.228943000000000      3.819643000000000      0.189290000000000
H       2.874645000000000      4.442507000000000     -0.790421000000000
C      -3.289669000000000     -4.561513000000000      0.886917000000000
H      -2.822779000000000     -4.580558000000000     -0.105870000000000
H      -3.634610000000000     -5.561868000000000      1.147462000000000
H      -4.143104000000000     -3.872402000000000      0.867039000000000
C      -0.684801000000000      0.210114000000000     -4.387684000000000
C       0.662612000000000     -0.231232000000000     -4.433561000000000
C       1.001494000000000     -1.569122000000000     -5.023006000000000
O       1.259341000000000     -1.475866000000000     -6.452450000000000
C       2.444657000000000     -0.988794000000000     -6.795275000000000
C       2.603166000000000     -0.880241000000000     -8.287546000000001
O       3.292520000000000     -0.662567000000000     -5.989364000000000
H      -1.465707000000000     -0.445299000000000     -4.771804000000000
H      -0.912231000000000      1.268981000000000     -4.465095000000000
H       1.448954000000000      0.513422000000000     -4.529112000000000
H       0.153189000000000     -2.253823000000000     -4.959062000000000
H       1.878485000000000     -2.026776000000000     -4.556610000000000
H       1.919349000000000     -0.114204000000000     -8.663422000000001
H       2.334897000000000     -1.826277000000000     -8.762242000000001
H       3.630107000000000     -0.608250000000000     -8.526047999999999
