133

C      -1.967137000000000     -2.255868000000000      0.790728000000000
C      -1.338888000000000     -0.998899000000000      0.769566000000000
C      -0.281401000000000     -0.712736000000000      1.637060000000000
C       0.075232000000000     -1.689398000000000      2.599772000000000
C      -0.559941000000000     -2.922514000000000      2.645885000000000
C      -1.573700000000000     -3.206809000000000      1.724961000000000
H      -2.760908000000000     -2.471821000000000      0.086742000000000
H      -0.290359000000000     -3.693251000000000      3.356549000000000
O      -2.127693000000000     -4.443061000000000      1.822574000000000
C       0.503627000000000      0.556984000000000      1.589512000000000
C       0.337810000000000      1.483117000000000      2.642769000000000
C       1.408977000000000      0.872770000000000      0.567327000000000
C       1.005099000000000      2.699588000000000      2.645432000000000
C       2.088687000000000      2.096923000000000      0.566367000000000
C       1.866772000000000      3.010656000000000      1.591062000000000
H       0.873013000000000      3.431837000000000      3.432130000000000
H       2.792203000000000      2.323987000000000     -0.221407000000000
O       2.458179000000000      4.230172000000000      1.660819000000000
P      -1.768512000000000      0.156447000000000     -0.604821000000000
P       1.627191000000000     -0.299349000000000     -0.856204000000000
C       3.212859000000000      0.228678000000000     -1.635955000000000
C       4.386171000000000     -0.519539000000000     -1.515229000000000
C       3.214796000000000      1.404654000000000     -2.391872000000000
C       5.566282000000000     -0.073264000000000     -2.113943000000000
H       4.377169000000000     -1.445860000000000     -0.959050000000000
C       4.397156000000000      1.860240000000000     -2.978320000000000
H       2.292158000000000      1.965942000000000     -2.500325000000000
C       5.570020000000000      1.118289000000000     -2.839718000000000
S       7.098694000000000     -0.957054000000000     -2.003778000000000
S       4.508833000000000      3.397237000000000     -3.854436000000000
H       6.485092000000000      1.464502000000000     -3.312691000000000
C       2.125967000000000     -1.807550000000000      0.080514000000000
C       1.535216000000000     -3.041097000000000     -0.202757000000000
C       3.065733000000000     -1.696201000000000      1.102203000000000
C       1.867926000000000     -4.159083000000000      0.562546000000000
H       0.793360000000000     -3.102554000000000     -0.990110000000000
C       3.444956000000000     -2.827204000000000      1.832735000000000
H       3.501746000000000     -0.728199000000000      1.339867000000000
C       2.834893000000000     -4.051461000000000      1.571326000000000
S       1.108429000000000     -5.745818000000000      0.383065000000000
S       4.679118000000000     -2.574519000000000      3.079463000000000
H       3.083250000000000     -4.935033000000000      2.150792000000000
C      -1.886587000000000      1.793961000000000      0.237512000000000
C      -2.623964000000000      1.918634000000000      1.419692000000000
C      -1.195612000000000      2.886768000000000     -0.268261000000000
C      -2.659528000000000      3.134037000000000      2.094125000000000
H      -3.132467000000000      1.054221000000000      1.824926000000000
C      -1.213927000000000      4.107642000000000      0.417604000000000
H      -0.595557000000000      2.780265000000000     -1.165920000000000
C      -1.947139000000000      4.232338000000000      1.592951000000000
S      -3.576224000000000      3.384899000000000      3.592467000000000
S      -0.249903000000000      5.421554000000000     -0.281727000000000
H      -1.968724000000000      5.171382000000000      2.137749000000000
C      -3.544334000000000     -0.216810000000000     -0.946095000000000
C      -4.473348000000000     -0.526569000000000      0.044410000000000
C      -3.951689000000000     -0.122246000000000     -2.281155000000000
C      -5.816183000000000     -0.736545000000000     -0.289658000000000
H      -4.161786000000000     -0.642256000000000      1.078965000000000
C      -5.290731000000000     -0.325022000000000     -2.616759000000000
H      -3.202575000000000      0.107755000000000     -3.032683000000000
C      -6.222138000000000     -0.632913000000000     -1.617414000000000
S      -6.896672000000000     -1.154214000000000      1.052207000000000
S      -5.918382000000000     -0.218390000000000     -4.268945000000000
H      -7.255171000000000     -0.806146000000000     -1.900294000000000
H       0.127801000000000      1.330834000000000     -2.227297000000000
O       1.075146000000000     -1.339404000000000      3.441645000000000
O      -0.522810000000000      1.114103000000000      3.626361000000000
Rh     -0.207758000000000     -0.203782000000000     -2.340038000000000
C      -0.802354000000000     -2.042887000000000     -2.599277000000000
O      -1.272081000000000     -3.073105000000000     -2.783623000000000
C       1.401535000000000     -2.238083000000000      4.477715000000000
H       2.197028000000000     -1.761870000000000      5.049748000000000
H       0.533399000000000     -2.426476000000000      5.121301000000000
H       1.767363000000000     -3.190693000000000      4.072993000000000
C      -0.518205000000000      1.889375000000000      4.807638000000000
H       0.493072000000000      1.953304000000000      5.226431000000000
H      -0.911524000000000      2.895825000000000      4.626143000000000
H      -1.172912000000000      1.373226000000000      5.511367000000000
C      -8.519864000000000     -1.192562000000000      0.256261000000000
H      -8.754163000000000     -0.230808000000000     -0.205118000000000
H      -8.585659000000000     -1.993220000000000     -0.483442000000000
H      -9.239784999999999     -1.388309000000000      1.052659000000000
C      -4.401413000000000     -0.126840000000000     -5.249431000000000
H      -3.762112000000000     -0.991582000000000     -5.056090000000000
H      -4.717174000000000     -0.142142000000000     -6.293988000000000
H      -3.850408000000000      0.796855000000000     -5.059719000000000
C      -4.018388000000000      1.686764000000000      4.040975000000000
H      -3.128881000000000      1.050608000000000      4.051727000000000
H      -4.444993000000000      1.737212000000000      5.044334000000000
H      -4.767251000000000      1.274780000000000      3.359873000000000
C       0.118411000000000      6.435075000000000      1.173800000000000
H       0.546519000000000      5.813280000000000      1.963267000000000
H       0.866324000000000      7.163148000000000      0.852355000000000
H      -0.760858000000000      6.974715000000000      1.530706000000000
C       2.810748000000000      3.616362000000000     -4.446398000000000
H       2.836446000000000      4.471887000000000     -5.124237000000000
H       2.503473000000000      2.725057000000000     -4.996774000000000
H       2.113374000000000      3.837298000000000     -3.634527000000000
C       6.706456000000000     -2.260165000000000     -0.809260000000000
H       7.644626000000000     -2.786238000000000     -0.624167000000000
H       6.342448000000000     -1.841708000000000      0.132806000000000
H       5.977622000000000     -2.969300000000000     -1.208468000000000
C      -0.207493000000000     -5.403412000000000     -0.806394000000000
H      -0.821145000000000     -6.305399000000000     -0.848459000000000
H      -0.820546000000000     -4.565699000000000     -0.464693000000000
H       0.188915000000000     -5.193014000000000     -1.801800000000000
C       4.876574000000000     -4.230555000000000      3.777245000000000
H       5.651725000000000     -4.144791000000000      4.540623000000000
H       3.954448000000000     -4.580551000000000      4.248951000000000
H       5.203549000000000     -4.946274000000000      3.019838000000000
C       3.287207000000000      4.611940000000000      0.579227000000000
H       4.159589000000000      3.953524000000000      0.495803000000000
H       2.728574000000000      4.602758000000000     -0.363905000000000
H       3.619294000000000      5.626669000000000      0.799601000000000
C      -3.284012000000000     -4.698815000000000      1.052109000000000
H      -4.071277000000000     -3.964391000000000      1.262505000000000
H      -3.064739000000000     -4.687686000000000     -0.022990000000000
H      -3.622960000000000     -5.693907000000000      1.339416000000000
C      -0.790743000000000      0.265833000000000     -4.378854000000000
C       0.615036000000000      0.112491000000000     -4.290137000000000
C       1.341903000000000     -1.072686000000000     -4.854074000000000
O       1.663092000000000     -0.898116000000000     -6.256145000000000
C       2.652467000000000     -0.037694000000000     -6.528826000000000
C       2.892834000000000      0.061184000000000     -8.013882000000001
O       3.265242000000000      0.576997000000000     -5.686794000000000
H      -1.379341000000000     -0.520837000000000     -4.849631000000000
H      -1.222562000000000      1.259817000000000     -4.452460000000000
H       1.226737000000000      1.008704000000000     -4.262018000000000
H       0.720104000000000     -1.971127000000000     -4.837798000000000
H       2.274519000000000     -1.254877000000000     -4.310546000000000
H       1.992841000000000      0.440243000000000     -8.505204000000001
H       3.100183000000000     -0.930206000000000     -8.423520999999999
H       3.731399000000000      0.730571000000000     -8.199429000000000
