93

C      -0.443354000000000     -2.768154000000000      1.019953000000000
C      -0.688991000000000     -1.435754000000000      0.662290000000000
C       0.059299000000000     -0.423216000000000      1.273230000000000
C       0.991222000000000     -0.720533000000000      2.300776000000000
C       1.229599000000000     -2.061915000000000      2.619271000000000
C       0.510964000000000     -3.068210000000000      1.972936000000000
H      -0.988488000000000     -3.575746000000000      0.542465000000000
Br      2.534630000000000     -2.695223000000000      3.851973000000000
H       0.717214000000000     -4.100295000000000      2.233070000000000
C      -0.062972000000000      1.014295000000000      0.867070000000000
C      -0.741222000000000      1.870124000000000      1.749401000000000
C       0.468562000000000      1.519301000000000     -0.334470000000000
C      -0.943104000000000      3.205104000000000      1.399489000000000
C       0.289517000000000      2.873286000000000     -0.634341000000000
C      -0.423561000000000      3.708725000000000      0.214948000000000
Br     -1.958836000000000      4.337709000000000      2.520186000000000
H       0.703574000000000      3.289702000000000     -1.545509000000000
H      -0.580448000000000      4.751421000000000     -0.037693000000000
P      -1.777071000000000     -1.090185000000000     -0.791404000000000
P       1.280616000000000      0.377080000000000     -1.555100000000000
C       2.199967000000000      1.521448000000000     -2.672465000000000
C       3.586549000000000      1.693428000000000     -2.624079000000000
C       1.475015000000000      2.198905000000000     -3.664521000000000
C       4.228371000000000      2.534331000000000     -3.532670000000000
H       4.177887000000000      1.164204000000000     -1.885138000000000
C       2.113999000000000      3.052658000000000     -4.556711000000000
H       0.401488000000000      2.045216000000000     -3.734575000000000
C       3.496240000000000      3.221474000000000     -4.494435000000000
H       5.306784000000000      2.649228000000000     -3.483617000000000
H       1.533285000000000      3.574309000000000     -5.311244000000000
H       3.998367000000000      3.877472000000000     -5.198569000000000
C       2.612782000000000     -0.330095000000000     -0.501405000000000
C       2.890143000000000     -1.697458000000000     -0.553999000000000
C       3.336159000000000      0.477073000000000      0.385787000000000
C       3.863595000000000     -2.255248000000000      0.272357000000000
H       2.330466000000000     -2.333491000000000     -1.231429000000000
C       4.322350000000000     -0.075642000000000      1.196341000000000
H       3.114166000000000      1.539617000000000      0.450978000000000
C       4.580337000000000     -1.445219000000000      1.148182000000000
H       4.053327000000000     -3.323406000000000      0.237624000000000
H       4.882622000000000      0.561842000000000      1.874355000000000
H       5.333100000000000     -1.880372000000000      1.798185000000000
C      -2.823197000000000      0.318829000000000     -0.241662000000000
C      -3.364987000000000      0.361203000000000      1.048058000000000
C      -3.086575000000000      1.366912000000000     -1.125497000000000
C      -4.142598000000000      1.440388000000000      1.449165000000000
H      -3.130691000000000     -0.420043000000000      1.764871000000000
C      -3.874938000000000      2.444893000000000     -0.725014000000000
H      -2.655529000000000      1.343609000000000     -2.121923000000000
C      -4.400988000000000      2.484274000000000      0.561810000000000
H      -4.526333000000000      1.478700000000000      2.463737000000000
H      -4.066019000000000      3.258127000000000     -1.418468000000000
H      -4.996601000000000      3.333480000000000      0.881996000000000
C      -2.985264000000000     -2.477149000000000     -0.779632000000000
C      -3.573692000000000     -2.987199000000000      0.385958000000000
C      -3.391348000000000     -2.977952000000000     -2.018963000000000
C      -4.543644000000000     -3.979467000000000      0.305167000000000
H      -3.261727000000000     -2.623057000000000      1.360865000000000
C      -4.378054000000000     -3.959839000000000     -2.100966000000000
H      -2.946902000000000     -2.598930000000000     -2.933253000000000
C      -4.951231000000000     -4.463726000000000     -0.939064000000000
H      -4.986477000000000     -4.373792000000000      1.214680000000000
H      -4.684559000000000     -4.313586000000000     -3.079947000000000
H      -5.714894000000000     -5.233443000000000     -0.995964000000000
H      -0.926716000000000      0.536437000000000     -2.902540000000000
O       1.574356000000000      0.389418000000000      2.814149000000000
O      -1.249024000000000      1.335300000000000      2.892258000000000
Rh     -0.351379000000000     -0.917670000000000     -2.670300000000000
C       0.246593000000000     -2.770447000000000     -2.501757000000000
O       0.515970000000000     -3.881288000000000     -2.451397000000000
C       2.341257000000000      0.411881000000000      4.002869000000000
H       1.839721000000000     -0.114811000000000      4.819237000000000
H       3.333536000000000     -0.016036000000000      3.845556000000000
H       2.434662000000000      1.470364000000000      4.254543000000000
C      -0.706326000000000      1.790587000000000      4.127087000000000
H      -0.375367000000000      0.911667000000000      4.687847000000000
H       0.145024000000000      2.457553000000000      3.962696000000000
H      -1.477232000000000      2.320816000000000      4.691085000000000
C       0.016544000000000     -0.880095000000000     -4.794939000000000
C      -1.287130000000000     -1.381809000000000     -4.550835000000000
C      -2.515095000000000     -0.557102000000000     -4.820576000000000
O      -3.096948000000000     -0.885144000000000     -6.105671000000000
C      -3.801742000000000     -2.021835000000000     -6.147422000000000
C      -4.345997000000000     -2.274666000000000     -7.529940000000000
O      -3.972210000000000     -2.748402000000000     -5.194730000000000
H       0.142024000000000      0.138594000000000     -5.154442000000000
H       0.813652000000000     -1.557418000000000     -5.087666000000000
H      -1.459007000000000     -2.452801000000000     -4.651020000000000
H      -2.261146000000000      0.503052000000000     -4.890417000000000
H      -3.288197000000000     -0.696384000000000     -4.059544000000000
H      -3.515646000000000     -2.395556000000000     -8.230553000000000
H      -4.935032000000000     -1.416055000000000     -7.860674000000000
H      -4.959415000000000     -3.174223000000000     -7.519095000000000
