101

C      -1.712030000000000     -2.088964000000000      1.620562000000000
C      -1.164769000000000     -0.910480000000000      1.098448000000000
C      -0.172942000000000     -0.218596000000000      1.817489000000000
C       0.216999000000000     -0.711363000000000      3.080920000000000
C      -0.313965000000000     -1.899849000000000      3.581455000000000
C      -1.276013000000000     -2.580095000000000      2.843156000000000
H      -2.490927000000000     -2.618078000000000      1.084439000000000
H       0.008336000000000     -2.291277000000000      4.538630000000000
H      -1.701652000000000     -3.497455000000000      3.237831000000000
C       0.451004000000000      1.059569000000000      1.343195000000000
C       0.081976000000000      2.245675000000000      2.018416000000000
C       1.359484000000000      1.146678000000000      0.275654000000000
C       0.562662000000000      3.485794000000000      1.603241000000000
C       1.819882000000000      2.400805000000000     -0.149298000000000
C       1.420114000000000      3.553568000000000      0.508990000000000
H       0.264631000000000      4.394281000000000      2.112750000000000
H       2.494283000000000      2.472478000000000     -0.995901000000000
H       1.784651000000000      4.520177000000000      0.175011000000000
P      -1.619583000000000     -0.337198000000000     -0.603555000000000
P       1.838654000000000     -0.351344000000000     -0.697218000000000
C       3.458526000000000      0.120830000000000     -1.449358000000000
C       4.498055000000000      0.735358000000000     -0.728601000000000
C       3.651323000000000     -0.180043000000000     -2.797753000000000
C       5.701009000000000      1.030188000000000     -1.347301000000000
H       4.357994000000000      1.005895000000000      0.312391000000000
C       4.862491000000000      0.114094000000000     -3.423863000000000
H       2.851672000000000     -0.633625000000000     -3.370625000000000
C       5.885548000000000      0.715816000000000     -2.699203000000000
H       6.512826000000000      1.507853000000000     -0.807477000000000
H       4.983748000000000     -0.121988000000000     -4.477833000000000
C       7.173129000000000      1.036934000000000     -3.362551000000000
C       2.378333000000000     -1.484978000000000      0.663504000000000
C       2.036191000000000     -2.837748000000000      0.612190000000000
C       3.090685000000000     -1.002096000000000      1.771370000000000
C       2.363460000000000     -3.688925000000000      1.663814000000000
H       1.488383000000000     -3.225293000000000     -0.238064000000000
C       3.426972000000000     -1.848430000000000      2.814215000000000
H       3.319344000000000      0.054821000000000      1.855725000000000
C       3.040144000000000     -3.190752000000000      2.775001000000000
H       2.066954000000000     -4.734683000000000      1.632293000000000
H       3.961747000000000     -1.482348000000000      3.685570000000000
C       3.288226000000000     -4.059507000000000      3.948207000000000
C      -2.097060000000000      1.406788000000000     -0.259807000000000
C      -2.848819000000000      1.708918000000000      0.887459000000000
C      -1.690186000000000      2.433100000000000     -1.112838000000000
C      -3.151845000000000      3.023833000000000      1.195746000000000
H      -3.161816000000000      0.908639000000000      1.553190000000000
C      -1.992798000000000      3.756476000000000     -0.800165000000000
H      -1.104298000000000      2.194061000000000     -1.994834000000000
C      -2.699742000000000      4.053260000000000      0.362878000000000
H      -3.713808000000000      3.280587000000000      2.088882000000000
H      -1.648127000000000      4.562170000000000     -1.444301000000000
C      -2.919157000000000      5.463718000000000      0.758291000000000
C      -3.261831000000000     -1.115979000000000     -0.943909000000000
C      -4.450347000000000     -0.380716000000000     -1.001307000000000
C      -3.302110000000000     -2.485655000000000     -1.262677000000000
C      -5.648486000000000     -1.003497000000000     -1.344539000000000
H      -4.450890000000000      0.681385000000000     -0.786408000000000
C      -4.496211000000000     -3.109300000000000     -1.585174000000000
H      -2.387258000000000     -3.068788000000000     -1.257143000000000
C      -5.678856000000000     -2.365228000000000     -1.628363000000000
H      -6.566693000000000     -0.422218000000000     -1.389618000000000
H      -4.534984000000000     -4.168368000000000     -1.820595000000000
C      -6.958596000000000     -3.024232000000000     -1.985776000000000
H       0.251549000000000      0.684321000000000     -2.379923000000000
O       1.134564000000000      0.030128000000000      3.745181000000000
O      -0.777105000000000      2.090053000000000      3.053925000000000
Rh      0.069685000000000     -0.870627000000000     -2.178057000000000
C      -0.045193000000000     -2.811782000000000     -2.085686000000000
O      -0.108267000000000     -3.957112000000000     -2.086557000000000
C       1.493082000000000     -0.379755000000000      5.048994000000000
H       2.201897000000000      0.364877000000000      5.411493000000000
H       0.616491000000000     -0.401745000000000      5.707087000000000
H       1.974444000000000     -1.365645000000000      5.046698000000000
C      -1.107886000000000      3.234489000000000      3.812751000000000
H      -1.636022000000000      3.983497000000000      3.209445000000000
H      -1.766175000000000      2.885123000000000      4.608232000000000
H      -0.210660000000000      3.686282000000000      4.252053000000000
O      -7.063664000000000     -4.199910000000000     -2.242310000000000
H      -7.843331000000000     -2.354136000000000     -2.003629000000000
O      -3.352399000000000      5.799224000000000      1.837206000000000
H      -2.634817000000000      6.221085000000000     -0.001070000000000
O       8.106705000000000      1.567007000000000     -2.807361000000000
H       7.231280000000000      0.753445000000000     -4.433738000000000
O       3.687478000000000     -3.650316000000000      5.014920000000000
H       3.059193000000000     -5.135192000000000      3.801567000000000
C      -0.887020000000000     -0.778271000000000     -4.111399000000000
C       0.510187000000000     -0.889667000000000     -4.304197000000000
C       1.118438000000000     -2.164274000000000     -4.823874000000000
O       1.326252000000000     -2.096716000000000     -6.253058000000000
C       2.415254000000000     -1.426609000000000     -6.647308000000000
C       2.523218000000000     -1.394090000000000     -8.149067000000001
O       3.203350000000000     -0.914916000000000     -5.884208000000000
H      -1.524738000000000     -1.640352000000000     -4.299798000000000
H      -1.380664000000000      0.180385000000000     -4.235369000000000
H       1.076707000000000      0.004241000000000     -4.554760000000000
H       0.435329000000000     -3.006277000000000     -4.688923000000000
H       2.079222000000000     -2.397576000000000     -4.356809000000000
H       1.663848000000000     -0.860166000000000     -8.562967000000000
H       2.501717000000000     -2.411872000000000     -8.545438000000001
H       3.446930000000000     -0.894099000000000     -8.435852000000001
