93

C      -1.532440000000000     -2.655862000000000      0.767469000000000
C      -1.203587000000000     -1.291782000000000      0.754400000000000
C      -0.246369000000000     -0.796931000000000      1.652213000000000
C       0.286825000000000     -1.666121000000000      2.627852000000000
C      -0.061236000000000     -3.015185000000000      2.650395000000000
C      -0.956876000000000     -3.503327000000000      1.702436000000000
H      -2.238360000000000     -3.052328000000000      0.044607000000000
H       0.370225000000000     -3.689551000000000      3.380246000000000
H      -1.212976000000000     -4.558272000000000      1.704876000000000
C       0.265730000000000      0.609558000000000      1.623483000000000
C      -0.129064000000000      1.470246000000000      2.667276000000000
C       1.140552000000000      1.091871000000000      0.634460000000000
C       0.303998000000000      2.794199000000000      2.707327000000000
C       1.583524000000000      2.419232000000000      0.691262000000000
C       1.159917000000000      3.257168000000000      1.713196000000000
H      -0.018986000000000      3.463716000000000      3.495300000000000
H       2.268956000000000      2.799461000000000     -0.057074000000000
H       1.505338000000000      4.285909000000000      1.744721000000000
P      -1.843759000000000     -0.220820000000000     -0.603208000000000
P       1.601997000000000      0.011692000000000     -0.803621000000000
C       3.072819000000000      0.853990000000000     -1.530520000000000
C       4.385350000000000      0.408170000000000     -1.352599000000000
C       2.853818000000000      1.962979000000000     -2.360866000000000
C       5.453336000000000      1.056119000000000     -1.969770000000000
H       4.592610000000000     -0.460021000000000     -0.736922000000000
C       3.910631000000000      2.630847000000000     -2.966453000000000
H       1.836870000000000      2.303118000000000     -2.535823000000000
C       5.207701000000000      2.167164000000000     -2.765257000000000
H       6.468921000000000      0.701279000000000     -1.833502000000000
H       3.734660000000000      3.492816000000000     -3.600598000000000
Cl      6.539228000000000      2.985814000000000     -3.533042000000000
C       2.356204000000000     -1.409457000000000      0.089546000000000
C       2.092230000000000     -2.716300000000000     -0.321768000000000
C       3.162175000000000     -1.203358000000000      1.216311000000000
C       2.595079000000000     -3.805519000000000      0.385503000000000
H       1.466296000000000     -2.893908000000000     -1.189586000000000
C       3.687012000000000     -2.278677000000000      1.921436000000000
H       3.361884000000000     -0.192353000000000      1.562353000000000
C       3.379383000000000     -3.572362000000000      1.507805000000000
H       2.368025000000000     -4.820968000000000      0.080712000000000
H       4.309606000000000     -2.121729000000000      2.796042000000000
Cl      3.972919000000000     -4.922978000000000      2.438200000000000
C      -2.350662000000000      1.311887000000000      0.285880000000000
C      -1.962107000000000      2.562226000000000     -0.197900000000000
C      -3.115561000000000      1.245786000000000      1.455092000000000
C      -2.302287000000000      3.728590000000000      0.482423000000000
H      -1.361942000000000      2.620815000000000     -1.100843000000000
C      -3.473532000000000      2.400884000000000      2.138085000000000
H      -3.409449000000000      0.284720000000000      1.864804000000000
C      -3.046594000000000      3.632956000000000      1.651026000000000
H      -1.980509000000000      4.698764000000000      0.120239000000000
H      -4.064472000000000      2.351011000000000      3.046576000000000
Cl     -3.437433000000000      5.080252000000000      2.543834000000000
C      -3.479395000000000     -0.945902000000000     -1.032538000000000
C      -4.370332000000000     -1.501085000000000     -0.103808000000000
C      -3.878328000000000     -0.847039000000000     -2.367884000000000
C      -5.626143000000000     -1.942679000000000     -0.500971000000000
H      -4.079681000000000     -1.616925000000000      0.936288000000000
C      -5.140458000000000     -1.268854000000000     -2.779041000000000
H      -3.207476000000000     -0.430850000000000     -3.111630000000000
C      -6.001276000000000     -1.815605000000000     -1.837525000000000
H      -6.313820000000000     -2.381153000000000      0.213870000000000
H      -5.432809000000000     -1.165371000000000     -3.818101000000000
Cl     -7.581463000000000     -2.360976000000000     -2.329458000000000
H      -0.129634000000000      1.390602000000000     -2.157981000000000
O       1.161353000000000     -1.104381000000000      3.498715000000000
O      -0.959577000000000      0.924923000000000      3.590256000000000
Rh     -0.209299000000000     -0.182796000000000     -2.312871000000000
C      -0.395669000000000     -2.099082000000000     -2.647008000000000
O      -0.571184000000000     -3.200416000000000     -2.900673000000000
C       1.645802000000000     -1.911045000000000      4.548810000000000
H       2.226136000000000     -2.760867000000000      4.168366000000000
H       2.293185000000000     -1.269332000000000      5.146931000000000
H       0.823243000000000     -2.284163000000000      5.170601000000000
C      -1.331270000000000      1.727930000000000      4.687827000000000
H      -1.973718000000000      1.106321000000000      5.311866000000000
H      -0.452160000000000      2.040503000000000      5.264039000000000
H      -1.886773000000000      2.616840000000000      4.363596000000000
C       0.441415000000000      0.195097000000000     -4.334175000000000
C      -0.974312000000000      0.252844000000000     -4.274185000000000
C      -1.711236000000000      1.562533000000000     -4.348449000000000
O      -2.200341000000000      1.813829000000000     -5.687006000000000
C      -3.298909000000000      1.134853000000000     -6.037846000000000
C      -3.713783000000000      1.458010000000000     -7.449420000000000
O      -3.875843000000000      0.360507000000000     -5.307672000000000
H       1.012244000000000      1.118020000000000     -4.404218000000000
H       0.932879000000000     -0.666467000000000     -4.776779000000000
H      -1.546897000000000     -0.585972000000000     -4.668252000000000
H      -1.038633000000000      2.396086000000000     -4.133745000000000
H      -2.566360000000000      1.603614000000000     -3.667745000000000
H      -2.922636000000000      1.152918000000000     -8.139284000000000
H      -3.850069000000000      2.536411000000000     -7.559077000000000
H      -4.637962000000000      0.932706000000000     -7.684879000000000
