97

C      -1.552373000000000     -2.514577000000000      1.401232000000000
C      -1.217100000000000     -1.193442000000000      1.069291000000000
C      -0.256663000000000     -0.504425000000000      1.825146000000000
C       0.271464000000000     -1.121738000000000      2.979666000000000
C      -0.086378000000000     -2.425244000000000      3.320035000000000
C      -0.982726000000000     -3.119778000000000      2.512078000000000
H      -2.259452000000000     -3.067858000000000      0.791229000000000
H       0.336772000000000     -2.908845000000000      4.192200000000000
H      -1.245490000000000     -4.142341000000000      2.764222000000000
C       0.257676000000000      0.855390000000000      1.467154000000000
C      -0.125715000000000      1.935497000000000      2.288160000000000
C       1.125548000000000      1.094633000000000      0.386731000000000
C       0.312134000000000      3.231173000000000      2.019109000000000
C       1.570535000000000      2.397357000000000      0.131217000000000
C       1.158219000000000      3.449808000000000      0.936968000000000
H       0.002773000000000      4.064905000000000      2.637659000000000
H       2.250266000000000      2.594172000000000     -0.689352000000000
H       1.507318000000000      4.456385000000000      0.728960000000000
P      -1.853673000000000     -0.467329000000000     -0.500012000000000
P       1.576132000000000     -0.292740000000000     -0.761047000000000
C       3.051979000000000      0.346448000000000     -1.667936000000000
C       4.359647000000000     -0.073358000000000     -1.404906000000000
C       2.832455000000000      1.243649000000000     -2.724802000000000
C       5.425254000000000      0.401858000000000     -2.162796000000000
H       4.560950000000000     -0.782823000000000     -0.610471000000000
C       3.889581000000000      1.738623000000000     -3.473695000000000
H       1.816957000000000      1.548978000000000     -2.960276000000000
C       5.193886000000000      1.314918000000000     -3.193068000000000
H       6.436731000000000      0.068803000000000     -1.956802000000000
H       3.713664000000000      2.439657000000000     -4.282496000000000
C       6.295389000000000      1.815731000000000     -3.972051000000000
C       2.333141000000000     -1.468210000000000      0.441171000000000
C       2.068207000000000     -2.834956000000000      0.338557000000000
C       3.137580000000000     -1.000805000000000      1.489166000000000
C       2.566776000000000     -3.726934000000000      1.281660000000000
H       1.445867000000000     -3.205419000000000     -0.468544000000000
C       3.655161000000000     -1.882305000000000      2.425926000000000
H       3.335551000000000      0.063253000000000      1.587262000000000
C       3.352244000000000     -3.246623000000000      2.332475000000000
H       2.338399000000000     -4.785227000000000      1.217685000000000
H       4.273808000000000     -1.522774000000000      3.241920000000000
C       3.828961000000000     -4.147777000000000      3.348731000000000
C      -2.359962000000000      1.233124000000000      0.013246000000000
C      -3.108921000000000      1.436059000000000      1.178109000000000
C      -1.987111000000000      2.333071000000000     -0.762228000000000
C      -3.464068000000000      2.716586000000000      1.573528000000000
H      -3.384474000000000      0.595172000000000      1.805941000000000
C      -2.325094000000000      3.622814000000000     -0.368020000000000
H      -1.401412000000000      2.175675000000000     -1.662546000000000
C      -3.056705000000000      3.814846000000000      0.806552000000000
H      -4.040035000000000      2.876317000000000      2.479295000000000
H      -2.013865000000000      4.479968000000000     -0.955286000000000
C      -3.366077000000000      5.146900000000000      1.255314000000000
C      -3.504108000000000     -1.252519000000000     -0.743129000000000
C      -4.388819000000000     -1.577660000000000      0.295326000000000
C      -3.907913000000000     -1.448101000000000     -2.066326000000000
C      -5.649012000000000     -2.083413000000000      0.012099000000000
H      -4.088053000000000     -1.460001000000000      1.331919000000000
C      -5.175761000000000     -1.937766000000000     -2.363968000000000
H      -3.236668000000000     -1.214979000000000     -2.885325000000000
C      -6.045869000000000     -2.258291000000000     -1.320741000000000
H      -6.332458000000000     -2.343456000000000      0.813285000000000
H      -5.471807000000000     -2.063693000000000     -3.399819000000000
C      -7.358525000000000     -2.776221000000000     -1.607093000000000
H      -0.151661000000000      0.737679000000000     -2.393699000000000
O       1.150847000000000     -0.377447000000000      3.692845000000000
O      -0.950530000000000      1.621753000000000      3.316344000000000
Rh     -0.234079000000000     -0.828277000000000     -2.180216000000000
C      -0.424938000000000     -2.773057000000000     -2.066597000000000
O      -0.601686000000000     -3.902233000000000     -2.058181000000000
C       1.612769000000000     -0.904159000000000      4.918258000000000
H       2.189204000000000     -1.825612000000000      4.769144000000000
H       2.258613000000000     -0.139420000000000      5.349660000000000
H       0.777737000000000     -1.107027000000000      5.598760000000000
C      -1.290869000000000      2.651217000000000      4.219730000000000
H      -1.923484000000000      2.189547000000000      4.977747000000000
H      -0.396206000000000      3.071152000000000      4.693972000000000
H      -1.846501000000000      3.454756000000000      3.720690000000000
N      -8.414460999999999     -3.192948000000000     -1.830030000000000
N      -3.598508000000000      6.214834000000000      1.635640000000000
N       7.180667000000000      2.221365000000000     -4.596663000000000
N       4.197506000000000     -4.858921000000000      4.183884000000000
C       0.409603000000000     -0.930122000000000     -4.239281000000000
C      -1.004043000000000     -0.851818000000000     -4.191041000000000
C      -1.735269000000000      0.409605000000000     -4.566196000000000
O      -2.242234000000000      0.335465000000000     -5.917255000000000
C      -3.352567000000000     -0.395919000000000     -6.078409000000000
C      -3.791327000000000     -0.416570000000000     -7.518224000000000
O      -3.919275000000000     -0.964982000000000     -5.172149000000000
H       0.984897000000000     -0.051145000000000     -4.520273000000000
H       0.895811000000000     -1.873649000000000     -4.469132000000000
H      -1.582418000000000     -1.756185000000000     -4.375935000000000
H      -1.054457000000000      1.264048000000000     -4.565816000000000
H      -2.579504000000000      0.620294000000000     -3.903501000000000
H      -3.012735000000000     -0.881325000000000     -8.128672999999999
H      -3.928066000000000      0.605437000000000     -7.879244000000000
H      -4.720302000000000     -0.977474000000000     -7.606170000000000
