105

C      -1.692051000000000     -2.482756000000000      1.082266000000000
C      -1.183334000000000     -1.203250000000000      0.829018000000000
C      -0.180950000000000     -0.665525000000000      1.655758000000000
C       0.257420000000000     -1.420341000000000      2.764728000000000
C      -0.237115000000000     -2.703439000000000      2.998360000000000
C      -1.208566000000000     -3.225406000000000      2.150553000000000
H      -2.475397000000000     -2.892980000000000      0.454818000000000
H       0.122439000000000     -3.291466000000000      3.834089000000000
H      -1.602768000000000     -4.219237000000000      2.338947000000000
C       0.406370000000000      0.703711000000000      1.476857000000000
C       0.035329000000000      1.682471000000000      2.426312000000000
C       1.308769000000000      1.060047000000000      0.459264000000000
C       0.514540000000000      2.988109000000000      2.336852000000000
C       1.790453000000000      2.372762000000000      0.381283000000000
C       1.387733000000000      3.323689000000000      1.307634000000000
H       0.212139000000000      3.740152000000000      3.055598000000000
H       2.488426000000000      2.651868000000000     -0.399934000000000
H       1.765078000000000      4.339219000000000      1.237203000000000
P      -1.687683000000000     -0.272840000000000     -0.684869000000000
P       1.773437000000000     -0.164533000000000     -0.853734000000000
C       3.317259000000000      0.539945000000000     -1.583951000000000
C       4.608795000000000      0.152323000000000     -1.210494000000000
C       3.163003000000000      1.484760000000000     -2.608812000000000
C       5.718921000000000      0.712130000000000     -1.833551000000000
H       4.758497000000000     -0.596578000000000     -0.441347000000000
C       4.269892000000000      2.060048000000000     -3.219787000000000
H       2.161083000000000      1.755684000000000     -2.928937000000000
C       5.553350000000000      1.671072000000000     -2.830905000000000
H       6.725227000000000      0.415841000000000     -1.556047000000000
H       4.144002000000000      2.796424000000000     -4.005814000000000
C       6.776101000000000      2.241317000000000     -3.457626000000000
C       2.407060000000000     -1.530029000000000      0.212916000000000
C       2.074660000000000     -2.856967000000000     -0.068023000000000
C       3.164056000000000     -1.241872000000000      1.356843000000000
C       2.456818000000000     -3.881757000000000      0.791671000000000
H       1.487078000000000     -3.093493000000000     -0.946660000000000
C       3.554755000000000     -2.259682000000000      2.213405000000000
H       3.408478000000000     -0.211197000000000      1.599608000000000
C       3.180697000000000     -3.577750000000000      1.944217000000000
H       2.172262000000000     -4.907638000000000      0.585970000000000
H       4.123311000000000     -2.048257000000000      3.113593000000000
C       3.531476000000000     -4.614196000000000      2.949824000000000
C      -2.193303000000000      1.333704000000000      0.059038000000000
C      -2.945420000000000      1.341926000000000      1.241745000000000
C      -1.798817000000000      2.543837000000000     -0.514775000000000
C      -3.257289000000000      2.541584000000000      1.861866000000000
H      -3.252923000000000      0.402861000000000      1.694311000000000
C      -2.108687000000000      3.750539000000000      0.105558000000000
H      -1.209207000000000      2.535208000000000     -1.425848000000000
C      -2.817594000000000      3.745761000000000      1.306410000000000
H      -3.817212000000000      2.565357000000000      2.791476000000000
H      -1.774805000000000      4.690149000000000     -0.320689000000000
C      -3.080905000000000      4.993060000000000      2.069423000000000
C      -3.303642000000000     -0.979343000000000     -1.221863000000000
C      -4.501466000000000     -0.258789000000000     -1.151531000000000
C      -3.306003000000000     -2.226495000000000     -1.864098000000000
C      -5.669205000000000     -0.777843000000000     -1.699294000000000
H      -4.528534000000000      0.718713000000000     -0.683764000000000
C      -4.473911000000000     -2.756452000000000     -2.392781000000000
H      -2.380950000000000     -2.785858000000000     -1.963678000000000
C      -5.660315000000000     -2.026024000000000     -2.314099000000000
H      -6.599110000000000     -0.220105000000000     -1.662513000000000
H      -4.464531000000000     -3.721442000000000     -2.886877000000000
C      -6.933535000000000     -2.524510000000000     -2.896472000000000
H       0.049458000000000      1.168840000000000     -2.263850000000000
O       1.177948000000000     -0.821866000000000      3.557773000000000
O      -0.816561000000000      1.268451000000000      3.394534000000000
Rh     -0.025098000000000     -0.410616000000000     -2.348525000000000
C       0.000710000000000     -2.320582000000000     -2.701328000000000
O       0.014665000000000     -3.415421000000000     -3.039666000000000
C       1.577532000000000     -1.497660000000000      4.731545000000000
H       0.716916000000000     -1.696659000000000      5.381201000000000
H       2.091587000000000     -2.439641000000000      4.503847000000000
H       2.270412000000000     -0.827280000000000      5.240562000000000
C      -1.155549000000000      2.187191000000000      4.411717000000000
H      -1.691643000000000      3.056869000000000      4.011929000000000
H      -1.809916000000000      1.646759000000000      5.095871000000000
H      -0.261301000000000      2.523857000000000      4.949762000000000
O      -7.984503000000000     -1.930170000000000     -2.866596000000000
O      -6.809792000000000     -3.736788000000000     -3.472745000000000
H      -7.690343000000000     -3.958945000000000     -3.821282000000000
O      -3.496172000000000      5.025426000000000      3.205278000000000
O      -2.789093000000000      6.110598000000000      1.379094000000000
H      -2.981580000000000      6.856262000000000      1.973963000000000
O       7.906307000000000      1.937423000000000     -3.160803000000000
O       6.501329000000000      3.153781000000000     -4.410245000000000
H       7.361090000000000      3.456655000000000     -4.750396000000000
O       3.970127000000000     -4.376867000000000      4.052057000000000
O       3.293736000000000     -5.867995000000000      2.524894000000000
H       3.541007000000000     -6.457062000000000      3.258940000000000
C       0.266417000000000     -0.036618000000000     -4.478756000000000
C      -1.113729000000000     -0.111727000000000     -4.171419000000000
C      -1.988827000000000      1.111251000000000     -4.120689000000000
O      -2.721177000000000      1.281517000000000     -5.353038000000000
C      -3.806742000000000      0.501541000000000     -5.487850000000000
C      -4.491465000000000      0.752584000000000     -6.806963000000000
O      -4.173145000000000     -0.293005000000000     -4.655392000000000
H       0.721021000000000      0.934661000000000     -4.656673000000000
H       0.763787000000000     -0.863019000000000     -4.977619000000000
H      -1.665263000000000     -1.016254000000000     -4.425549000000000
H      -1.385520000000000      2.016968000000000     -4.021388000000000
H      -2.715990000000000      1.058469000000000     -3.304595000000000
H      -3.811902000000000      0.498671000000000     -7.624667000000000
H      -4.740452000000000      1.812210000000000     -6.901195000000000
H      -5.392996000000000      0.144922000000000     -6.866956000000000
