117

C      -1.393075000000000     -2.574900000000000      0.779994000000000
C      -1.088193000000000     -1.205261000000000      0.736447000000000
C      -0.175280000000000     -0.670029000000000      1.654555000000000
C       0.334682000000000     -1.496653000000000      2.676430000000000
C       0.019149000000000     -2.851924000000000      2.723012000000000
C      -0.831471000000000     -3.384078000000000      1.755993000000000
H      -2.067926000000000     -3.004029000000000      0.046187000000000
H       0.434838000000000     -3.495780000000000      3.488754000000000
H      -1.065283000000000     -4.444237000000000      1.778171000000000
C       0.315108000000000      0.741390000000000      1.599299000000000
C      -0.149408000000000      1.631395000000000      2.586393000000000
C       1.229136000000000      1.198735000000000      0.636417000000000
C       0.247849000000000      2.965964000000000      2.591231000000000
C       1.637196000000000      2.538996000000000      0.658042000000000
C       1.140136000000000      3.408211000000000      1.618437000000000
H      -0.126198000000000      3.658000000000000      3.336052000000000
H       2.349266000000000      2.903541000000000     -0.073221000000000
H       1.457887000000000      4.446712000000000      1.621114000000000
P      -1.682769000000000     -0.188297000000000     -0.683087000000000
P       1.773979000000000      0.074910000000000     -0.737991000000000
C       3.264861000000000      0.918284000000000     -1.418519000000000
C       3.073400000000000      1.981251000000000     -2.313177000000000
C       4.574976000000000      0.525444000000000     -1.131251000000000
C       4.156974000000000      2.645431000000000     -2.873889000000000
H       2.061053000000000      2.284689000000000     -2.565911000000000
C       5.656354000000000      1.183973000000000     -1.712821000000000
H       4.762469000000000     -0.303438000000000     -0.457284000000000
C       5.467957000000000      2.255156000000000     -2.585289000000000
H       3.984294000000000      3.473534000000000     -3.557837000000000
H       6.667616000000000      0.857991000000000     -1.479860000000000
C       6.639567000000000      2.926593000000000     -3.257517000000000
C       2.497801000000000     -1.324952000000000      0.209507000000000
C       2.314776000000000     -2.632528000000000     -0.244898000000000
C       3.232843000000000     -1.119313000000000      1.382863000000000
C       2.845993000000000     -3.709038000000000      0.457158000000000
H       1.747594000000000     -2.811750000000000     -1.151700000000000
C       3.772556000000000     -2.199262000000000      2.074444000000000
H       3.371187000000000     -0.110463000000000      1.764134000000000
C       3.580506000000000     -3.509900000000000      1.627549000000000
H       2.686060000000000     -4.720615000000000      0.090590000000000
H       4.351126000000000     -2.022630000000000      2.978867000000000
C       4.112032000000000     -4.693613000000000      2.399153000000000
C      -2.245923000000000      1.381016000000000      0.099877000000000
C      -3.050834000000000      1.384495000000000      1.243935000000000
C      -1.894398000000000      2.603557000000000     -0.476475000000000
C      -3.489839000000000      2.584212000000000      1.793181000000000
H      -3.317225000000000      0.449298000000000      1.727311000000000
C      -2.331772000000000      3.800369000000000      0.081952000000000
H      -1.263456000000000      2.611478000000000     -1.359996000000000
C      -3.134425000000000      3.810207000000000      1.223249000000000
H      -4.122674000000000      2.570178000000000      2.678379000000000
H      -2.043144000000000      4.743744000000000     -0.376671000000000
C      -3.557426000000000      5.118678000000000      1.845134000000000
C      -3.285023000000000     -0.957205000000000     -1.152517000000000
C      -4.214081000000000     -1.462197000000000     -0.232747000000000
C      -3.622309000000000     -0.953163000000000     -2.508391000000000
C      -5.441149000000000     -1.946920000000000     -0.667696000000000
H      -3.969924000000000     -1.502423000000000      0.825268000000000
C      -4.860667000000000     -1.424600000000000     -2.936761000000000
H      -2.920195000000000     -0.576290000000000     -3.244618000000000
C      -5.785121000000000     -1.931322000000000     -2.024365000000000
H      -6.148060000000000     -2.346541000000000      0.056195000000000
H      -5.094116000000000     -1.391871000000000     -3.998073000000000
C      -7.147044000000000     -2.394876000000000     -2.478467000000000
H       0.091921000000000      1.377955000000000     -2.221617000000000
O       1.155556000000000     -0.883219000000000      3.566499000000000
O      -1.008575000000000      1.096993000000000      3.491219000000000
Rh      0.029829000000000     -0.199401000000000     -2.320530000000000
C      -0.138120000000000     -2.126088000000000     -2.586112000000000
O      -0.310779000000000     -3.235126000000000     -2.810170000000000
C       1.619933000000000     -1.642911000000000      4.655897000000000
H       2.252352000000000     -2.473647000000000      4.319589000000000
H       2.212929000000000     -0.962707000000000      5.268151000000000
H       0.785782000000000     -2.037891000000000      5.248951000000000
C      -1.465659000000000      1.932069000000000      4.527114000000000
H      -2.114319000000000      1.314944000000000      5.149597000000000
H      -0.631478000000000      2.311007000000000      5.130644000000000
H      -2.040009000000000      2.777579000000000      4.128969000000000
H      -7.074392000000000     -2.813294000000000     -3.488194000000000
H      -7.502252000000000     -3.198523000000000     -1.823447000000000
C      -8.158928000000000     -1.242990000000000     -2.473064000000000
H      -8.257994000000000     -0.822700000000000     -1.467422000000000
H      -7.827727000000000     -0.439821000000000     -3.138167000000000
H      -9.145327000000000     -1.580987000000000     -2.804130000000000
H      -3.811383000000000      5.832866000000000      1.053700000000000
H      -4.464118000000000      4.971054000000000      2.442166000000000
C      -2.452115000000000      5.713698000000000      2.724974000000000
H      -1.527760000000000      5.835307000000000      2.150706000000000
H      -2.743284000000000      6.689853000000000      3.123823000000000
H      -2.232902000000000      5.052998000000000      3.570380000000000
H       6.415383000000000      3.987626000000000     -3.415077000000000
H       7.516661000000000      2.879680000000000     -2.602478000000000
C       6.967429000000000      2.267314000000000     -4.602380000000000
H       6.107066000000000      2.320365000000000     -5.276496000000000
H       7.816126000000000      2.758329000000000     -5.087385000000000
H       7.214293000000000      1.210637000000000     -4.461715000000000
H       4.559143000000000     -5.410612000000000      1.701016000000000
H       4.911512000000000     -4.367746000000000      3.073616000000000
C       3.012256000000000     -5.396091000000000      3.203730000000000
H       3.397065000000000     -6.289508000000000      3.703915000000000
H       2.603950000000000     -4.728537000000000      3.969377000000000
H       2.186320000000000     -5.695104000000000      2.550254000000000
C       0.765315000000000      0.110371000000000     -4.321350000000000
C      -0.654029000000000      0.145238000000000     -4.326359000000000
C      -1.408448000000000      1.436129000000000     -4.481686000000000
O      -1.816869000000000      1.646527000000000     -5.856709000000000
C      -2.877590000000000      0.938964000000000     -6.259740000000000
C      -3.197506000000000      1.214569000000000     -7.707044000000000
O      -3.493572000000000      0.175201000000000     -5.551258000000000
H       1.324457000000000      1.039563000000000     -4.402027000000000
H       1.288571000000000     -0.757888000000000     -4.711782000000000
H      -1.194563000000000     -0.716851000000000     -4.715739000000000
H      -0.767356000000000      2.288907000000000     -4.247460000000000
H      -2.306474000000000      1.474546000000000     -3.858601000000000
H      -2.363570000000000      0.883440000000000     -8.331592000000001
H      -3.321632000000000      2.288574000000000     -7.863693000000000
H      -4.105623000000000      0.682108000000000     -7.985507000000000
