93

C      -1.524783000000000     -2.368016000000000      1.312991000000000
C      -1.161891000000000     -1.049244000000000      0.997837000000000
C      -0.240148000000000     -0.371880000000000      1.808846000000000
C       0.220651000000000     -0.990567000000000      2.988263000000000
C      -0.162046000000000     -2.291171000000000      3.307718000000000
C      -1.019400000000000     -2.977555000000000      2.451082000000000
H      -2.202009000000000     -2.916527000000000      0.666592000000000
H       0.212020000000000     -2.779758000000000      4.199041000000000
H      -1.300200000000000     -3.999603000000000      2.685684000000000
C       0.297489000000000      0.976329000000000      1.453570000000000
C      -0.137273000000000      2.082784000000000      2.211499000000000
C       1.174526000000000      1.184435000000000      0.378613000000000
C       0.245549000000000      3.377062000000000      1.871003000000000
C       1.532422000000000      2.494190000000000      0.025458000000000
C       1.067716000000000      3.571464000000000      0.763304000000000
H      -0.103149000000000      4.230652000000000      2.439320000000000
H       2.174531000000000      2.667290000000000     -0.831435000000000
H       1.348821000000000      4.581091000000000      0.480000000000000
P      -1.716482000000000     -0.318043000000000     -0.604621000000000
P       1.722824000000000     -0.212775000000000     -0.707525000000000
C       3.324323000000000      0.397594000000000     -1.382284000000000
C       4.275285000000000      1.083241000000000     -0.611335000000000
C       3.629349000000000      0.106550000000000     -2.713476000000000
C       5.494212000000000      1.463138000000000     -1.155748000000000
H       4.057854000000000      1.351469000000000      0.417628000000000
C       4.848571000000000      0.476211000000000     -3.277674000000000
H       2.909035000000000     -0.410715000000000     -3.334111000000000
C       5.760208000000000      1.147781000000000     -2.483440000000000
H       6.237205000000000      1.999351000000000     -0.575937000000000
H       5.068343000000000      0.251954000000000     -4.314904000000000
F       6.938111000000000      1.518533000000000     -3.004675000000000
C       2.319984000000000     -1.456053000000000      0.520855000000000
C       2.053403000000000     -2.810371000000000      0.311073000000000
C       3.069420000000000     -1.085149000000000      1.644644000000000
C       2.513296000000000     -3.782773000000000      1.196288000000000
H       1.471283000000000     -3.115820000000000     -0.551523000000000
C       3.546409000000000     -2.040905000000000      2.532003000000000
H       3.251570000000000     -0.037046000000000      1.858595000000000
C       3.252484000000000     -3.377171000000000      2.293949000000000
H       2.303253000000000     -4.836000000000000      1.048340000000000
H       4.133918000000000     -1.769781000000000      3.402714000000000
F       3.694021000000000     -4.299147000000000      3.162646000000000
C      -2.257635000000000      1.381380000000000     -0.151789000000000
C      -3.019486000000000      1.623860000000000      0.998124000000000
C      -1.945485000000000      2.448600000000000     -0.996692000000000
C      -3.464687000000000      2.904455000000000      1.298359000000000
H      -3.238619000000000      0.815968000000000      1.689341000000000
C      -2.379785000000000      3.740047000000000     -0.706337000000000
H      -1.344281000000000      2.265958000000000     -1.882385000000000
C      -3.131248000000000      3.943297000000000      0.438289000000000
H      -4.060707000000000      3.111628000000000      2.180731000000000
H      -2.139242000000000      4.581332000000000     -1.346542000000000
F      -3.547995000000000      5.183210000000000      0.735019000000000
C      -3.345446000000000     -1.130308000000000     -0.896035000000000
C      -4.277728000000000     -1.389048000000000      0.118967000000000
C      -3.691080000000000     -1.433357000000000     -2.215846000000000
C      -5.519291000000000     -1.937632000000000     -0.173906000000000
H      -4.026911000000000     -1.185794000000000      1.155517000000000
C      -4.934922000000000     -1.976813000000000     -2.528829000000000
H      -2.972569000000000     -1.235405000000000     -3.005301000000000
C      -5.827328000000000     -2.219609000000000     -1.498832000000000
H      -6.248003000000000     -2.151429000000000      0.599896000000000
H      -5.215047000000000     -2.215614000000000     -3.548571000000000
F      -7.024072000000000     -2.748493000000000     -1.783583000000000
H       0.128825000000000      0.873496000000000     -2.388150000000000
O       1.071851000000000     -0.251065000000000      3.741664000000000
O      -0.970018000000000      1.791103000000000      3.242679000000000
Rh     -0.038868000000000     -0.688175000000000     -2.253435000000000
C      -0.336030000000000     -2.623029000000000     -2.178112000000000
O      -0.605770000000000     -3.735605000000000     -2.147876000000000
C       1.493366000000000     -0.795755000000000      4.971318000000000
H       2.134817000000000     -0.043298000000000      5.430529000000000
H       0.638051000000000     -0.998175000000000      5.627195000000000
H       2.063737000000000     -1.720923000000000      4.823917000000000
C      -1.375509000000000      2.855672000000000      4.072033000000000
H      -2.005836000000000      2.413837000000000      4.844076000000000
H      -0.511925000000000      3.343938000000000      4.539582000000000
H      -1.952725000000000      3.600913000000000      3.511104000000000
C      -0.799964000000000     -0.536640000000000     -4.267218000000000
C       0.611172000000000     -0.664857000000000     -4.306150000000000
C       1.239942000000000     -1.943354000000000     -4.788775000000000
O       1.518216000000000     -1.892133000000000     -6.208202000000000
C       2.623116000000000     -1.224279000000000     -6.558457000000000
C       2.797241000000000     -1.202057000000000     -8.054610000000000
O       3.377033000000000     -0.706337000000000     -5.766238000000000
H      -1.406485000000000     -1.388501000000000     -4.573559000000000
H      -1.266708000000000      0.428925000000000     -4.435797000000000
H       1.210558000000000      0.224110000000000     -4.489285000000000
H       0.546756000000000     -2.781425000000000     -4.681352000000000
H       2.174293000000000     -2.179322000000000     -4.271814000000000
H       1.962561000000000     -0.661154000000000     -8.508231000000000
H       2.782447000000000     -2.221641000000000     -8.446561000000001
H       3.737654000000000     -0.712693000000000     -8.302932000000000
