105

C      -1.880498000000000     -2.175049000000000      1.412162000000000
C      -1.303474000000000     -0.960187000000000      1.022897000000000
C      -0.307780000000000     -0.366178000000000      1.819471000000000
C       0.053332000000000     -0.996936000000000      3.026689000000000
C      -0.506546000000000     -2.218785000000000      3.396432000000000
C      -1.472436000000000     -2.799471000000000      2.581500000000000
H      -2.653469000000000     -2.630205000000000      0.803066000000000
H      -0.209151000000000     -2.712451000000000      4.313102000000000
H      -1.918453000000000     -3.745289000000000      2.873236000000000
C       0.306829000000000      0.968692000000000      1.513468000000000
C      -0.126340000000000      2.051151000000000      2.310366000000000
C       1.249529000000000      1.213538000000000      0.500298000000000
C       0.324944000000000      3.347363000000000      2.075146000000000
C       1.689134000000000      2.524303000000000      0.263692000000000
C       1.224629000000000      3.575029000000000      1.038777000000000
H      -0.026402000000000      4.176732000000000      2.676992000000000
H       2.396294000000000      2.719843000000000     -0.534317000000000
H       1.568380000000000      4.585793000000000      0.841250000000000
P      -1.706373000000000     -0.230176000000000     -0.628167000000000
P       1.810372000000000     -0.120298000000000     -0.649839000000000
C       3.347042000000000      0.570125000000000     -1.391994000000000
C       4.429594000000000      0.993447000000000     -0.605842000000000
C       3.472275000000000      0.613696000000000     -2.778360000000000
C       5.591765000000000      1.456711000000000     -1.202689000000000
H       4.359427000000000      0.961905000000000      0.478467000000000
C       4.650178000000000      1.065903000000000     -3.375320000000000
H       2.652724000000000      0.283576000000000     -3.404907000000000
C       5.721778000000000      1.496512000000000     -2.598760000000000
H       6.420915000000000      1.786201000000000     -0.580547000000000
H       4.717658000000000      1.066014000000000     -4.459527000000000
C       7.000663000000000      1.985997000000000     -3.228152000000000
C       2.566983000000000     -1.357139000000000      0.486514000000000
C       2.800936000000000     -2.649267000000000      0.007797000000000
C       3.017064000000000     -1.030996000000000      1.768705000000000
C       3.442294000000000     -3.596823000000000      0.798147000000000
H       2.493580000000000     -2.914564000000000     -0.999831000000000
C       3.660183000000000     -1.982858000000000      2.554279000000000
H       2.849725000000000     -0.035273000000000      2.167752000000000
C       3.873987000000000     -3.281788000000000      2.088207000000000
H       3.611532000000000     -4.596417000000000      0.405801000000000
H       4.012629000000000     -1.707070000000000      3.546029000000000
C       4.533188000000000     -4.320443000000000      2.958670000000000
C      -2.177361000000000      1.482218000000000     -0.166896000000000
C      -2.975525000000000      1.719251000000000      0.959625000000000
C      -1.748909000000000      2.569646000000000     -0.928785000000000
C      -3.339581000000000      3.014852000000000      1.304198000000000
H      -3.301894000000000      0.885002000000000      1.576241000000000
C      -2.103932000000000      3.866997000000000     -0.566999000000000
H      -1.116912000000000      2.396904000000000     -1.794907000000000
C      -2.896779000000000      4.109986000000000      0.554870000000000
H      -3.971103000000000      3.181975000000000      2.174174000000000
H      -1.748457000000000      4.704542000000000     -1.162055000000000
C      -3.232356000000000      5.517388000000000      0.976080000000000
C      -3.332444000000000     -0.976805000000000     -1.087958000000000
C      -4.552984000000000     -0.304716000000000     -0.983079000000000
C      -3.343042000000000     -2.267450000000000     -1.639042000000000
C      -5.739481000000000     -0.911061000000000     -1.393354000000000
H      -4.591110000000000      0.704807000000000     -0.590187000000000
C      -4.529897000000000     -2.873569000000000     -2.027356000000000
H      -2.410468000000000     -2.807729000000000     -1.765540000000000
C      -5.751888000000000     -2.202790000000000     -1.914616000000000
H      -6.673897000000000     -0.362622000000000     -1.304310000000000
H      -4.506476000000000     -3.879400000000000     -2.439815000000000
C      -7.030690000000000     -2.854285000000000     -2.372894000000000
H       0.121184000000000      0.829633000000000     -2.403053000000000
O       0.963190000000000     -0.335729000000000      3.788830000000000
O      -1.021422000000000      1.740956000000000      3.283491000000000
Rh      0.067116000000000     -0.721978000000000     -2.105440000000000
C       0.067085000000000     -2.644580000000000     -1.794535000000000
O       0.042135000000000     -3.777879000000000     -1.621005000000000
C       1.378418000000000     -0.945134000000000      4.987988000000000
H       0.539762000000000     -1.067406000000000      5.684390000000000
H       1.839327000000000     -1.922387000000000      4.798017000000000
H       2.118111000000000     -0.274371000000000      5.426650000000000
C      -1.436669000000000      2.775086000000000      4.142660000000000
H      -2.125942000000000      2.318142000000000      4.853369000000000
H      -0.586024000000000      3.207703000000000      4.683719000000000
H      -1.956315000000000      3.568561000000000      3.590478000000000
H      -7.114717000000000     -3.874639000000000     -1.986495000000000
H      -7.067823000000000     -2.915134000000000     -3.466015000000000
H      -7.905292000000000     -2.289971000000000     -2.039620000000000
H      -2.461247000000000      5.914079000000000      1.647695000000000
H      -4.186398000000000      5.557998000000000      1.509088000000000
H      -3.291225000000000      6.188083000000000      0.114663000000000
H       7.228825000000000      3.009593000000000     -2.912681000000000
H       6.933286000000000      1.973951000000000     -4.318616000000000
H       7.848651000000000      1.358452000000000     -2.933899000000000
H       5.189604000000000     -3.857877000000000      3.700949000000000
H       5.128588000000000     -5.017785000000000      2.362826000000000
H       3.783586000000000     -4.909077000000000      3.499878000000000
C      -0.845306000000000     -0.935909000000000     -4.053832000000000
C       0.553053000000000     -0.804161000000000     -4.218813000000000
C       1.430618000000000     -1.960720000000000     -4.598980000000000
O       1.632417000000000     -2.028933000000000     -6.033716000000000
C       2.504280000000000     -1.148639000000000     -6.537350000000000
C       2.612945000000000     -1.287222000000000     -8.034727000000000
O       3.119170000000000     -0.346205000000000     -5.872507000000000
H      -1.313573000000000     -1.911785000000000     -4.174616000000000
H      -1.499084000000000     -0.095353000000000     -4.264336000000000
H       0.936502000000000      0.159989000000000     -4.542417000000000
H       0.959395000000000     -2.914365000000000     -4.347878000000000
H       2.415883000000000     -1.900879000000000     -4.127062000000000
H       1.649338000000000     -1.046342000000000     -8.491417000000000
H       2.854205000000000     -2.319821000000000     -8.297342000000000
H       3.380888000000000     -0.610732000000000     -8.406677000000000
