125

C      -1.898659000000000     -2.428890000000000      1.177083000000000
C      -1.333339000000000     -1.164324000000000      0.967582000000000
C      -0.313148000000000     -0.701843000000000      1.817084000000000
C       0.080073000000000     -1.511062000000000      2.901450000000000
C      -0.470595000000000     -2.776887000000000      3.091983000000000
C      -1.458049000000000     -3.227593000000000      2.221456000000000
H      -2.686406000000000     -2.784630000000000      0.521453000000000
H      -0.147978000000000     -3.406966000000000      3.911461000000000
H      -1.894497000000000     -4.210245000000000      2.372505000000000
C       0.302401000000000      0.660930000000000      1.696580000000000
C      -0.093435000000000      1.611222000000000      2.661828000000000
C       1.211694000000000      1.051060000000000      0.699154000000000
C       0.354899000000000      2.928113000000000      2.606813000000000
C       1.655208000000000      2.380938000000000      0.649396000000000
C       1.222245000000000      3.305612000000000      1.586325000000000
H       0.024477000000000      3.659690000000000      3.334676000000000
H       2.340188000000000      2.689158000000000     -0.132401000000000
H       1.565467000000000      4.334389000000000      1.529491000000000
P      -1.796284000000000     -0.197035000000000     -0.541003000000000
P       1.728207000000000     -0.095216000000000     -0.658764000000000
C       3.230865000000000      0.701294000000000     -1.340813000000000
C       4.365768000000000      0.957539000000000     -0.560212000000000
C       3.301583000000000      1.005046000000000     -2.700585000000000
C       5.511525000000000      1.509453000000000     -1.108384000000000
H       4.359740000000000      0.716928000000000      0.500181000000000
C       4.446924000000000      1.543752000000000     -3.272696000000000
H       2.451476000000000      0.801314000000000     -3.340141000000000
C       5.577491000000000      1.823756000000000     -2.484616000000000
H       6.364216000000000      1.684128000000000     -0.463390000000000
H       4.441469000000000      1.719898000000000     -4.340886000000000
N       6.716976000000000      2.385914000000000     -3.036075000000000
C       2.493092000000000     -1.493066000000000      0.252904000000000
C       2.694985000000000     -2.706668000000000     -0.409447000000000
C       2.986284000000000     -1.382177000000000      1.555058000000000
C       3.336303000000000     -3.775603000000000      0.199239000000000
H       2.351149000000000     -2.823522000000000     -1.433374000000000
C       3.628400000000000     -2.442476000000000      2.181495000000000
H       2.845823000000000     -0.460287000000000      2.111489000000000
C       3.822797000000000     -3.668865000000000      1.516445000000000
H       3.452782000000000     -4.696233000000000     -0.358969000000000
H       3.988049000000000     -2.302629000000000      3.194289000000000
N       4.477205000000000     -4.727524000000000      2.130616000000000
C      -2.227321000000000      1.435527000000000      0.162017000000000
C      -2.946322000000000      1.551208000000000      1.357652000000000
C      -1.841848000000000      2.614615000000000     -0.478299000000000
C      -3.289765000000000      2.789258000000000      1.881493000000000
H      -3.221163000000000      0.655474000000000      1.910200000000000
C      -2.165520000000000      3.860823000000000      0.039758000000000
H      -1.254706000000000      2.555082000000000     -1.389934000000000
C      -2.908870000000000      3.980392000000000      1.229009000000000
H      -3.844468000000000      2.822429000000000      2.811878000000000
H      -1.823886000000000      4.743325000000000     -0.486665000000000
N      -3.250247000000000      5.225708000000000      1.737819000000000
C      -3.435328000000000     -0.878147000000000     -1.028818000000000
C      -4.663243000000000     -0.344437000000000     -0.622942000000000
C      -3.482161000000000     -1.981397000000000     -1.890851000000000
C      -5.871594000000000     -0.893004000000000     -1.030606000000000
H      -4.692564000000000      0.536373000000000      0.008650000000000
C      -4.678787000000000     -2.553749000000000     -2.294921000000000
H      -2.557378000000000     -2.406382000000000     -2.266713000000000
C      -5.912750000000000     -2.027535000000000     -1.863741000000000
H      -6.788957000000000     -0.422995000000000     -0.697707000000000
H      -4.645278000000000     -3.403535000000000     -2.965583000000000
N      -7.112976000000000     -2.598589000000000     -2.247888000000000
H      -0.024704000000000      1.108312000000000     -2.196377000000000
O       1.012857000000000     -0.973649000000000      3.732779000000000
O      -0.954754000000000      1.156706000000000      3.610471000000000
Rh     -0.069444000000000     -0.469626000000000     -2.135209000000000
C      -0.078962000000000     -2.415721000000000     -2.108341000000000
O      -0.120991000000000     -3.562233000000000     -2.104408000000000
C       1.439473000000000     -1.750789000000000      4.824174000000000
H       1.897342000000000     -2.689832000000000      4.488093000000000
H       2.185325000000000     -1.151838000000000      5.348581000000000
H       0.608286000000000     -1.975012000000000      5.504477000000000
C      -1.290605000000000      2.030087000000000      4.658851000000000
H      -1.934270000000000      1.462284000000000      5.331738000000000
H      -0.396838000000000      2.363977000000000      5.200844000000000
H      -1.836430000000000      2.906709000000000      4.287623000000000
C      -8.339912000000000     -1.872869000000000     -1.995661000000000
H      -9.181124000000001     -2.455158000000000     -2.373863000000000
H      -8.491737000000001     -1.730747000000000     -0.920564000000000
H      -8.353885999999999     -0.883662000000000     -2.477478000000000
C      -7.105107000000000     -3.586698000000000     -3.306343000000000
H      -6.522810000000000     -4.465778000000000     -3.011431000000000
H      -8.128238000000000     -3.915715000000000     -3.492468000000000
H      -6.685943000000000     -3.197180000000000     -4.246128000000000
C      -2.539196000000000      6.385098000000000      1.237157000000000
H      -2.755731000000000      6.546181000000000      0.176571000000000
H      -2.874814000000000      7.269587000000000      1.780305000000000
H      -1.448583000000000      6.292043000000000      1.354136000000000
C      -3.790970000000000      5.301268000000000      3.076778000000000
H      -4.721590000000000      4.730524000000000      3.149827000000000
H      -3.095371000000000      4.922263000000000      3.843634000000000
H      -4.024216000000000      6.341646000000000      3.308150000000000
C       6.823958000000000      2.446936000000000     -4.479504000000000
H       7.777468000000000      2.905745000000000     -4.745292000000000
H       6.765301000000000      1.454692000000000     -4.951032000000000
H       6.025877000000000      3.067445000000000     -4.898633000000000
C       7.938819000000000      2.385282000000000     -2.260577000000000
H       7.824831000000000      2.989069000000000     -1.354030000000000
H       8.250966999999999      1.373425000000000     -1.960196000000000
H       8.736995000000000      2.831887000000000     -2.855200000000000
C       4.691186000000000     -4.666216000000000      3.559709000000000
H       5.346415000000000     -3.828557000000000      3.819465000000000
H       3.752171000000000     -4.554339000000000      4.125797000000000
H       5.184159000000000     -5.583049000000000      3.886012000000000
C       4.394593000000000     -6.036118000000000      1.515184000000000
H       4.928326000000000     -6.755599000000000      2.137711000000000
H       3.357028000000000     -6.380915000000000      1.389295000000000
H       4.873994000000000     -6.031322000000000      0.531198000000000
C      -1.023567000000000     -0.399904000000000     -4.071483000000000
C       0.370638000000000     -0.221452000000000     -4.241884000000000
C       1.255777000000000     -1.288922000000000     -4.812420000000000
O       1.404026000000000     -1.152177000000000     -6.251549000000000
C       2.234204000000000     -0.188655000000000     -6.660391000000000
C       2.277758000000000     -0.112582000000000     -8.166352000000000
O       2.863363000000000      0.530191000000000     -5.917479000000000
H      -1.479346000000000     -1.352761000000000     -4.337538000000000
H      -1.693403000000000      0.451377000000000     -4.143160000000000
H       0.730983000000000      0.787259000000000     -4.426174000000000
H       0.815891000000000     -2.280921000000000     -4.682463000000000
H       2.257498000000000     -1.268574000000000     -4.372900000000000
H       1.293583000000000      0.180445000000000     -8.541604000000000
H       2.511869000000000     -1.094414000000000     -8.584080999999999
H       3.024429000000000      0.619152000000000     -8.471303000000001
