93

C      -1.627685000000000     -2.629985000000000      1.043457000000000
C      -1.166603000000000     -1.319036000000000      0.877038000000000
C      -0.192522000000000     -0.795484000000000      1.745998000000000
C       0.258481000000000     -1.597232000000000      2.814542000000000
C      -0.197811000000000     -2.906270000000000      2.970550000000000
C      -1.132127000000000     -3.416008000000000      2.075291000000000
H      -2.383175000000000     -3.034125000000000      0.378953000000000
H       0.171484000000000     -3.530761000000000      3.774875000000000
H      -1.483710000000000     -4.435871000000000      2.193978000000000
C       0.357836000000000      0.596500000000000      1.646090000000000
C      -0.056327000000000      1.516851000000000      2.633421000000000
C       1.261668000000000      1.030350000000000      0.660256000000000
C       0.380596000000000      2.840358000000000      2.610623000000000
C       1.693288000000000      2.361958000000000      0.642056000000000
C       1.246303000000000      3.255962000000000      1.604428000000000
H       0.045506000000000      3.549226000000000      3.357839000000000
H       2.385260000000000      2.702829000000000     -0.119698000000000
H       1.577905000000000      4.288953000000000      1.577650000000000
P      -1.673066000000000     -0.317304000000000     -0.586815000000000
P       1.768602000000000     -0.119687000000000     -0.699651000000000
C       3.307876000000000      0.638429000000000     -1.389350000000000
C       4.603382000000000      0.220698000000000     -1.079254000000000
C       3.121973000000000      1.647213000000000     -2.342887000000000
C       5.687019000000000      0.828710000000000     -1.707669000000000
H       4.787796000000000     -0.578312000000000     -0.372327000000000
C       4.222742000000000      2.245057000000000     -2.938964000000000
H       2.117871000000000      1.944922000000000     -2.626261000000000
C       5.521110000000000      1.848225000000000     -2.635426000000000
Br      7.437247000000000      0.249253000000000     -1.288860000000000
Br      3.951540000000000      3.610656000000000     -4.217371000000000
H       6.374210000000000      2.309927000000000     -3.116785000000000
C       2.406512000000000     -1.517650000000000      0.323347000000000
C       1.969534000000000     -2.817802000000000      0.071336000000000
C       3.243586000000000     -1.265290000000000      1.415538000000000
C       2.363297000000000     -3.848236000000000      0.916666000000000
H       1.293008000000000     -3.026756000000000     -0.747505000000000
C       3.658781000000000     -2.322166000000000      2.213811000000000
H       3.550656000000000     -0.252533000000000      1.658729000000000
C       3.218733000000000     -3.622805000000000      1.989122000000000
Br      1.684045000000000     -5.586434000000000      0.633477000000000
Br      4.833148000000000     -1.984680000000000      3.658014000000000
H       3.530031000000000     -4.435678000000000      2.634205000000000
C      -2.239060000000000      1.224335000000000      0.250568000000000
C      -3.069784000000000      1.132620000000000      1.372572000000000
C      -1.800828000000000      2.471039000000000     -0.194128000000000
C      -3.460270000000000      2.293744000000000      2.024499000000000
H      -3.398108000000000      0.166153000000000      1.743066000000000
C      -2.179826000000000      3.612043000000000      0.503526000000000
H      -1.135375000000000      2.544474000000000     -1.047307000000000
C      -3.014903000000000      3.546668000000000      1.612697000000000
Br     -4.616076000000000      2.173281000000000      3.518186000000000
Br     -1.505622000000000      5.291328000000000     -0.038711000000000
H      -3.309929000000000      4.444334000000000      2.142644000000000
C      -3.260738000000000     -1.032565000000000     -1.197847000000000
C      -4.474242000000000     -0.345528000000000     -1.125117000000000
C      -3.202536000000000     -2.239085000000000     -1.906729000000000
C      -5.601496000000000     -0.877973000000000     -1.743033000000000
H      -4.555567000000000      0.605576000000000     -0.614145000000000
C      -4.349170000000000     -2.753005000000000     -2.492707000000000
H      -2.266329000000000     -2.774665000000000     -2.017968000000000
C      -5.565830000000000     -2.084455000000000     -2.424416000000000
Br     -7.226804000000000      0.083933000000000     -1.669722000000000
Br     -4.248856000000000     -4.384423000000000     -3.440692000000000
H      -6.449105000000000     -2.481076000000000     -2.908601000000000
H       0.047297000000000      1.262022000000000     -2.047340000000000
O       1.162035000000000     -1.019394000000000      3.643281000000000
O      -0.913833000000000      1.031658000000000      3.564044000000000
Rh      0.007984000000000     -0.309935000000000     -2.231646000000000
C       0.109041000000000     -2.194297000000000     -2.717433000000000
O       0.185223000000000     -3.261572000000000     -3.122812000000000
C       1.492919000000000     -1.709356000000000      4.829352000000000
H       0.594933000000000     -1.916973000000000      5.423439000000000
H       2.014788000000000     -2.649856000000000      4.613767000000000
H       2.163892000000000     -1.052782000000000      5.382339000000000
C      -1.230899000000000      1.865513000000000      4.657732000000000
H      -0.325076000000000      2.152995000000000      5.205007000000000
H      -1.764170000000000      2.767092000000000      4.332963000000000
H      -1.886672000000000      1.280438000000000      5.301875000000000
C       0.307413000000000      0.209850000000000     -4.333203000000000
C      -1.071738000000000      0.097689000000000     -4.039364000000000
C      -1.961496000000000      1.305845000000000     -3.909520000000000
O      -2.731386000000000      1.513273000000000     -5.110696000000000
C      -3.809689000000000      0.722610000000000     -5.241793000000000
C      -4.541220000000000      1.012628000000000     -6.526282000000000
O      -4.135453000000000     -0.109223000000000     -4.428167000000000
H       0.752807000000000      1.195548000000000     -4.444206000000000
H       0.818601000000000     -0.578060000000000     -4.878110000000000
H      -1.610231000000000     -0.796595000000000     -4.351449000000000
H      -1.368012000000000      2.215353000000000     -3.787568000000000
H      -2.664148000000000      1.209009000000000     -3.076374000000000
H      -3.884619000000000      0.802896000000000     -7.374664000000000
H      -4.810250000000000      2.070616000000000     -6.569895000000000
H      -5.433872000000000      0.391651000000000     -6.581252000000000
