117

C      -1.718046000000000     -2.451367000000000      0.973898000000000
C      -1.236147000000000     -1.141320000000000      0.859941000000000
C      -0.278595000000000     -0.664427000000000      1.772842000000000
C       0.133198000000000     -1.507418000000000      2.827232000000000
C      -0.347056000000000     -2.812357000000000      2.930548000000000
C      -1.262980000000000     -3.277847000000000      1.992679000000000
H      -2.457615000000000     -2.830054000000000      0.277344000000000
H      -0.000558000000000     -3.472585000000000      3.716452000000000
H      -1.626115000000000     -4.298020000000000      2.063182000000000
C       0.321329000000000      0.708566000000000      1.729090000000000
C      -0.075408000000000      1.614595000000000      2.735878000000000
C       1.276016000000000      1.123406000000000      0.785358000000000
C       0.422753000000000      2.915972000000000      2.765783000000000
C       1.780961000000000      2.428763000000000      0.829111000000000
C       1.345846000000000      3.314939000000000      1.804274000000000
H       0.092725000000000      3.621195000000000      3.518992000000000
H       2.523284000000000      2.756045000000000      0.110817000000000
H       1.729653000000000      4.329629000000000      1.821645000000000
P      -1.695995000000000     -0.094592000000000     -0.596634000000000
P       1.750591000000000     -0.019164000000000     -0.589953000000000
C       3.308793000000000      0.675666000000000     -1.276301000000000
C       4.554488000000000      0.063850000000000     -1.154460000000000
C       3.194257000000000      1.804504000000000     -2.099332000000000
C       5.657000000000000      0.579332000000000     -1.838371000000000
H       4.684030000000000     -0.829967000000000     -0.552383000000000
C       4.297528000000000      2.309467000000000     -2.766216000000000
H       2.222391000000000      2.266501000000000     -2.245881000000000
C       5.542954000000000      1.699696000000000     -2.646193000000000
C       6.977455000000000     -0.117712000000000     -1.667255000000000
C       4.133533000000000      3.529281000000000     -3.629860000000000
H       6.396654000000000      2.073470000000000     -3.199435000000000
C       2.331303000000000     -1.463679000000000      0.395994000000000
C       1.821134000000000     -2.735416000000000      0.128260000000000
C       3.177497000000000     -1.288566000000000      1.491877000000000
C       2.140729000000000     -3.805549000000000      0.952040000000000
H       1.129903000000000     -2.885641000000000     -0.691393000000000
C       3.521042000000000     -2.376999000000000      2.290629000000000
H       3.543319000000000     -0.297423000000000      1.750556000000000
C       3.000016000000000     -3.638847000000000      2.034378000000000
C       1.512342000000000     -5.153583000000000      0.737554000000000
C       4.463387000000000     -2.162578000000000      3.441672000000000
H       3.238023000000000     -4.476003000000000      2.683305000000000
C      -2.189571000000000      1.459152000000000      0.260384000000000
C      -3.011079000000000      1.407854000000000      1.387695000000000
C      -1.679461000000000      2.690708000000000     -0.156740000000000
C      -3.337764000000000      2.577475000000000      2.069677000000000
H      -3.376586000000000      0.453398000000000      1.759609000000000
C      -1.971628000000000      3.841914000000000      0.562051000000000
H      -1.016303000000000      2.737555000000000     -1.013746000000000
C      -2.811207000000000      3.799431000000000      1.672195000000000
C      -4.290218000000000      2.500501000000000      3.229103000000000
C      -1.342070000000000      5.156846000000000      0.198185000000000
H      -3.034804000000000      4.704137000000000      2.229250000000000
C      -3.326617000000000     -0.761475000000000     -1.157382000000000
C      -4.548591000000000     -0.113353000000000     -0.964387000000000
C      -3.317757000000000     -1.930575000000000     -1.926245000000000
C      -5.720868000000000     -0.637846000000000     -1.506060000000000
H      -4.606545000000000      0.818233000000000     -0.412140000000000
C      -4.493739000000000     -2.453469000000000     -2.448778000000000
H      -2.383330000000000     -2.440097000000000     -2.138627000000000
C      -5.710669000000000     -1.812618000000000     -2.245542000000000
C      -7.014262000000000      0.081998000000000     -1.236951000000000
C      -4.411052000000000     -3.733229000000000     -3.234161000000000
H      -6.624832000000000     -2.208523000000000     -2.672369000000000
H       0.126887000000000      1.429727000000000     -1.955796000000000
O       1.032241000000000     -0.971493000000000      3.687441000000000
O      -0.978108000000000      1.139243000000000      3.628086000000000
Rh      0.049527000000000     -0.128892000000000     -2.195379000000000
C       0.001115000000000     -2.022872000000000     -2.659813000000000
O      -0.039498000000000     -3.121466000000000     -2.980585000000000
C       1.342640000000000     -1.703706000000000      4.854514000000000
H       1.989954000000000     -1.061376000000000      5.449593000000000
H       0.433884000000000     -1.946206000000000      5.417054000000000
H       1.880522000000000     -2.629282000000000      4.615287000000000
C      -1.257768000000000      1.935332000000000      4.760727000000000
H      -1.916835000000000      1.341320000000000      5.391910000000000
H      -0.336706000000000      2.179106000000000      5.302406000000000
H      -1.771361000000000      2.863250000000000      4.481264000000000
F      -7.986099000000000     -0.313428000000000     -2.067157000000000
F      -6.869463000000000      1.406780000000000     -1.372490000000000
F      -7.438855000000000     -0.139090000000000      0.014933000000000
F      -5.544229000000000     -3.985775000000000     -3.897795000000000
F      -4.170185000000000     -4.778258000000000     -2.429747000000000
F      -3.411176000000000     -3.688765000000000     -4.125483000000000
F      -4.146475000000000      3.544631000000000      4.060657000000000
F      -4.100575000000000      1.382426000000000      3.945577000000000
F      -5.563400000000000      2.492006000000000      2.817740000000000
F      -2.264206000000000      6.066086000000000     -0.144502000000000
F      -0.482065000000000      5.041717000000000     -0.818116000000000
F      -0.669470000000000      5.665799000000000      1.245441000000000
F       4.293556000000000      4.651238000000000     -2.904865000000000
F       2.908918000000000      3.593039000000000     -4.170905000000000
F       5.030359000000000      3.569425000000000     -4.617640000000000
F       6.864982000000000     -1.433764000000000     -1.897942000000000
F       7.436188000000000      0.016416000000000     -0.413618000000000
F       7.912732000000000      0.364314000000000     -2.492842000000000
F       0.911966000000000     -5.581543000000000      1.862727000000000
F       2.424814000000000     -6.078119000000000      0.413093000000000
F       0.589523000000000     -5.130711000000000     -0.229089000000000
F       5.736662000000000     -2.116376000000000      3.035829000000000
F       4.366985000000000     -3.145514000000000      4.350829000000000
F       4.207221000000000     -1.005033000000000      4.069653000000000
C      -0.644576000000000      0.426756000000000     -4.177960000000000
C       0.767611000000000      0.470779000000000     -4.145663000000000
C       1.617108000000000     -0.557336000000000     -4.841454000000000
O       1.976485000000000     -0.108117000000000     -6.165230000000000
C       3.018731000000000      0.734128000000000     -6.231909000000000
C       3.274517000000000      1.177217000000000     -7.647750000000000
O       3.662236000000000      1.080802000000000     -5.269309000000000
H      -1.145646000000000     -0.396927000000000     -4.683580000000000
H      -1.219700000000000      1.345530000000000     -4.130148000000000
H       1.256113000000000      1.439268000000000     -4.064503000000000
H       1.063909000000000     -1.484808000000000     -5.008563000000000
H       2.536178000000000     -0.765159000000000     -4.286620000000000
H       2.386480000000000      1.679164000000000     -8.039809000000000
H       3.468658000000000      0.306709000000000     -8.279149000000000
H       4.127032000000000      1.854420000000000     -7.663234000000000
