125

C      -1.752692000000000     -2.125962000000000      1.388089000000000
C      -1.259319000000000     -0.883882000000000      0.967881000000000
C      -0.316816000000000     -0.201279000000000      1.757784000000000
C       0.067879000000000     -0.763498000000000      2.993374000000000
C      -0.421329000000000     -2.003938000000000      3.399932000000000
C      -1.323697000000000     -2.680684000000000      2.585922000000000
H      -2.482287000000000     -2.655326000000000      0.784070000000000
H      -0.096393000000000     -2.452346000000000      4.330589000000000
H      -1.699739000000000     -3.650070000000000      2.898323000000000
C       0.308704000000000      1.108182000000000      1.381861000000000
C      -0.080001000000000      2.249493000000000      2.112453000000000
C       1.287420000000000      1.245732000000000      0.383444000000000
C       0.448870000000000      3.504442000000000      1.816210000000000
C       1.825379000000000      2.507485000000000      0.101648000000000
C       1.396560000000000      3.623839000000000      0.804973000000000
H       0.125292000000000      4.385404000000000      2.357070000000000
H       2.590329000000000      2.616856000000000     -0.658431000000000
H       1.806502000000000      4.601290000000000      0.570696000000000
P      -1.696810000000000     -0.242171000000000     -0.716452000000000
P       1.770373000000000     -0.231136000000000     -0.622175000000000
C       3.341301000000000      0.239391000000000     -1.451248000000000
C       4.561816000000000     -0.367236000000000     -1.162571000000000
C       3.257240000000000      1.123436000000000     -2.533651000000000
C       5.698437000000000     -0.092948000000000     -1.937162000000000
H       4.633320000000000     -1.094032000000000     -0.361124000000000
C       4.372430000000000      1.416032000000000     -3.316148000000000
H       2.292278000000000      1.542597000000000     -2.803885000000000
C       5.582029000000000      0.781151000000000     -3.017490000000000
C       7.003068000000000     -0.712479000000000     -1.640145000000000
C       4.277328000000000      2.333882000000000     -4.466012000000000
H       6.451224000000000      0.974592000000000     -3.642462000000000
C       2.329708000000000     -1.349754000000000      0.728988000000000
C       1.894134000000000     -2.669803000000000      0.787284000000000
C       3.166023000000000     -0.853776000000000      1.733016000000000
C       2.270552000000000     -3.505314000000000      1.846911000000000
H       1.251842000000000     -3.059252000000000      0.006336000000000
C       3.576501000000000     -1.669065000000000      2.789619000000000
H       3.513572000000000      0.175274000000000      1.681289000000000
C       3.127978000000000     -2.994749000000000      2.823539000000000
C       1.765447000000000     -4.884140000000000      1.968932000000000
C       4.443473000000000     -1.157693000000000      3.867931000000000
H       3.437620000000000     -3.637599000000000      3.646157000000000
C      -2.140346000000000      1.494256000000000     -0.298100000000000
C      -2.957860000000000      1.747655000000000      0.803756000000000
C      -1.639222000000000      2.564949000000000     -1.038440000000000
C      -3.310824000000000      3.055326000000000      1.153637000000000
H      -3.339317000000000      0.915158000000000      1.389522000000000
C      -1.922244000000000      3.884162000000000     -0.671212000000000
H      -0.985261000000000      2.369416000000000     -1.883906000000000
C      -2.783801000000000      4.111535000000000      0.406923000000000
C      -4.223748000000000      3.336520000000000      2.277997000000000
C      -1.281148000000000      4.986625000000000     -1.409332000000000
H      -3.058903000000000      5.131601000000000      0.666113000000000
C      -3.344731000000000     -1.004972000000000     -1.078413000000000
C      -4.560058000000000     -0.337786000000000     -0.914511000000000
C      -3.356556000000000     -2.300918000000000     -1.602761000000000
C      -5.775030000000000     -0.962966000000000     -1.216877000000000
H      -4.577451000000000      0.692743000000000     -0.583436000000000
C      -4.553639000000000     -2.953311000000000     -1.913928000000000
H      -2.416875000000000     -2.804968000000000     -1.797332000000000
C      -5.754037000000000     -2.264873000000000     -1.719651000000000
C      -7.065165000000000     -0.278436000000000     -1.011389000000000
C      -4.585604000000000     -4.325939000000000     -2.452213000000000
H      -6.693651000000000     -2.755339000000000     -1.966435000000000
H       0.174248000000000      0.800102000000000     -2.396713000000000
O       0.946286000000000     -0.033909000000000      3.727289000000000
O      -1.000749000000000      2.042114000000000      3.089364000000000
Rh      0.097393000000000     -0.763910000000000     -2.180436000000000
C       0.005715000000000     -2.694425000000000     -2.049876000000000
O      -0.084902000000000     -3.839798000000000     -2.023416000000000
C       1.235659000000000     -0.487766000000000      5.030525000000000
H       0.317450000000000     -0.593366000000000      5.621306000000000
H       1.772131000000000     -1.444321000000000      5.008843000000000
H       1.880973000000000      0.267589000000000      5.478203000000000
C      -1.247369000000000      3.110042000000000      3.976084000000000
H      -0.316079000000000      3.449111000000000      4.446338000000000
H      -1.729351000000000      3.951770000000000      3.464241000000000
H      -1.928997000000000      2.724650000000000      4.734293000000000
C      -7.267315000000000      0.778885000000000     -0.223905000000000
H      -7.911832000000000     -0.709706000000000     -1.543557000000000
H      -6.470299000000000      1.230735000000000      0.361371000000000
H      -8.251924000000001      1.223818000000000     -0.130025000000000
C      -3.554782000000000     -5.168284000000000     -2.534506000000000
H      -5.562966000000000     -4.658763000000000     -2.798776000000000
H      -2.555581000000000     -4.910938000000000     -2.194248000000000
H      -3.682921000000000     -6.160659000000000     -2.952720000000000
C      -4.519581000000000      2.494655000000000      3.270513000000000
H      -4.670268000000000      4.330408000000000      2.276797000000000
H      -4.071497000000000      1.507130000000000      3.341310000000000
H      -5.211294000000000      2.777815000000000      4.056639000000000
C      -1.058341000000000      6.209915000000000     -0.926870000000000
H      -0.938641000000000      4.741332000000000     -2.413550000000000
H      -1.340783000000000      6.488729000000000      0.084813000000000
H      -0.571885000000000      6.971319000000000     -1.526641000000000
C       3.424203000000000      3.354521000000000     -4.554923000000000
H       4.968514000000000      2.134684000000000     -5.282194000000000
H       2.736886000000000      3.598751000000000     -3.748557000000000
H       3.391678000000000      3.986673000000000     -5.435607000000000
C       7.354775000000000     -1.275283000000000     -0.483295000000000
H       7.730101000000000     -0.673409000000000     -2.450093000000000
H       6.684600000000000     -1.312134000000000      0.371423000000000
H       8.339055000000000     -1.710809000000000     -0.350194000000000
C       0.674630000000000     -5.363352000000000      1.368765000000000
H       2.335422000000000     -5.534607000000000      2.631115000000000
H       0.050294000000000     -4.746816000000000      0.727558000000000
H       0.367453000000000     -6.394292000000000      1.508297000000000
C       4.548625000000000      0.124842000000000      4.220283000000000
H       5.010651000000000     -1.909616000000000      4.415502000000000
H       3.966281000000000      0.901065000000000      3.730195000000000
H       5.211933000000000      0.435389000000000      5.020477000000000
C      -0.492294000000000     -0.839907000000000     -4.266876000000000
C       0.917023000000000     -0.738378000000000     -4.177330000000000
C       1.828936000000000     -1.890773000000000     -4.486096000000000
O       2.125628000000000     -1.961168000000000     -5.902067000000000
C       3.097468000000000     -1.156091000000000     -6.350642000000000
C       3.266848000000000     -1.300187000000000     -7.842676000000000
O       3.745999000000000     -0.415812000000000     -5.650136000000000
H      -0.947627000000000     -1.792663000000000     -4.532528000000000
H      -1.085083000000000      0.030083000000000     -4.529711000000000
H       1.379415000000000      0.228540000000000     -4.365627000000000
H       1.352511000000000     -2.849866000000000     -4.270441000000000
H       2.772681000000000     -1.808921000000000     -3.938448000000000
H       2.351041000000000     -0.976650000000000     -8.344393999999999
H       3.431782000000000     -2.348913000000000     -8.100398000000000
H       4.107279000000000     -0.691216000000000     -8.172404000000000
