109

C       1.501502000000000      2.372032000000000      1.453314000000000
C       1.183445000000000      1.070634000000000      1.036938000000000
C       0.318584000000000      0.279880000000000      1.808961000000000
C      -0.137973000000000      0.781940000000000      3.046755000000000
C       0.212777000000000      2.062030000000000      3.472998000000000
C       1.016539000000000      2.856512000000000      2.659720000000000
H       2.133550000000000      3.004501000000000      0.838133000000000
H      -0.146622000000000      2.451473000000000      4.417680000000000
H       1.271955000000000      3.861466000000000      2.981227000000000
C      -0.165213000000000     -1.074456000000000      1.390468000000000
C       0.320423000000000     -2.189413000000000      2.103945000000000
C      -1.092355000000000     -1.282911000000000      0.354332000000000
C      -0.073091000000000     -3.482971000000000      1.765863000000000
C      -1.480129000000000     -2.585372000000000      0.019710000000000
C      -0.967111000000000     -3.670153000000000      0.716513000000000
H       0.309981000000000     -4.339504000000000      2.306985000000000
H      -2.194060000000000     -2.757113000000000     -0.777470000000000
H      -1.274318000000000     -4.675872000000000      0.447625000000000
P       1.713899000000000      0.489939000000000     -0.629710000000000
P      -1.696492000000000      0.146592000000000     -0.658455000000000
C      -3.251923000000000     -0.468157000000000     -1.436223000000000
C      -4.527427000000000     -0.129935000000000     -0.989726000000000
C      -3.141162000000000     -1.249651000000000     -2.598509000000000
C      -5.665370000000000     -0.581603000000000     -1.670813000000000
H      -4.687477000000000      0.495662000000000     -0.118019000000000
C      -4.269584000000000     -1.707717000000000     -3.268799000000000
H      -2.154795000000000     -1.495824000000000     -2.986290000000000
C      -5.541653000000000     -1.375840000000000     -2.802323000000000
C      -7.009347000000000     -0.193823000000000     -1.172019000000000
C      -4.125631000000000     -2.518891000000000     -4.509388000000000
H      -6.412249000000000     -1.732457000000000     -3.348090000000000
C      -2.337510000000000      1.238538000000000      0.680358000000000
C      -2.057042000000000      2.607153000000000      0.663963000000000
C      -3.062122000000000      0.716988000000000      1.753192000000000
C      -2.484012000000000      3.439256000000000      1.696950000000000
H      -1.473604000000000      3.029865000000000     -0.149352000000000
C      -3.524131000000000      1.555283000000000      2.773449000000000
H      -3.270843000000000     -0.348169000000000      1.829778000000000
C      -3.230788000000000      2.914529000000000      2.752004000000000
C      -2.098334000000000      4.872088000000000      1.697217000000000
C      -4.284830000000000      0.974430000000000      3.909253000000000
H      -3.559760000000000      3.579876000000000      3.547775000000000
C       2.356685000000000     -1.200067000000000     -0.254937000000000
C       3.188598000000000     -1.431012000000000      0.848512000000000
C       1.975955000000000     -2.282900000000000     -1.040519000000000
C       3.627701000000000     -2.715043000000000      1.155602000000000
H       3.462871000000000     -0.615508000000000      1.513878000000000
C       2.399411000000000     -3.579699000000000     -0.722378000000000
H       1.317976000000000     -2.144806000000000     -1.893401000000000
C       3.224614000000000     -3.799816000000000      0.372090000000000
C       4.483212000000000     -2.931269000000000      2.347914000000000
C       1.907962000000000     -4.723885000000000     -1.531659000000000
H       3.558358000000000     -4.799537000000000      0.642550000000000
C       3.286628000000000      1.411691000000000     -0.933833000000000
C       4.263124000000000      1.661431000000000      0.036081000000000
C       3.518431000000000      1.846116000000000     -2.239343000000000
C       5.449002000000000      2.316876000000000     -0.297696000000000
H       4.122028000000000      1.381487000000000      1.076338000000000
C       4.702974000000000      2.506624000000000     -2.578997000000000
H       2.771144000000000      1.675749000000000     -3.010475000000000
C       5.671733000000000      2.738922000000000     -1.608435000000000
C       6.468090000000000      2.560200000000000      0.755770000000000
C       4.906122000000000      2.968069000000000     -3.977184000000000
H       6.596249000000000      3.254107000000000     -1.867224000000000
H      -0.001076000000000     -0.755204000000000     -2.394379000000000
O      -0.952210000000000     -0.043736000000000      3.745040000000000
O       1.200354000000000     -1.911982000000000      3.099152000000000
Rh     -0.021479000000000      0.806536000000000     -2.190784000000000
C       0.046859000000000      2.757993000000000     -2.068123000000000
O       0.178707000000000      3.894437000000000     -2.016636000000000
C      -1.307290000000000      0.334939000000000      5.057146000000000
H      -1.942610000000000     -0.463407000000000      5.438630000000000
H      -0.416242000000000      0.447992000000000      5.685883000000000
H      -1.871258000000000      1.276673000000000      5.062273000000000
C       1.571229000000000     -2.973518000000000      3.954536000000000
H       2.221863000000000     -2.536911000000000      4.712732000000000
H       0.690068000000000     -3.415034000000000      4.434374000000000
H       2.121305000000000     -3.754421000000000      3.415617000000000
O       6.339113000000000      2.211284000000000      1.904388000000000
H       7.380340000000000      3.092892000000000      0.417529000000000
O       4.089607000000000      2.825522000000000     -4.854326000000000
H       5.876862000000000      3.467919000000000     -4.174161000000000
O       4.824808000000000     -4.022908000000000      2.739080000000000
H       4.789653000000000     -2.008497000000000      2.882234000000000
O       1.130903000000000     -4.614605000000000     -2.449444000000000
H       2.298174000000000     -5.717289000000000     -1.228072000000000
O      -5.064864000000000     -3.001342000000000     -5.093489000000000
H      -3.085610000000000     -2.661959000000000     -4.861179000000000
O      -7.191755000000000      0.506320000000000     -0.204650000000000
H      -7.861238000000000     -0.595770000000000     -1.757489000000000
O      -2.373180000000000      5.638267000000000      2.589759000000000
H      -1.516117000000000      5.203749000000000      0.812724000000000
O      -4.459157000000000     -0.210312000000000      4.065972000000000
H      -4.681228000000000      1.713854000000000      4.636062000000000
C       0.627126000000000      0.911728000000000     -4.266479000000000
C      -0.769626000000000      0.707068000000000     -4.211266000000000
C      -1.763336000000000      1.780946000000000     -4.549146000000000
O      -2.104200000000000      1.765405000000000     -5.954829000000000
C      -2.922664000000000      0.780125000000000     -6.344497000000000
C      -3.199298000000000      0.847570000000000     -7.822941000000000
O      -3.372803000000000     -0.053215000000000     -5.591107000000000
H       1.018505000000000      1.891156000000000     -4.539019000000000
H       1.284274000000000      0.082616000000000     -4.510265000000000
H      -1.141913000000000     -0.293775000000000     -4.408339000000000
H      -1.346848000000000      2.777774000000000     -4.385351000000000
H      -2.686786000000000      1.664646000000000     -3.973407000000000
H      -2.264481000000000      0.713373000000000     -8.373481000000000
H      -3.597002000000000      1.831504000000000     -8.082196000000000
H      -3.908586000000000      0.067000000000000     -8.093377000000000
