93

C      -1.516816000000000     -2.347843000000000      1.383812000000000
C      -1.214327000000000     -1.018767000000000      1.051819000000000
C      -0.313520000000000     -0.287680000000000      1.840444000000000
C       0.181257000000000     -0.871476000000000      3.026357000000000
C      -0.153063000000000     -2.180429000000000      3.370780000000000
C      -0.982339000000000     -2.917992000000000      2.530274000000000
H      -2.169322000000000     -2.936854000000000      0.747189000000000
H       0.243902000000000     -2.637737000000000      4.268834000000000
H      -1.216485000000000     -3.947654000000000      2.780886000000000
C       0.180324000000000      1.079755000000000      1.483926000000000
C      -0.276878000000000      2.162462000000000      2.260570000000000
C       1.100150000000000      1.322702000000000      0.448334000000000
C       0.144098000000000      3.464098000000000      1.991211000000000
C       1.524491000000000      2.631244000000000      0.190353000000000
C       1.041566000000000      3.686768000000000      0.952470000000000
H      -0.219076000000000      4.299409000000000      2.577194000000000
H       2.242451000000000      2.831276000000000     -0.595783000000000
H       1.371812000000000      4.698562000000000      0.740134000000000
P      -1.788536000000000     -0.334638000000000     -0.559590000000000
P       1.631190000000000     -0.077257000000000     -0.644445000000000
C       3.125340000000000      0.545041000000000     -1.525628000000000
C       4.404674000000000      0.036754000000000     -1.294481000000000
C       2.931722000000000      1.477018000000000     -2.553363000000000
C       5.466121000000000      0.477858000000000     -2.080934000000000
H       4.592786000000000     -0.701675000000000     -0.524399000000000
C       4.013198000000000      1.903491000000000     -3.308226000000000
H       1.938052000000000      1.852492000000000     -2.776973000000000
C       5.296091000000000      1.414181000000000     -3.089277000000000
Cl      7.056863000000000     -0.168915000000000     -1.789806000000000
Cl      3.752454000000000      3.039457000000000     -4.597528000000000
H       6.128361000000000      1.733829000000000     -3.704216000000000
C       2.356630000000000     -1.201012000000000      0.626078000000000
C       2.040947000000000     -2.558041000000000      0.610930000000000
C       3.175164000000000     -0.682558000000000      1.635418000000000
C       2.532959000000000     -3.383319000000000      1.617229000000000
H       1.392136000000000     -2.969770000000000     -0.153491000000000
C       3.674574000000000     -1.537081000000000      2.607866000000000
H       3.409897000000000      0.377183000000000      1.673557000000000
C       3.354399000000000     -2.892526000000000      2.624679000000000
Cl      2.081425000000000     -5.062165000000000      1.640811000000000
Cl      4.712954000000000     -0.901089000000000      3.853560000000000
H       3.737612000000000     -3.545881000000000      3.400091000000000
C      -2.359493000000000      1.362698000000000     -0.098869000000000
C      -3.223649000000000      1.550295000000000      0.983045000000000
C      -1.903072000000000      2.462262000000000     -0.825199000000000
C      -3.624733000000000      2.836232000000000      1.317013000000000
H      -3.567093000000000      0.717348000000000      1.585531000000000
C      -2.297993000000000      3.739765000000000     -0.444260000000000
H      -1.223039000000000      2.325340000000000     -1.658988000000000
C      -3.163356000000000      3.950343000000000      0.622890000000000
Cl     -4.730860000000000      3.066580000000000      2.645044000000000
Cl     -1.677544000000000      5.116186000000000     -1.308301000000000
H      -3.473251000000000      4.950554000000000      0.902568000000000
C      -3.403994000000000     -1.176914000000000     -0.863016000000000
C      -4.314647000000000     -1.522241000000000      0.141544000000000
C      -3.720929000000000     -1.421745000000000     -2.200336000000000
C      -5.528447000000000     -2.098569000000000     -0.210280000000000
H      -4.081170000000000     -1.378500000000000      1.191092000000000
C      -4.949121000000000     -1.992900000000000     -2.520707000000000
H      -3.007420000000000     -1.172027000000000     -2.980937000000000
C      -5.867969000000000     -2.339264000000000     -1.538695000000000
Cl     -6.657138000000000     -2.539569000000000      1.038591000000000
Cl     -5.339227000000000     -2.295507000000000     -4.187822000000000
H      -6.818214000000000     -2.791671000000000     -1.796740000000000
H      -0.051110000000000      0.864464000000000     -2.375700000000000
O       1.009139000000000     -0.091922000000000      3.761844000000000
O      -1.153979000000000      1.845818000000000      3.243510000000000
Rh     -0.080168000000000     -0.694946000000000     -2.141549000000000
C      -0.278394000000000     -2.639480000000000     -1.990029000000000
O      -0.501393000000000     -3.759733000000000     -1.927941000000000
C       1.423142000000000     -0.582553000000000      5.019248000000000
H       2.024003000000000     -1.494052000000000      4.914364000000000
H       2.039185000000000      0.200671000000000      5.459651000000000
H       0.559397000000000     -0.786428000000000      5.663230000000000
C      -1.536636000000000      2.874587000000000      4.131345000000000
H      -2.065338000000000      3.679028000000000      3.606676000000000
H      -2.213486000000000      2.415258000000000      4.851144000000000
H      -0.663537000000000      3.288197000000000      4.650126000000000
C      -0.600788000000000     -0.778062000000000     -4.253327000000000
C       0.803802000000000     -0.719337000000000     -4.097559000000000
C       1.687328000000000     -1.909867000000000     -4.348059000000000
O       2.165305000000000     -1.925487000000000     -5.709742000000000
C       3.206689000000000     -1.118483000000000     -5.969172000000000
C       3.594589000000000     -1.186316000000000     -7.423326000000000
O       3.748804000000000     -0.432112000000000     -5.136069000000000
H      -1.066360000000000     -1.720907000000000     -4.538111000000000
H      -1.151533000000000      0.107520000000000     -4.553760000000000
H       1.307805000000000      0.229240000000000     -4.269858000000000
H       1.131503000000000     -2.845374000000000     -4.243125000000000
H       2.553517000000000     -1.914591000000000     -3.680042000000000
H       2.765435000000000     -0.824676000000000     -8.037117000000000
H       3.790646000000000     -2.222306000000000     -7.709247000000000
H       4.477624000000000     -0.571607000000000     -7.590295000000000
