101

C      -2.012884000000000      1.721170000000000     -1.990110000000000
C      -1.384521000000000      0.694863000000000     -1.278900000000000
C      -0.420609000000000     -0.120262000000000     -1.907198000000000
C      -0.151572000000000      0.100184000000000     -3.273449000000000
C      -0.776298000000000      1.131172000000000     -3.975338000000000
C      -1.700538000000000      1.938932000000000     -3.326735000000000
H      -2.760497000000000      2.344636000000000     -1.512668000000000
H      -0.549005000000000      1.296592000000000     -5.021566000000000
H      -2.191989000000000      2.737775000000000     -3.872389000000000
C       0.200653000000000     -1.329442000000000     -1.266627000000000
C      -0.252381000000000     -2.578610000000000     -1.755013000000000
C       1.173100000000000     -1.324331000000000     -0.247975000000000
C       0.216857000000000     -3.777598000000000     -1.220400000000000
C       1.614253000000000     -2.537619000000000      0.301519000000000
C       1.136846000000000     -3.747805000000000     -0.179065000000000
H      -0.138633000000000     -4.728771000000000     -1.597193000000000
H       2.334940000000000     -2.541846000000000      1.110384000000000
H       1.484526000000000     -4.677811000000000      0.259039000000000
P      -1.697547000000000      0.474391000000000      0.527484000000000
P       1.775359000000000      0.240725000000000      0.525372000000000
C       3.290087000000000     -0.307019000000000      1.427919000000000
C       3.320156000000000     -0.189945000000000      2.812723000000000
C       4.412505000000000     -0.802426000000000      0.756639000000000
C       4.464881000000000     -0.559580000000000      3.531449000000000
H       2.460887000000000      0.210358000000000      3.334654000000000
C       5.547966000000000     -1.179214000000000      1.475563000000000
H       4.414621000000000     -0.903119000000000     -0.325272000000000
C       5.582695000000000     -1.057491000000000      2.869713000000000
C       4.478719000000000     -0.407084000000000      4.963428000000000
C       6.694513000000000     -1.694555000000000      0.774044000000000
H       6.471703000000000     -1.340776000000000      3.421831000000000
C       2.594688000000000      1.134280000000000     -0.864756000000000
C       3.050867000000000      2.431473000000000     -0.618874000000000
C       2.788004000000000      0.572848000000000     -2.124215000000000
C       3.676952000000000      3.165655000000000     -1.629134000000000
H       2.926435000000000      2.880767000000000      0.363302000000000
C       3.393007000000000      1.321778000000000     -3.140451000000000
H       2.455166000000000     -0.435333000000000     -2.346079000000000
C       3.842384000000000      2.619982000000000     -2.904126000000000
C       4.136753000000000      4.502313000000000     -1.356862000000000
C       3.531933000000000      0.739998000000000     -4.449931000000000
H       4.310592000000000      3.196655000000000     -3.693646000000000
C      -2.195960000000000     -1.299431000000000      0.555121000000000
C      -3.051095000000000     -1.805406000000000     -0.427345000000000
C      -1.656126000000000     -2.162489000000000      1.506264000000000
C      -3.379585000000000     -3.163198000000000     -0.441409000000000
H      -3.443398000000000     -1.156414000000000     -1.206207000000000
C      -1.962282000000000     -3.527543000000000      1.466675000000000
H      -0.966559000000000     -1.782698000000000      2.254469000000000
C      -2.830199000000000     -4.036119000000000      0.500489000000000
C      -4.246386000000000     -3.669615000000000     -1.472953000000000
C      -1.323511000000000     -4.423801000000000      2.393974000000000
H      -3.064370000000000     -5.094643000000000      0.472719000000000
C      -3.311561000000000      1.327986000000000      0.834742000000000
C      -4.523545000000000      0.662909000000000      1.022884000000000
C      -3.287851000000000      2.719747000000000      0.982996000000000
C      -5.689153000000000      1.377458000000000      1.329581000000000
H      -4.589161000000000     -0.416317000000000      0.951209000000000
C      -4.454884000000000      3.431535000000000      1.268124000000000
H      -2.354974000000000      3.266043000000000      0.885595000000000
C      -5.668958000000000      2.765181000000000      1.446200000000000
C      -6.922615000000000      0.661148000000000      1.525552000000000
C      -4.395285000000000      4.864019000000000      1.399643000000000
H      -6.572945000000000      3.314997000000000      1.681823000000000
H       0.139699000000000     -0.008829000000000      2.561421000000000
O       0.742278000000000     -0.741091000000000     -3.852018000000000
O      -1.188862000000000     -2.525343000000000     -2.733169000000000
Rh      0.116706000000000      1.339681000000000      1.732593000000000
C       0.188548000000000      3.034423000000000      0.746862000000000
O       0.248909000000000      4.000768000000000      0.140102000000000
C       0.652177000000000     -0.932488000000000     -5.256193000000000
H       0.992764000000000     -0.051808000000000     -5.807489000000000
H       1.320834000000000     -1.761025000000000     -5.487230000000000
H      -0.377290000000000     -1.182678000000000     -5.536284000000000
C      -1.523122000000000     -3.731358000000000     -3.395205000000000
H      -2.249795000000000     -3.462454000000000     -4.161019000000000
H      -0.635274000000000     -4.179433000000000     -3.855937000000000
H      -1.983769000000000     -4.452901000000000     -2.711231000000000
N      -7.909589000000000      0.078821000000000      1.679850000000000
N      -4.338792000000000      6.014320000000000      1.503138000000000
N      -4.920017000000000     -4.074562000000000     -2.321733000000000
N      -0.787980000000000     -5.145201000000000      3.122262000000000
N       7.609977000000000     -2.111762000000000      0.203711000000000
N       4.480535000000000     -0.295753000000000      6.114521000000000
N       4.502936000000000      5.576289000000000     -1.134173000000000
N       3.630736000000000      0.274993000000000     -5.504708000000000
C      -0.677036000000000      2.224954000000000      3.556493000000000
C       0.728824000000000      2.212203000000000      3.634623000000000
C       1.555038000000000      3.472117000000000      3.517666000000000
O       2.172019000000000      3.772086000000000      4.780857000000000
C       3.302681000000000      3.086033000000000      5.022286000000000
C       3.888705000000000      3.385384000000000      6.373375000000000
O       3.789692000000000      2.319060000000000      4.221644000000000
H      -1.194783000000000      3.162961000000000      3.362547000000000
H      -1.260974000000000      1.483549000000000      4.091478000000000
H       1.196658000000000      1.445840000000000      4.247152000000000
H       0.922866000000000      4.334187000000000      3.285817000000000
H       2.347696000000000      3.385165000000000      2.772257000000000
H       3.177574000000000      3.910575000000000      7.009675000000000
H       4.780726000000000      4.003461000000000      6.238252000000000
H       4.197939000000000      2.442106000000000      6.829092000000000
