117

C       2.130833000000000      2.553392000000000     -0.450127000000000
C       1.527293000000000      1.432326000000000      0.137003000000000
C       0.496877000000000      1.596115000000000      1.076345000000000
C       0.109007000000000      2.907670000000000      1.427467000000000
C       0.734745000000000      4.020177000000000      0.863940000000000
C       1.740152000000000      3.831164000000000     -0.078320000000000
H       2.898496000000000      2.428343000000000     -1.206319000000000
H       0.430984000000000      5.024861000000000      1.133817000000000
H       2.218898000000000      4.694620000000000     -0.529864000000000
C      -0.202977000000000      0.479981000000000      1.799439000000000
C       0.172503000000000      0.290697000000000      3.146189000000000
C      -1.240781000000000     -0.306490000000000      1.271254000000000
C      -0.482399000000000     -0.636698000000000      3.955029000000000
C      -1.909004000000000     -1.219095000000000      2.098673000000000
C      -1.532163000000000     -1.377286000000000      3.424783000000000
H      -0.186326000000000     -0.785751000000000      4.986087000000000
H      -2.740382000000000     -1.799795000000000      1.720783000000000
H      -2.050330000000000     -2.095723000000000      4.051951000000000
P       1.841376000000000     -0.230604000000000     -0.586163000000000
P      -1.666564000000000     -0.118114000000000     -0.522064000000000
C      -3.051146000000000     -1.290508000000000     -0.818467000000000
C      -4.174167000000000     -0.880450000000000     -1.539240000000000
C      -2.912208000000000     -2.648822000000000     -0.506097000000000
C      -5.146938000000000     -1.804547000000000     -1.924064000000000
H      -4.296948000000000      0.156997000000000     -1.833978000000000
C      -3.913208000000000     -3.558922000000000     -0.847893000000000
H      -2.027271000000000     -3.017544000000000      0.008221000000000
C      -5.030643000000000     -3.142491000000000     -1.572752000000000
C      -6.317002000000000     -1.404360000000000     -2.755121000000000
C      -3.771795000000000     -4.969491000000000     -0.400740000000000
H      -5.802538000000000     -3.841714000000000     -1.873947000000000
C      -2.520679000000000      1.509160000000000     -0.379152000000000
C      -1.923774000000000      2.637787000000000     -0.933862000000000
C      -3.637178000000000      1.667469000000000      0.446837000000000
C      -2.406895000000000      3.912228000000000     -0.627370000000000
H      -1.036208000000000      2.541054000000000     -1.552508000000000
C      -4.144962000000000      2.936604000000000      0.716307000000000
H      -4.116611000000000      0.809701000000000      0.913027000000000
C      -3.517170000000000      4.068121000000000      0.195953000000000
C      -1.686469000000000      5.132959000000000     -1.075732000000000
C      -5.332089000000000      3.033474000000000      1.609368000000000
H      -3.870891000000000      5.065147000000000      0.437180000000000
C       2.070218000000000     -1.295881000000000      0.896762000000000
C       2.959438000000000     -0.990124000000000      1.928060000000000
C       1.207867000000000     -2.378624000000000      1.048540000000000
C       2.961667000000000     -1.756757000000000      3.096833000000000
H       3.628116000000000     -0.138884000000000      1.861818000000000
C       1.173227000000000     -3.109689000000000      2.232899000000000
H       0.510005000000000     -2.619492000000000      0.256275000000000
C       2.050841000000000     -2.800414000000000      3.266349000000000
C       3.880298000000000     -1.442162000000000      4.223347000000000
C       0.105589000000000     -4.133711000000000      2.435132000000000
H       2.017707000000000     -3.351332000000000      4.201430000000000
C       3.537338000000000     -0.125157000000000     -1.292424000000000
C       4.619534000000000      0.509815000000000     -0.677487000000000
C       3.736072000000000     -0.760979000000000     -2.520583000000000
C       5.880833000000000      0.494070000000000     -1.274303000000000
H       4.506385000000000      1.052126000000000      0.257231000000000
C       4.999627000000000     -0.777240000000000     -3.114052000000000
H       2.893062000000000     -1.237720000000000     -3.014439000000000
C       6.078077000000000     -0.153447000000000     -2.492797000000000
C       6.986956000000000      1.196831000000000     -0.565782000000000
C       5.238675000000000     -1.441684000000000     -4.425839000000000
H       7.052768000000000     -0.171159000000000     -2.968398000000000
H      -0.166872000000000     -2.012049000000000     -1.443504000000000
O      -0.924278000000000      3.001313000000000      2.297877000000000
O       1.208253000000000      1.054570000000000      3.573720000000000
Rh      0.037263000000000     -0.589145000000000     -2.081206000000000
C       0.457644000000000      1.091056000000000     -3.012800000000000
O       0.800894000000000      2.024960000000000     -3.577204000000000
C      -1.286842000000000      4.289053000000000      2.756083000000000
H      -1.584224000000000      4.944138000000000      1.928958000000000
H      -2.137960000000000      4.139309000000000      3.420560000000000
H      -0.461626000000000      4.752850000000000      3.309599000000000
C       1.599464000000000      0.933729000000000      4.924511000000000
H       2.459876000000000      1.591434000000000      5.046248000000000
H       0.793263000000000      1.249329000000000      5.597521000000000
H       1.887884000000000     -0.095288000000000      5.170788000000000
O       6.861824000000000      1.786121000000000      0.480181000000000
O       8.160081999999999      1.110241000000000     -1.216737000000000
H       8.810532000000000      1.594480000000000     -0.678885000000000
O       6.309292000000000     -1.493882000000000     -4.979472000000000
O       4.122536000000000     -1.985626000000000     -4.944437000000000
H       4.379949000000000     -2.391188000000000     -5.790667000000000
O       3.872773000000000     -2.002135000000000      5.293985000000000
O       4.728795000000000     -0.435454000000000      3.941648000000000
H       5.283691000000000     -0.314017000000000      4.731635000000000
O      -0.125695000000000     -4.681385000000000      3.485547000000000
O      -0.587787000000000     -4.339708000000000      1.308039000000000
H      -1.346820000000000     -4.938820000000000      1.449674000000000
O      -2.946200000000000     -5.376649000000000      0.389759000000000
O      -4.680451000000000     -5.787097000000000     -0.948514000000000
H      -4.518638000000000     -6.672442000000000     -0.577777000000000
O      -7.158808000000000     -2.169410000000000     -3.157195000000000
O      -6.356176000000000     -0.083524000000000     -2.998402000000000
H      -7.128193000000000      0.063245000000000     -3.571239000000000
O      -1.816416000000000      6.222927000000000     -0.567710000000000
O      -0.846617000000000      4.900251000000000     -2.096635000000000
H      -0.398407000000000      5.742214000000000     -2.289097000000000
O      -5.922807000000000      2.087123000000000      2.068307000000000
O      -5.687819000000000      4.306635000000000      1.865926000000000
H      -6.467290000000000      4.260800000000000      2.446699000000000
C       0.334536000000000     -1.772175000000000     -3.880244000000000
C      -1.038533000000000     -1.467205000000000     -3.715779000000000
C      -1.720129000000000     -0.466152000000000     -4.607675000000000
O      -2.290855000000000     -1.111929000000000     -5.768090000000000
C      -3.541872000000000     -1.573969000000000     -5.637708000000000
C      -3.996349000000000     -2.276040000000000     -6.890571000000000
O      -4.209792000000000     -1.438999000000000     -4.639314000000000
H       0.906773000000000     -1.249802000000000     -4.645780000000000
H       0.709414000000000     -2.759659000000000     -3.632296000000000
H      -1.708918000000000     -2.229150000000000     -3.317978000000000
H      -0.999652000000000      0.245139000000000     -5.019746000000000
H      -2.516678000000000      0.073216000000000     -4.088084000000000
H      -3.363249000000000     -3.149633000000000     -7.066414000000000
H      -3.887891000000000     -1.611106000000000     -7.750617000000000
H      -5.034225000000000     -2.584520000000000     -6.774908000000000
