117

C      -1.704796000000000     -2.077098000000000      1.458491000000000
C      -1.206078000000000     -0.844091000000000      1.018826000000000
C      -0.243126000000000     -0.166630000000000      1.787273000000000
C       0.172218000000000     -0.732840000000000      3.010269000000000
C      -0.316799000000000     -1.967940000000000      3.433222000000000
C      -1.254360000000000     -2.631576000000000      2.648155000000000
H      -2.459849000000000     -2.596697000000000      0.879715000000000
H       0.021819000000000     -2.413497000000000      4.360572000000000
H      -1.649211000000000     -3.587027000000000      2.981522000000000
C       0.347786000000000      1.162175000000000      1.420123000000000
C      -0.067806000000000      2.276353000000000      2.178807000000000
C       1.312216000000000      1.348640000000000      0.415781000000000
C       0.425931000000000      3.551735000000000      1.912696000000000
C       1.818024000000000      2.630662000000000      0.166901000000000
C       1.369682000000000      3.717006000000000      0.903655000000000
H       0.088049000000000      4.409932000000000      2.480326000000000
H       2.574748000000000      2.777645000000000     -0.594535000000000
H       1.770171000000000      4.706806000000000      0.704155000000000
P      -1.674582000000000     -0.179226000000000     -0.647300000000000
P       1.814793000000000     -0.081366000000000     -0.651751000000000
C       3.370679000000000      0.457295000000000     -1.473846000000000
C       3.270392000000000      1.387850000000000     -2.516582000000000
C       4.620968000000000     -0.084708000000000     -1.170592000000000
C       4.395016000000000      1.810152000000000     -3.221656000000000
H       2.294057000000000      1.787533000000000     -2.781582000000000
C       5.760600000000000      0.303667000000000     -1.881268000000000
H       4.722434000000000     -0.822109000000000     -0.380366000000000
C       5.633851000000000      1.256953000000000     -2.888670000000000
C       4.271910000000000      2.803415000000000     -4.347054000000000
C       7.098887000000000     -0.319344000000000     -1.571964000000000
H       6.519243000000000      1.571276000000000     -3.438568000000000
C       2.398619000000000     -1.245510000000000      0.648816000000000
C       1.957973000000000     -2.567048000000000      0.666348000000000
C       3.236210000000000     -0.790139000000000      1.671915000000000
C       2.327862000000000     -3.435265000000000      1.695432000000000
H       1.285469000000000     -2.922818000000000     -0.107086000000000
C       3.649827000000000     -1.644571000000000      2.692037000000000
H       3.560712000000000      0.249071000000000      1.680050000000000
C       3.177313000000000     -2.959978000000000      2.694418000000000
C       1.763351000000000     -4.830494000000000      1.751233000000000
C       4.589968000000000     -1.150189000000000      3.762464000000000
H       3.476475000000000     -3.629235000000000      3.500075000000000
C      -2.201668000000000      1.520917000000000     -0.184747000000000
C      -3.029451000000000      1.705174000000000      0.928154000000000
C      -1.759675000000000      2.631526000000000     -0.900202000000000
C      -3.433327000000000      2.980219000000000      1.317014000000000
H      -3.356757000000000      0.842380000000000      1.505895000000000
C      -2.111837000000000      3.923758000000000     -0.502161000000000
H      -1.101365000000000      2.489674000000000     -1.753138000000000
C      -2.951879000000000      4.079396000000000      0.600171000000000
C      -4.381288000000000      3.155897000000000      2.476796000000000
C      -1.541686000000000      5.118200000000000     -1.221296000000000
H      -3.238808000000000      5.082758000000000      0.911922000000000
C      -3.278799000000000     -1.001160000000000     -1.053065000000000
C      -4.501832000000000     -0.332753000000000     -1.054391000000000
C      -3.247020000000000     -2.337832000000000     -1.480003000000000
C      -5.679922000000000     -0.979851000000000     -1.449491000000000
H      -4.556944000000000      0.710397000000000     -0.759766000000000
C      -4.404445000000000     -3.009469000000000     -1.858035000000000
H      -2.300991000000000     -2.868874000000000     -1.522420000000000
C      -5.618122000000000     -2.313208000000000     -1.837259000000000
C      -6.983138000000000     -0.220961000000000     -1.462028000000000
C      -4.356029000000000     -4.453775000000000     -2.288070000000000
H      -6.529476000000000     -2.823447000000000     -2.144231000000000
H       0.144481000000000      1.004336000000000     -2.295099000000000
O       1.068447000000000     -0.003408000000000      3.722664000000000
O      -0.970416000000000      2.017610000000000      3.160662000000000
Rh      0.096552000000000     -0.569521000000000     -2.176258000000000
C       0.070303000000000     -2.509521000000000     -2.178649000000000
O       0.033775000000000     -3.655452000000000     -2.248181000000000
C       1.447878000000000     -0.493637000000000      4.986288000000000
H       1.964232000000000     -1.458198000000000      4.899777000000000
H       2.131361000000000      0.245827000000000      5.404984000000000
H       0.578757000000000     -0.603713000000000      5.646771000000000
C      -1.338441000000000      3.087121000000000      3.998023000000000
H      -0.464791000000000      3.508284000000000      4.510949000000000
H      -1.844023000000000      3.880023000000000      3.431873000000000
H      -2.027937000000000      2.672716000000000      4.734371000000000
H      -7.154319000000000      0.284152000000000     -0.506208000000000
H      -7.828855000000000     -0.886960000000000     -1.651305000000000
H      -6.979545000000000      0.548655000000000     -2.241181000000000
H      -4.874201000000000     -4.598026000000000     -3.241125000000000
H      -4.842844000000000     -5.100558000000000     -1.550090000000000
H      -3.324388000000000     -4.795444000000000     -2.406979000000000
H      -4.299552000000000      4.154907000000000      2.915438000000000
H      -4.182549000000000      2.417324000000000      3.259438000000000
H      -5.420412000000000      3.022185000000000      2.155421000000000
H      -1.525452000000000      4.960175000000000     -2.303477000000000
H      -0.508012000000000      5.292198000000000     -0.899688000000000
H      -2.117046000000000      6.024520000000000     -1.013991000000000
H       7.165123000000000     -0.615882000000000     -0.521350000000000
H       7.917880000000000      0.373321000000000     -1.785075000000000
H       7.260166000000000     -1.217526000000000     -2.178448000000000
H       4.167114000000000      2.269900000000000     -5.296448000000000
H       5.154261000000000      3.447666000000000     -4.405290000000000
H       3.390730000000000      3.438500000000000     -4.218038000000000
H       2.401393000000000     -5.499249000000000      2.335445000000000
H       1.646971000000000     -5.251633000000000      0.748645000000000
H       0.771316000000000     -4.816460000000000      2.218353000000000
H       4.524084000000000     -1.761289000000000      4.667606000000000
H       4.366355000000000     -0.112664000000000      4.029154000000000
H       5.629335000000000     -1.183440000000000      3.417093000000000
C      -0.634470000000000     -0.522512000000000     -4.212810000000000
C       0.777503000000000     -0.403239000000000     -4.217108000000000
C       1.675080000000000     -1.518472000000000     -4.667015000000000
O       1.869063000000000     -1.501091000000000     -6.105175000000000
C       2.740103000000000     -0.602146000000000     -6.573465000000000
C       2.820328000000000     -0.658915000000000     -8.078799999999999
O       3.374338000000000      0.155572000000000     -5.876753000000000
H      -1.096433000000000     -1.463431000000000     -4.507804000000000
H      -1.255023000000000      0.352380000000000     -4.378545000000000
H       1.214113000000000      0.580370000000000     -4.371261000000000
H       1.227861000000000     -2.497008000000000     -4.480746000000000
H       2.656316000000000     -1.457122000000000     -4.187307000000000
H       1.853059000000000     -0.377834000000000     -8.503766000000001
H       3.039793000000000     -1.678671000000000     -8.403205000000000
H       3.592780000000000      0.025234000000000     -8.426930000000000
