157

C      -1.833582000000000     -2.244001000000000      1.116153000000000
C      -1.271637000000000     -0.979188000000000      0.900067000000000
C      -0.311583000000000     -0.478140000000000      1.800061000000000
C       0.032611000000000     -1.256073000000000      2.926934000000000
C      -0.530846000000000     -2.515860000000000      3.130550000000000
C      -1.456857000000000     -3.003188000000000      2.215897000000000
H      -2.579624000000000     -2.628411000000000      0.428827000000000
H      -0.248684000000000     -3.116788000000000      3.986299000000000
H      -1.899084000000000     -3.983411000000000      2.373344000000000
C       0.353873000000000      0.861622000000000      1.675171000000000
C       0.002908000000000      1.845538000000000      2.624201000000000
C       1.339287000000000      1.169306000000000      0.719510000000000
C       0.586823000000000      3.111275000000000      2.597982000000000
C       1.927956000000000      2.439693000000000      0.708439000000000
C       1.545007000000000      3.400083000000000      1.633529000000000
H       0.302995000000000      3.869135000000000      3.317495000000000
H       2.699018000000000      2.673096000000000     -0.016669000000000
H       2.007296000000000      4.383324000000000      1.615447000000000
P      -1.694197000000000     -0.032889000000000     -0.643376000000000
P       1.786771000000000     -0.070411000000000     -0.585928000000000
C       3.385962000000000      0.511623000000000     -1.283707000000000
C       4.568755000000000     -0.201894000000000     -1.082502000000000
C       3.352914000000000      1.611643000000000     -2.137947000000000
C       5.739849000000000      0.204731000000000     -1.735622000000000
H       4.566278000000000     -1.080339000000000     -0.453543000000000
C       4.527078000000000      2.056474000000000     -2.775507000000000
H       2.402849000000000      2.096624000000000     -2.325873000000000
C       5.708699000000000      1.328415000000000     -2.567304000000000
N       6.963951000000000     -0.473337000000000     -1.539087000000000
N       4.527075000000000      3.194954000000000     -3.567167000000000
H       6.631686000000000      1.657624000000000     -3.026351000000000
C       2.273308000000000     -1.475579000000000      0.498454000000000
C       1.743111000000000     -2.735760000000000      0.275125000000000
C       3.093277000000000     -1.224060000000000      1.602973000000000
C       1.976502000000000     -3.780549000000000      1.194144000000000
H       1.084044000000000     -2.888790000000000     -0.566326000000000
C       3.342470000000000     -2.243834000000000      2.520790000000000
H       3.491766000000000     -0.227098000000000      1.750648000000000
C       2.764992000000000     -3.506303000000000      2.320544000000000
N       1.400753000000000     -5.027889000000000      1.006353000000000
N       4.099163000000000     -2.023549000000000      3.697244000000000
H       2.910863000000000     -4.261098000000000      3.084284000000000
C      -2.139625000000000      1.588222000000000      0.107904000000000
C      -2.930733000000000      1.595311000000000      1.254932000000000
C      -1.607758000000000      2.761604000000000     -0.409938000000000
C      -3.188179000000000      2.805918000000000      1.917198000000000
H      -3.299730000000000      0.657650000000000      1.651830000000000
C      -1.823480000000000      3.981195000000000      0.257559000000000
H      -0.971865000000000      2.704486000000000     -1.281577000000000
C      -2.618481000000000      3.989493000000000      1.416470000000000
N      -3.952741000000000      2.821442000000000      3.071921000000000
N      -1.235997000000000      5.151475000000000     -0.209297000000000
H      -2.776741000000000      4.917365000000000      1.948183000000000
C      -3.325308000000000     -0.729612000000000     -1.168113000000000
C      -4.525978000000000     -0.076582000000000     -0.910361000000000
C      -3.308365000000000     -1.929537000000000     -1.880632000000000
C      -5.743788000000000     -0.644996000000000     -1.332097000000000
H      -4.517587000000000      0.870535000000000     -0.394309000000000
C      -4.511241000000000     -2.511041000000000     -2.319570000000000
H      -2.362563000000000     -2.403938000000000     -2.100410000000000
C      -5.723137000000000     -1.860236000000000     -2.031019000000000
N      -6.947291000000000     -0.013342000000000     -1.039327000000000
N      -4.499820000000000     -3.696113000000000     -3.038484000000000
H      -6.651216000000000     -2.297081000000000     -2.368372000000000
H       0.188618000000000      1.348907000000000     -2.046037000000000
O       0.931247000000000     -0.705203000000000      3.783759000000000
O      -0.925993000000000      1.483083000000000      3.549351000000000
Rh      0.098114000000000     -0.221349000000000     -2.201643000000000
C       0.022778000000000     -2.120685000000000     -2.549282000000000
O      -0.042417000000000     -3.232482000000000     -2.839384000000000
C       1.194127000000000     -1.399174000000000      4.983403000000000
H       0.271578000000000     -1.549981000000000      5.558208000000000
H       1.678688000000000     -2.362233000000000      4.787533000000000
H       1.879913000000000     -0.769895000000000      5.551985000000000
C      -1.196850000000000      2.401772000000000      4.580858000000000
H      -0.292003000000000      2.617749000000000      5.163321000000000
H      -1.607599000000000      3.337413000000000      4.181949000000000
H      -1.941271000000000      1.928711000000000      5.223245000000000
C      -6.906733000000000      1.354806000000000     -0.562864000000000
H      -6.368443000000000      1.418395000000000      0.388855000000000
H      -6.418596000000000      2.040087000000000     -1.272175000000000
H      -7.927593000000000      1.698800000000000     -0.389581000000000
C      -8.140606999999999     -0.448988000000000     -1.731573000000000
H      -8.978789000000001      0.178935000000000     -1.426028000000000
H      -8.041461999999999     -0.392560000000000     -2.826740000000000
H      -8.388987000000000     -1.482216000000000     -1.465511000000000
C      -3.253959000000000     -4.423446000000000     -3.156712000000000
H      -2.505051000000000     -3.832394000000000     -3.693813000000000
H      -2.826458000000000     -4.695342000000000     -2.178286000000000
H      -3.428176000000000     -5.337667000000000     -3.725566000000000
C      -5.743272000000000     -4.405029000000000     -3.240586000000000
H      -6.254745000000000     -4.637605000000000     -2.293968000000000
H      -6.432066000000000     -3.822711000000000     -3.863539000000000
H      -5.539081000000000     -5.340833000000000     -3.762249000000000
C      -4.358746000000000      4.077204000000000      3.651547000000000
H      -4.846442000000000      4.724526000000000      2.910476000000000
H      -5.069266000000000      3.888536000000000      4.457600000000000
H      -3.510080000000000      4.637424000000000      4.074705000000000
C      -4.424314000000000      1.572549000000000      3.626632000000000
H      -4.900473000000000      1.766613000000000      4.589310000000000
H      -5.155988000000000      1.073040000000000      2.974275000000000
H      -3.589400000000000      0.878781000000000      3.787336000000000
C      -0.235101000000000      5.037563000000000     -1.253878000000000
H       0.142304000000000      6.033773000000000     -1.490862000000000
H       0.609122000000000      4.393539000000000     -0.961777000000000
H      -0.678903000000000      4.624962000000000     -2.165544000000000
C      -1.112663000000000      6.260006000000000      0.712493000000000
H      -0.607838000000000      5.972020000000000      1.648824000000000
H      -0.538868000000000      7.057254000000000      0.237816000000000
H      -2.095879000000000      6.670218000000000      0.968104000000000
C       5.592328000000000      3.340890000000000     -4.540392000000000
H       6.553620000000000      3.520052000000000     -4.046098000000000
H       5.676694000000000      2.456687000000000     -5.185853000000000
H       5.379995000000000      4.209552000000000     -5.165908000000000
C       3.255186000000000      3.807571000000000     -3.889418000000000
H       3.440969000000000      4.723803000000000     -4.453319000000000
H       2.609765000000000      3.148858000000000     -4.487684000000000
H       2.725476000000000      4.087837000000000     -2.972629000000000
C       6.971675000000000     -1.517494000000000     -0.535324000000000
H       6.571886000000000     -1.134802000000000      0.407534000000000
H       6.384816000000000     -2.406375000000000     -0.825832000000000
H       8.006024000000000     -1.831825000000000     -0.368663000000000
C       7.668705000000000     -0.885968000000000     -2.743400000000000
H       7.699748000000000     -0.076895000000000     -3.472332000000000
H       8.698366999999999     -1.151181000000000     -2.484572000000000
H       7.193292000000000     -1.759678000000000     -3.220637000000000
C       1.293605000000000     -5.906966000000000      2.149401000000000
H       0.782007000000000     -5.426474000000000      2.998641000000000
H       0.732464000000000     -6.797773000000000      1.863824000000000
H       2.282557000000000     -6.234065000000000      2.490235000000000
C       0.452535000000000     -5.196053000000000     -0.077722000000000
H       0.116702000000000     -6.234328000000000     -0.092993000000000
H      -0.425598000000000     -4.538354000000000      0.017977000000000
H       0.929685000000000     -4.985924000000000     -1.039797000000000
C       5.244849000000000     -2.904182000000000      3.875203000000000
H       4.965088000000000     -3.942072000000000      3.692918000000000
H       6.072850000000000     -2.645938000000000      3.192835000000000
H       5.607921000000000     -2.821325000000000      4.904166000000000
C       4.440490000000000     -0.643064000000000      3.980906000000000
H       3.541352000000000     -0.023184000000000      3.928810000000000
H       4.850942000000000     -0.586392000000000      4.993749000000000
H       5.191693000000000     -0.231445000000000      3.284129000000000
C      -0.548827000000000      0.167177000000000     -4.233982000000000
C       0.860875000000000      0.292636000000000     -4.147146000000000
C       1.812403000000000     -0.714762000000000     -4.719566000000000
O       2.089154000000000     -0.459030000000000     -6.124211000000000
C       2.962504000000000      0.512918000000000     -6.392583000000000
C       3.136342000000000      0.688996000000000     -7.881256000000000
O       3.536895000000000      1.167659000000000     -5.551753000000000
H      -0.985508000000000     -0.711797000000000     -4.705862000000000
H      -1.171312000000000      1.055059000000000     -4.279707000000000
H       1.284179000000000      1.292646000000000     -4.106333000000000
H       1.386848000000000     -1.720336000000000     -4.722558000000000
H       2.763535000000000     -0.709421000000000     -4.177935000000000
H       2.185965000000000      0.999308000000000     -8.323505000000001
H       3.418337000000000     -0.262007000000000     -8.339020000000000
H       3.899544000000000      1.442449000000000     -8.071152000000000
