101

C      -1.953977000000000     -1.648026000000000      1.975152000000000
C      -1.332363000000000     -0.639434000000000      1.232519000000000
C      -0.409894000000000      0.227639000000000      1.856221000000000
C      -0.191309000000000      0.071361000000000      3.233978000000000
C      -0.791910000000000     -0.947674000000000      3.963616000000000
C      -1.673182000000000     -1.810942000000000      3.326689000000000
H      -2.672256000000000     -2.305857000000000      1.499007000000000
H      -0.557402000000000     -1.065827000000000      5.016405000000000
H      -2.151372000000000     -2.607755000000000      3.887046000000000
C       0.255705000000000      1.374363000000000      1.150981000000000
C      -0.185517000000000      2.665291000000000      1.522428000000000
C       1.256687000000000      1.263035000000000      0.165895000000000
C       0.303284000000000      3.806909000000000      0.893794000000000
C       1.732956000000000      2.422056000000000     -0.466503000000000
C       1.252747000000000      3.673084000000000     -0.113683000000000
H      -0.057128000000000      4.790790000000000      1.166692000000000
H       2.489217000000000      2.339967000000000     -1.239321000000000
H       1.626938000000000      4.559527000000000     -0.616489000000000
P      -1.631687000000000     -0.481080000000000     -0.588081000000000
P       1.864557000000000     -0.357652000000000     -0.502763000000000
C       3.477583000000000      0.089363000000000     -1.268960000000000
C       4.499886000000000      0.631190000000000     -0.483928000000000
C       3.668863000000000     -0.139134000000000     -2.627772000000000
C       5.715346000000000      0.954753000000000     -1.082182000000000
H       4.351809000000000      0.795056000000000      0.581518000000000
C       4.907014000000000      0.177459000000000     -3.213282000000000
H       2.871714000000000     -0.563754000000000     -3.229593000000000
C       5.923388000000000      0.733334000000000     -2.442196000000000
O       6.749449000000000      1.490989000000000     -0.378389000000000
O       5.161943000000000     -0.027023000000000     -4.521286000000000
H       6.878413000000000      0.974924000000000     -2.893742000000000
C       2.465102000000000     -1.263729000000000      0.978603000000000
C       2.807037000000000     -2.611159000000000      0.844805000000000
C       2.569578000000000     -0.640721000000000      2.214155000000000
C       3.216805000000000     -3.328573000000000      1.969609000000000
H       2.756553000000000     -3.100330000000000     -0.125925000000000
C       2.902363000000000     -1.390916000000000      3.345840000000000
H       2.341621000000000      0.412898000000000      2.327708000000000
C       3.247095000000000     -2.731835000000000      3.230035000000000
O       3.566711000000000     -4.640652000000000      1.901240000000000
O       2.870536000000000     -0.822101000000000      4.578710000000000
H       3.505953000000000     -3.315900000000000      4.105102000000000
C      -2.144296000000000      1.286374000000000     -0.677240000000000
C      -3.046850000000000      1.793323000000000      0.258997000000000
C      -1.595324000000000      2.115705000000000     -1.653214000000000
C      -3.402578000000000      3.139304000000000      0.200933000000000
H      -3.468104000000000      1.171533000000000      1.042824000000000
C      -1.932774000000000      3.468259000000000     -1.672421000000000
H      -0.872570000000000      1.717056000000000     -2.359693000000000
C      -2.843924000000000      3.985732000000000     -0.754045000000000
O      -4.285512000000000      3.593584000000000      1.136109000000000
O      -1.383531000000000      4.339754000000000     -2.557014000000000
H      -3.089391000000000      5.043699000000000     -0.792074000000000
C      -3.220038000000000     -1.379671000000000     -0.888617000000000
C      -4.411318000000000     -0.715356000000000     -1.178301000000000
C      -3.178965000000000     -2.778576000000000     -0.917990000000000
C      -5.557310000000000     -1.454049000000000     -1.479427000000000
H      -4.485682000000000      0.364374000000000     -1.187977000000000
C      -4.333190000000000     -3.501698000000000     -1.202372000000000
H      -2.264661000000000     -3.330982000000000     -0.734242000000000
C      -5.531535000000000     -2.845679000000000     -1.486175000000000
O      -6.686329000000000     -0.750626000000000     -1.758109000000000
O      -4.233851000000000     -4.857278000000000     -1.201375000000000
H      -6.429720000000000     -3.414511000000000     -1.720585000000000
H       0.260959000000000      0.088885000000000     -2.517471000000000
O       0.671748000000000      0.953681000000000      3.853262000000000
O      -1.126607000000000      2.707492000000000      2.503007000000000
Rh      0.193807000000000     -1.325641000000000     -1.820974000000000
C       0.226124000000000     -3.105869000000000     -1.020237000000000
O       0.250324000000000     -4.157504000000000     -0.566101000000000
C       0.166802000000000      1.561422000000000      5.036176000000000
H       0.262736000000000      0.894772000000000      5.900706000000000
H       0.771728000000000      2.454567000000000      5.204065000000000
H      -0.880339000000000      1.843312000000000      4.898649000000000
C      -1.588683000000000      3.973541000000000      2.917056000000000
H      -0.775665000000000      4.566570000000000      3.355065000000000
H      -2.035076000000000      4.525967000000000      2.083176000000000
H      -2.357167000000000      3.783209000000000      3.666475000000000
H      -7.407857000000000     -1.363091000000000     -1.958641000000000
H      -5.089006000000000     -5.245435000000000     -1.433296000000000
H      -4.530851000000000      4.505109000000000      0.921959000000000
H      -0.727273000000000      3.868209000000000     -3.090899000000000
H       4.450784000000000     -0.559513000000000     -4.922150000000000
H       6.495016000000000      1.550613000000000      0.553417000000000
H       3.438372000000000     -4.953257000000000      0.994253000000000
H       2.354634000000000     -0.000743000000000      4.490365000000000
C      -0.662805000000000     -2.053869000000000     -3.665954000000000
C       0.739517000000000     -1.941310000000000     -3.821873000000000
C       1.641602000000000     -3.137758000000000     -3.864544000000000
O       1.882553000000000     -3.579147000000000     -5.231375000000000
C       2.721899000000000     -2.833836000000000     -5.940208000000000
C       2.883426000000000     -3.347824000000000     -7.345412000000000
O       3.282233000000000     -1.849582000000000     -5.500946000000000
H      -1.116440000000000     -3.035128000000000     -3.536240000000000
H      -1.318796000000000     -1.309803000000000     -4.106881000000000
H       1.122613000000000     -1.086276000000000     -4.372100000000000
H       1.179872000000000     -4.004499000000000     -3.386320000000000
H       2.615298000000000     -2.935813000000000     -3.408495000000000
H       1.931625000000000     -3.249592000000000     -7.874397000000000
H       3.144085000000000     -4.408196000000000     -7.326521000000000
H       3.654045000000000     -2.773671000000000     -7.857201000000000
