125

C       1.872094000000000      2.372046000000000      1.256197000000000
C       1.317845000000000      1.119464000000000      0.964189000000000
C       0.385633000000000      0.539073000000000      1.843032000000000
C       0.074844000000000      1.217805000000000      3.040881000000000
C       0.621372000000000      2.470120000000000      3.319005000000000
C       1.510795000000000      3.042955000000000      2.417091000000000
H       2.601252000000000      2.815460000000000      0.586322000000000
H       0.351834000000000      3.007740000000000      4.219417000000000
H       1.934649000000000      4.018906000000000      2.634603000000000
C      -0.270538000000000     -0.792351000000000      1.621908000000000
C       0.144440000000000     -1.852582000000000      2.456916000000000
C      -1.289734000000000     -1.032110000000000      0.683459000000000
C      -0.411799000000000     -3.124912000000000      2.336014000000000
C      -1.856245000000000     -2.309389000000000      0.581848000000000
C      -1.410301000000000     -3.343653000000000      1.393589000000000
H      -0.072379000000000     -3.943160000000000      2.958795000000000
H      -2.660277000000000     -2.495401000000000     -0.121076000000000
H      -1.847850000000000     -4.333034000000000      1.299026000000000
P       1.678489000000000      0.299265000000000     -0.655155000000000
P      -1.803784000000000      0.317138000000000     -0.482348000000000
C      -3.415528000000000     -0.254047000000000     -1.171076000000000
C      -4.629022000000000      0.330953000000000     -0.826961000000000
C      -3.383244000000000     -1.285975000000000     -2.123521000000000
C      -5.821196000000000     -0.125253000000000     -1.411688000000000
H      -4.669543000000000      1.149470000000000     -0.115935000000000
C      -4.567669000000000     -1.766113000000000     -2.672749000000000
H      -2.424328000000000     -1.703664000000000     -2.412920000000000
C      -5.789878000000000     -1.176042000000000     -2.319714000000000
S      -7.301534000000000      0.707767000000000     -0.908553000000000
S      -4.657802000000000     -3.145063000000000     -3.779057000000000
H      -6.698351000000000     -1.545121000000000     -2.782943000000000
C      -2.291322000000000      1.585030000000000      0.762933000000000
C      -1.799431000000000      2.887442000000000      0.694222000000000
C      -3.072228000000000      1.181462000000000      1.846238000000000
C      -2.061950000000000      3.783646000000000      1.734527000000000
H      -1.175777000000000      3.177286000000000     -0.141034000000000
C      -3.349008000000000      2.075100000000000      2.879669000000000
H      -3.435497000000000      0.160029000000000      1.885448000000000
C      -2.831313000000000      3.370334000000000      2.825929000000000
S      -1.406457000000000      5.425857000000000      1.809387000000000
S      -4.311037000000000      1.623556000000000      4.298755000000000
H      -3.010982000000000      4.057046000000000      3.650177000000000
C       2.150794000000000     -1.381754000000000     -0.065031000000000
C       3.040347000000000     -1.517173000000000      0.997741000000000
C       1.578557000000000     -2.513405000000000     -0.650235000000000
C       3.397585000000000     -2.791163000000000      1.455461000000000
H       3.454885000000000     -0.635259000000000      1.481777000000000
C       1.870126000000000     -3.777536000000000     -0.144498000000000
H       0.876390000000000     -2.377179000000000     -1.462639000000000
C       2.794208000000000     -3.917448000000000      0.900901000000000
S       4.615193000000000     -2.841451000000000      2.744225000000000
S       1.103900000000000     -5.260908000000000     -0.732018000000000
H       3.022045000000000     -4.912903000000000      1.268721000000000
C       3.299177000000000      1.009064000000000     -1.195941000000000
C       4.499451000000000      0.307315000000000     -1.087708000000000
C       3.291000000000000      2.276100000000000     -1.791479000000000
C       5.694797000000000      0.881943000000000     -1.530489000000000
H       4.503595000000000     -0.689823000000000     -0.673877000000000
C       4.483434000000000      2.856230000000000     -2.229068000000000
H       2.351080000000000      2.801524000000000     -1.909790000000000
C       5.685171000000000      2.156940000000000     -2.091860000000000
S       7.258869000000000      0.057403000000000     -1.421634000000000
S       4.588696000000000      4.465058000000000     -2.962288000000000
H       6.613915000000000      2.606378000000000     -2.434491000000000
H      -0.258066000000000     -0.941001000000000     -2.143253000000000
O      -0.780247000000000      0.583116000000000      3.883716000000000
O       1.115655000000000     -1.549522000000000      3.352933000000000
Rh     -0.159558000000000      0.639998000000000     -2.117271000000000
C      -0.102389000000000      2.566576000000000     -2.240191000000000
O      -0.062307000000000      3.705698000000000     -2.389796000000000
C      -0.952247000000000      1.142527000000000      5.169248000000000
H      -1.593935000000000      0.451935000000000      5.717590000000000
H       0.011641000000000      1.240337000000000      5.683075000000000
H      -1.447569000000000      2.118601000000000      5.116453000000000
C       1.459636000000000     -2.536974000000000      4.297505000000000
H       0.586023000000000     -2.832384000000000      4.891957000000000
H       1.884722000000000     -3.422778000000000      3.808289000000000
H       2.217303000000000     -2.089970000000000      4.939983000000000
C       6.851792000000000     -1.417092000000000     -0.452445000000000
H       7.800387000000000     -1.926622000000000     -0.274511000000000
H       6.407009000000000     -1.152399000000000      0.510036000000000
H       6.186693000000000     -2.090779000000000     -0.997651000000000
C       2.850028000000000      4.933685000000000     -3.122345000000000
H       2.363405000000000      5.032378000000000     -2.149082000000000
H       2.846743000000000      5.905955000000000     -3.618204000000000
H       2.301542000000000      4.218469000000000     -3.739655000000000
C       4.776821000000000     -4.613444000000000      3.063307000000000
H       5.111976000000000     -5.149795000000000      2.172936000000000
H       5.535669000000000     -4.711204000000000      3.841455000000000
H       3.840220000000000     -5.043816000000000      3.428043000000000
C      -0.118265000000000     -4.618550000000000     -1.902037000000000
H       0.359811000000000     -4.150107000000000     -2.765883000000000
H      -0.695183000000000     -5.482064000000000     -2.238905000000000
H      -0.785277000000000     -3.906485000000000     -1.406230000000000
C      -2.955622000000000     -3.282571000000000     -4.372492000000000
H      -2.963653000000000     -4.075118000000000     -5.123461000000000
H      -2.655567000000000     -2.342589000000000     -4.839421000000000
H      -2.264963000000000     -3.564807000000000     -3.573701000000000
C      -8.562597000000000     -0.080747000000000     -1.936479000000000
H      -9.500897000000000      0.422894000000000     -1.697822000000000
H      -8.347576999999999      0.054132000000000     -2.998835000000000
H      -8.663679999999999     -1.143206000000000     -1.704320000000000
C      -0.361110000000000      5.492451000000000      0.335491000000000
H      -0.950494000000000      5.410205000000000     -0.579672000000000
H       0.126121000000000      6.469131000000000      0.358111000000000
H       0.400898000000000      4.707729000000000      0.364129000000000
C      -4.169713000000000     -0.185378000000000      4.259669000000000
H      -4.813597000000000     -0.624254000000000      3.495012000000000
H      -3.130116000000000     -0.479422000000000      4.086783000000000
H      -4.495950000000000     -0.539767000000000      5.239320000000000
C       0.458930000000000      0.471247000000000     -4.190944000000000
C      -0.949753000000000      0.366030000000000     -4.106674000000000
C      -1.877245000000000      1.456799000000000     -4.557569000000000
O      -2.197077000000000      1.345685000000000     -5.966108000000000
C      -3.075179000000000      0.390905000000000     -6.293482000000000
C      -3.328434000000000      0.370118000000000     -7.779342000000000
O      -3.591331000000000     -0.355167000000000     -5.493248000000000
H       0.909862000000000      1.389336000000000     -4.564807000000000
H       1.065401000000000     -0.416946000000000     -4.335880000000000
H      -1.395129000000000     -0.622603000000000     -4.165823000000000
H      -1.411710000000000      2.441173000000000     -4.474904000000000
H      -2.813306000000000      1.437701000000000     -3.991196000000000
H      -2.397134000000000      0.142988000000000     -8.304850999999999
H      -3.663620000000000      1.354989000000000     -8.112926000000000
H      -4.080753000000000     -0.383456000000000     -8.007006000000001
