93

P      -6.411828000000000      7.583633000000000     -7.400282000000000
P      -5.072080000000000     10.498892000000000     -5.890210000000000
O      -6.863846000000000      8.625337000000000     -2.347685000000000
O      -5.584216000000000      6.072763000000000     -3.313528000000000
C      -6.750995000000000      8.098986000000000     -4.627265000000000
C      -7.546455000000000      8.359514000000001     -3.489881000000000
C      -8.937412000000000      8.357549000000001     -3.563822000000000
C      -9.549683999999999      8.068345000000001     -4.777810000000000
C      -8.790362000000000      7.791207000000000     -5.904280000000000
C      -7.388840000000000      7.811279000000000     -5.845566000000000
C      -7.612842000000000      8.868725000000000     -1.177222000000000
C      -5.057306000000000      4.921871000000000     -2.688965000000000
C      -5.268491000000000      8.128470000000000     -4.391595000000000
C      -4.716406000000000      7.056477000000000     -3.662676000000000
C      -3.365137000000000      7.041772000000000     -3.314994000000000
C      -2.566192000000000      8.130165000000000     -3.647105000000000
C      -3.095208000000000      9.214985000000000     -4.333182000000000
C      -4.441028000000000      9.217900000000000     -4.717324000000000
H      -9.541947000000000      8.577256999999999     -2.692613000000000
H     -10.633443000000000      8.056468000000001     -4.841033000000000
H      -9.293391000000000      7.558573000000000     -6.834456000000000
H      -8.257761000000000      9.747481000000001     -1.295619000000000
H      -6.885033000000000      9.054871000000000     -0.387601000000000
H      -8.227141000000000      8.000225000000000     -0.911897000000000
H      -2.939256000000000      6.206449000000000     -2.773332000000000
H      -1.518891000000000      8.130191999999999     -3.361442000000000
H      -2.456423000000000     10.056521000000000     -4.577261000000000
H      -4.294392000000000      4.446896000000000     -3.317046000000000
H      -5.897734000000000      4.239605000000000     -2.558311000000000
H      -4.628307000000000      5.161215000000000     -1.709012000000000
Rh     -5.079846000000000      9.430823999999999     -7.992804000000000
H      -6.456674000000000     10.150005999999999     -8.293827000000000
C      -3.355873000000000      8.554952000000000     -7.695365000000000
O      -2.341926000000000      8.046374999999999     -7.547819000000000
C      -3.890188000000000     11.908939000000000     -5.733212000000000
C      -2.666350000000000     11.812701000000001     -6.412615000000000
C      -4.171206000000000     13.087923000000000     -5.035225000000000
C      -1.734352000000000     12.843582000000000     -6.359927000000000
H      -2.444365000000000     10.921923000000000     -6.993388000000000
C      -3.245302000000000     14.130027000000000     -4.999614000000000
H      -5.119410000000000     13.209034000000001     -4.524006000000000
C      -2.022911000000000     14.009204000000000     -5.652259000000000
H      -0.789913000000000     12.741574999999999     -6.885263000000000
H      -3.486305000000000     15.039311000000000     -4.457697000000000
H      -1.303222000000000     14.821108000000001     -5.620593000000000
C      -6.570219000000000     11.113536000000000     -5.028426000000000
C      -6.539520000000000     11.389455999999999     -3.654886000000000
C      -7.758536000000000     11.297623000000000     -5.737195000000000
C      -7.675190000000000     11.868001000000000     -3.010044000000000
H      -5.625954000000000     11.218401000000000     -3.090430000000000
C      -8.901296000000000     11.760040000000000     -5.085843000000000
H      -7.785854000000000     11.060533000000000     -6.797368000000000
C      -8.859546999999999     12.050096000000000     -3.725206000000000
H      -7.637612000000000     12.096404000000000     -1.948855000000000
H      -9.823781000000000     11.889614999999999     -5.643200000000000
H      -9.748023000000000     12.415946999999999     -3.219492000000000
C      -7.718430000000000      7.119271000000000     -8.618052000000000
C      -8.454222000000000      8.139587000000001     -9.234362000000001
C      -8.014310000000000      5.790059000000000     -8.935752000000001
C      -9.467352000000000      7.839554000000000    -10.139015000000001
H      -8.221247999999999      9.175471000000000     -9.002466000000000
C      -9.019397000000000      5.490287000000000     -9.854511000000000
H      -7.460646000000000      4.981186000000000     -8.469776000000000
C      -9.749150000000000      6.511351000000000    -10.455587000000000
H     -10.027812000000001      8.643473000000000    -10.606263000000000
H      -9.230561000000000      4.453562000000000    -10.097477000000000
H     -10.530861000000000      6.275180000000000    -11.170752999999999
C      -5.576089000000000      5.968168000000000     -7.148817000000000
C      -5.945064000000000      5.070725000000000     -6.142925000000000
C      -4.581601000000000      5.600367000000000     -8.062976000000001
C      -5.311271000000000      3.832912000000000     -6.042549000000000
H      -6.721791000000000      5.339133000000000     -5.434090000000000
C      -3.956670000000000      4.360737000000000     -7.966485000000000
H      -4.307937000000000      6.284443000000000     -8.863822000000001
C      -4.316282000000000      3.477204000000000     -6.950301000000000
H      -5.605752000000000      3.140815000000000     -5.258796000000000
H      -3.189448000000000      4.086828000000000     -8.683636999999999
H      -3.826333000000000      2.511741000000000     -6.870583000000000
C      -4.310211000000000     10.768333000000000     -9.498972000000000
C      -4.693642000000000      9.553222999999999    -10.120354000000001
C      -5.919065000000000      9.462657999999999    -10.979115999999999
O      -5.614143000000000      9.763610999999999    -12.366424000000000
C      -5.033388000000000      8.780716000000000    -13.064710000000000
C      -4.751073000000000      9.214337000000000    -14.480924000000000
O      -4.770684000000000      7.690737000000000    -12.609980000000000
H      -4.944086000000000     11.645668000000001     -9.603308000000000
H      -3.257616000000000     10.993048000000000     -9.345252000000000
H      -3.916674000000000      8.847792000000000    -10.409981999999999
H      -6.653922000000000     10.217890000000001    -10.691826000000001
H      -6.376941000000000      8.471793000000000    -10.941603000000001
H      -4.050700000000000     10.053595000000000    -14.471878999999999
H      -5.673052000000000      9.557789000000000    -14.955957000000000
H      -4.326585000000000      8.381408000000000    -15.039296999999999
