127

H      -0.140384000000000     -2.581993000000000      0.488225000000000
C       0.000578000000000     -1.596481000000000     -2.900175000000000
O       0.095077000000000     -1.271432000000000     -3.995374000000000
Rh     -0.086481000000000     -2.131297000000000     -1.027642000000000
C       2.456118000000000      1.083731000000000     -2.291266000000000
C       1.704163000000000      0.746084000000000     -1.170454000000000
C       0.723600000000000      1.648100000000000     -0.651872000000000
C       0.595786000000000      2.844703000000000     -1.330560000000000
C       1.355640000000000      3.165156000000000     -2.454874000000000
C       2.297866000000000      2.307342000000000     -2.961664000000000
H       3.204929000000000      0.390526000000000     -2.657830000000000
O      -0.242114000000000      3.886275000000000     -1.042982000000000
H       2.893665000000000      2.567949000000000     -3.828256000000000
C      -0.018161000000000      1.484627000000000      0.640165000000000
C       0.355311000000000      2.324109000000000      1.673718000000000
C      -1.078568000000000      0.577863000000000      0.936422000000000
C      -0.227378000000000      2.287016000000000      2.939244000000000
O       1.329287000000000      3.284816000000000      1.661303000000000
C      -1.637572000000000      0.541585000000000      2.213795000000000
C      -1.219831000000000      1.391066000000000      3.249341000000000
H      -2.441407000000000     -0.156885000000000      2.417990000000000
H      -1.667479000000000      1.355715000000000      4.235755000000000
P       1.827921000000000     -0.932320000000000     -0.414512000000000
P      -1.701023000000000     -0.579784000000000     -0.354494000000000
C      -3.239505000000000     -1.259408000000000      0.401852000000000
C      -4.416820000000000     -0.504703000000000      0.506235000000000
C      -3.218868000000000     -2.559351000000000      0.899847000000000
C      -5.554183000000000     -1.039431000000000      1.101991000000000
H      -4.450040000000000      0.509625000000000      0.117871000000000
C      -4.350734000000000     -3.121223000000000      1.504959000000000
H      -2.310213000000000     -3.146079000000000      0.809919000000000
C      -5.502806000000000     -2.348126000000000      1.597921000000000
C      -6.826016000000000     -0.236193000000000      1.209758000000000
C      -4.309987000000000     -4.541310000000000      2.005747000000000
H      -6.391742000000000     -2.773311000000000      2.061401000000000
C      -2.425955000000000      0.596291000000000     -1.574190000000000
C      -2.742952000000000      0.124733000000000     -2.847431000000000
C      -2.773610000000000      1.905904000000000     -1.227937000000000
C      -3.379916000000000      0.943450000000000     -3.783318000000000
H      -2.499409000000000     -0.900919000000000     -3.118187000000000
C      -3.454159000000000      2.726989000000000     -2.125729000000000
H      -2.536765000000000      2.288926000000000     -0.238281000000000
C      -3.731702000000000      2.238826000000000     -3.405261000000000
C      -3.673752000000000      0.420157000000000     -5.166041000000000
C      -3.941747000000000      4.083631000000000     -1.684273000000000
H      -4.245856000000000      2.879782000000000     -4.119392000000000
C       2.250450000000000     -0.454963000000000      1.308534000000000
C       3.277420000000000      0.465913000000000      1.524853000000000
C       1.501054000000000     -0.917612000000000      2.390548000000000
C       3.592513000000000      0.900889000000000      2.812352000000000
H       3.845590000000000      0.849597000000000      0.678582000000000
C       1.749151000000000     -0.442909000000000      3.678935000000000
H       0.684933000000000     -1.613905000000000      2.214503000000000
C       2.801876000000000      0.456990000000000      3.872750000000000
C       4.776033000000000      1.811151000000000      3.026139000000000
C       0.898412000000000     -0.885020000000000      4.841821000000000
H       3.008502000000000      0.820932000000000      4.878431000000000
C       3.401878000000000     -1.648830000000000     -1.056717000000000
C       4.529537000000000     -1.857576000000000     -0.265391000000000
C       3.420119000000000     -2.104617000000000     -2.384820000000000
C       5.670319000000000     -2.485327000000000     -0.783030000000000
H       4.534688000000000     -1.545808000000000      0.774313000000000
C       4.546820000000000     -2.710583000000000     -2.928896000000000
H       2.535078000000000     -1.989890000000000     -3.005387000000000
C       5.668681000000000     -2.892937000000000     -2.111602000000000
C       6.865105000000000     -2.721495000000000      0.106316000000000
C       4.563210000000000     -3.177368000000000     -4.362400000000000
H       6.552646000000000     -3.377162000000000     -2.523108000000000
C       1.114894000000000      4.066024000000000      2.850750000000000
C       0.290948000000000      5.291971000000000      2.495216000000000
C       2.439921000000000      4.375326000000000      3.501585000000000
C       0.159270000000000      4.976146000000000     -1.898322000000000
C      -1.052039000000000      5.558905000000000     -2.586572000000000
C       0.959967000000000      5.970308000000000     -1.077737000000000
O       0.349975000000000      3.228669000000000      3.735567000000000
O       1.014292000000000      4.405010000000000     -2.901517000000000
H       5.710800000000000      1.284859000000000      2.804350000000000
H       4.832100000000000      2.164003000000000      4.059840000000000
H       4.726882000000000      2.683159000000000      2.365969000000000
H       0.626862000000000     -0.031069000000000      5.470838000000000
H       1.430603000000000     -1.605604000000000      5.472600000000000
H      -0.024052000000000     -1.356969000000000      4.492894000000000
H       6.652560000000000     -3.500140000000000      0.846708000000000
H       7.133590000000000     -1.814016000000000      0.656050000000000
H       7.735546000000000     -3.038811000000000     -0.473569000000000
H       4.806299000000000     -4.242814000000000     -4.425397000000000
H       5.316051000000000     -2.635352000000000     -4.944469000000000
H       3.592099000000000     -3.022757000000000     -4.839677000000000
H      -7.633282000000000     -0.699620000000000      0.632873000000000
H      -6.684337000000000      0.779967000000000      0.832860000000000
H      -7.164821000000000     -0.169289000000000      2.248837000000000
H      -3.436986000000000     -4.706254000000000      2.645620000000000
H      -4.238286000000000     -5.232881000000000      1.160605000000000
H      -5.206357000000000     -4.784151000000000      2.582941000000000
H      -2.746204000000000      0.161365000000000     -5.687559000000000
H      -4.206466000000000      1.161042000000000     -5.767590000000000
H      -4.286794000000000     -0.485720000000000     -5.121038000000000
H      -3.283614000000000      4.501207000000000     -0.916975000000000
H      -4.947084000000000      4.007223000000000     -1.254337000000000
H      -3.994779000000000      4.788770000000000     -2.519009000000000
H      -0.596201000000000      4.986279000000000      1.931805000000000
H       0.884484000000000      5.971650000000000      1.879566000000000
H      -0.017511000000000      5.807862000000000      3.407725000000000
H       3.092995000000000      4.888446000000000      2.791129000000000
H       2.903515000000000      3.440344000000000      3.817804000000000
H       2.284416000000000      5.016057000000000      4.373190000000000
H      -0.729801000000000      6.319343000000000     -3.302432000000000
H      -1.721145000000000      6.017974000000000     -1.855415000000000
H      -1.580390000000000      4.761761000000000     -3.115755000000000
H       1.771179000000000      5.443091000000000     -0.566135000000000
H       0.314753000000000      6.442172000000000     -0.332753000000000
H       1.379926000000000      6.738972000000000     -1.731120000000000
C       0.528522000000000     -4.157552000000000     -1.472449000000000
C      -0.879074000000000     -4.124035000000000     -1.337697000000000
C      -1.807259000000000     -4.224933000000000     -2.511176000000000
O      -2.158740000000000     -5.602454000000000     -2.802726000000000
C      -3.063820000000000     -6.155627000000000     -1.988231000000000
C      -3.319989000000000     -7.594981000000000     -2.358369000000000
O      -3.598998000000000     -5.571931000000000     -1.074195000000000
H       0.974880000000000     -4.230238000000000     -2.463469000000000
H       1.143268000000000     -4.557726000000000     -0.672394000000000
H      -1.314600000000000     -4.498569000000000     -0.415666000000000
H      -1.330108000000000     -3.874015000000000     -3.429814000000000
H      -2.734249000000000     -3.671363000000000     -2.335952000000000
H      -2.405975000000000     -8.175428000000000     -2.206829000000000
H      -3.586191000000000     -7.667692000000000     -3.415303000000000
H      -4.120431000000000     -7.992467000000000     -1.736130000000000
