187

H      -0.210581000000000     -1.731028000000000      1.684145000000000
C      -0.823793000000000     -2.850961000000000     -1.592697000000000
O      -1.017153000000000     -3.307985000000000     -2.629063000000000
Rh     -0.478724000000000     -2.176240000000000      0.189973000000000
C       1.755683000000000      0.143743000000000     -2.813381000000000
C       1.347776000000000      0.241880000000000     -1.484639000000000
C       0.630748000000000      1.392075000000000     -1.040129000000000
C       0.367350000000000      2.346764000000000     -2.000566000000000
C       0.772269000000000      2.230664000000000     -3.326977000000000
C       1.478129000000000      1.139676000000000     -3.767509000000000
H       2.325021000000000     -0.720805000000000     -3.134792000000000
O      -0.277314000000000      3.539474000000000     -1.829711000000000
H       1.812897000000000      1.053938000000000     -4.795084000000000
C       0.212459000000000      1.718780000000000      0.358905000000000
C       0.887590000000000      2.733327000000000      1.007067000000000
C      -0.905327000000000      1.175475000000000      1.052739000000000
C       0.513528000000000      3.221686000000000      2.255145000000000
O       1.964527000000000      3.442339000000000      0.552116000000000
C      -1.279562000000000      1.686915000000000      2.293696000000000
C      -0.576934000000000      2.726692000000000      2.925096000000000
H      -2.152870000000000      1.285962000000000      2.794339000000000
H      -0.885527000000000      3.124556000000000      3.885177000000000
P       1.586570000000000     -1.137284000000000     -0.272783000000000
P      -1.786708000000000     -0.245624000000000      0.275390000000000
C      -3.250191000000000     -0.539456000000000      1.335213000000000
C      -4.551721000000000     -0.531467000000000      0.824986000000000
C      -3.027880000000000     -0.970387000000000      2.643320000000000
C      -5.623574000000000     -0.949336000000000      1.614910000000000
H      -4.716427000000000     -0.219136000000000     -0.199651000000000
C      -4.081036000000000     -1.358553000000000      3.471811000000000
H      -2.004977000000000     -1.019306000000000      3.010247000000000
C      -5.367549000000000     -1.338077000000000      2.934453000000000
C      -7.053176000000000     -1.032731000000000      1.074540000000000
C      -3.785954000000000     -1.780327000000000      4.913309000000000
H      -6.198984000000000     -1.675257000000000      3.543677000000000
C      -2.474230000000000      0.616571000000000     -1.197652000000000
C      -2.235907000000000      0.137133000000000     -2.487583000000000
C      -3.182507000000000      1.801721000000000     -1.021667000000000
C      -2.712841000000000      0.822964000000000     -3.604910000000000
H      -1.649236000000000     -0.765582000000000     -2.608685000000000
C      -3.682466000000000      2.516286000000000     -2.114276000000000
H      -3.343127000000000      2.171312000000000     -0.011011000000000
C      -3.442360000000000      2.001940000000000     -3.389961000000000
C      -2.489057000000000      0.323616000000000     -5.034686000000000
C      -4.462738000000000      3.808416000000000     -1.861823000000000
H      -3.826645000000000      2.534401000000000     -4.254500000000000
C       2.544387000000000     -0.222496000000000      1.004041000000000
C       3.643924000000000      0.533567000000000      0.603420000000000
C       2.156203000000000     -0.226011000000000      2.344193000000000
C       4.392303000000000      1.270831000000000      1.525814000000000
H       3.923923000000000      0.536935000000000     -0.447955000000000
C       2.853987000000000      0.525569000000000      3.289586000000000
H       1.281258000000000     -0.801080000000000      2.623470000000000
C       3.975386000000000      1.251406000000000      2.859157000000000
C       5.637949000000000      2.022349000000000      1.043173000000000
C       2.451172000000000      0.549083000000000      4.766591000000000
H       4.536606000000000      1.818871000000000      3.595294000000000
C       2.857657000000000     -2.231072000000000     -1.032781000000000
C       4.106313000000000     -2.459455000000000     -0.441685000000000
C       2.509241000000000     -2.949681000000000     -2.175439000000000
C       5.006863000000000     -3.367372000000000     -0.998677000000000
H       4.363166000000000     -1.931594000000000      0.468240000000000
C       3.404333000000000     -3.831314000000000     -2.789656000000000
H       1.520314000000000     -2.818090000000000     -2.605321000000000
C       4.646296000000000     -4.019977000000000     -2.185409000000000
C       6.373430000000000     -3.652532000000000     -0.368242000000000
C       2.971693000000000     -4.561926000000000     -4.063077000000000
H       5.356966000000000     -4.703706000000000     -2.637580000000000
C       2.398051000000000      4.224743000000000      1.658440000000000
H       2.602183000000000      5.242976000000000      1.323085000000000
H       3.283853000000000      3.756455000000000      2.106884000000000
C      -0.480827000000000      4.050284000000000     -3.141755000000000
H      -1.520297000000000      3.864957000000000     -3.444467000000000
H      -0.234193000000000      5.112736000000000     -3.158483000000000
O       1.345675000000000      4.242992000000000      2.615345000000000
O       0.396313000000000      3.348871000000000     -4.016967000000000
C       6.667773000000000      0.989780000000000      0.551245000000000
H       6.971174000000000      0.329174000000000      1.370404000000000
H       6.256668000000000      0.368473000000000     -0.252490000000000
H       7.562031000000000      1.494373000000000      0.168081000000000
C       5.281357000000000      2.962588000000000     -0.120821000000000
H       4.824225000000000      2.426647000000000     -0.957213000000000
H       4.576697000000000      3.738038000000000      0.192822000000000
H       6.187706000000000      3.455254000000000     -0.490073000000000
C       6.287445000000000      2.851900000000000      2.155599000000000
H       6.624680000000000      2.222304000000000      2.985510000000000
H       7.162727000000000      3.375870000000000      1.758306000000000
H       5.601003000000000      3.607222000000000      2.555500000000000
C       2.349645000000000      2.000505000000000      5.264835000000000
H       1.622180000000000      2.568327000000000      4.676729000000000
H       2.032734000000000      2.012772000000000      6.313593000000000
H       3.309939000000000      2.522330000000000      5.206017000000000
C       1.096332000000000     -0.132893000000000      4.996512000000000
H       0.310535000000000      0.335608000000000      4.391877000000000
H       1.130747000000000     -1.199480000000000      4.749326000000000
H       0.815149000000000     -0.046220000000000      6.051322000000000
C       3.523165000000000     -0.192820000000000      5.582655000000000
H       3.611030000000000     -1.232851000000000      5.251532000000000
H       4.504069000000000      0.281541000000000      5.472299000000000
H       3.261596000000000     -0.189921000000000      6.646930000000000
C       6.529770000000000     -2.976717000000000      0.997973000000000
H       7.509791000000000     -3.224510000000000      1.418745000000000
H       6.466365000000000     -1.886985000000000      0.921090000000000
H       5.762814000000000     -3.315654000000000      1.702670000000000
C       6.549794000000000     -5.167517000000000     -0.169923000000000
H       7.517953000000000     -5.373101000000000      0.300043000000000
H       5.761613000000000     -5.567479000000000      0.476175000000000
H       6.518691000000000     -5.712101000000000     -1.118107000000000
C       7.474707000000000     -3.126702000000000     -1.304082000000000
H       8.464447000000000     -3.331007000000000     -0.880119000000000
H       7.422464000000000     -3.601874000000000     -2.288997000000000
H       7.377577000000000     -2.044791000000000     -1.445196000000000
C       4.103563000000000     -5.406140000000000     -4.656748000000000
H       4.420922000000000     -6.196582000000000     -3.968484000000000
H       3.757444000000000     -5.887001000000000     -5.577204000000000
H       4.976193000000000     -4.792116000000000     -4.905005000000000
C       1.790488000000000     -5.489651000000000     -3.729833000000000
H       1.468505000000000     -6.029266000000000     -4.627782000000000
H       2.078730000000000     -6.224169000000000     -2.970564000000000
H       0.933071000000000     -4.925804000000000     -3.349830000000000
C       2.528362000000000     -3.535046000000000     -5.119659000000000
H       1.669171000000000     -2.947028000000000     -4.779681000000000
H       3.344366000000000     -2.843558000000000     -5.356651000000000
H       2.233467000000000     -4.047622000000000     -6.041949000000000
C      -7.149209000000000     -0.569371000000000     -0.382852000000000
H      -8.188419000000000     -0.637244000000000     -0.721059000000000
H      -6.824983000000000      0.470804000000000     -0.498023000000000
H      -6.539949000000000     -1.193548000000000     -1.045178000000000
C      -7.522719000000000     -2.496013000000000      1.148466000000000
H      -7.510237000000000     -2.872755000000000      2.175484000000000
H      -8.544233000000000     -2.587185000000000      0.761452000000000
H      -6.865218000000000     -3.139378000000000      0.554477000000000
C      -7.980171000000000     -0.147483000000000      1.923341000000000
H      -7.661564000000000      0.899585000000000      1.878614000000000
H      -9.009109000000000     -0.210160000000000      1.551374000000000
H      -7.983161000000000     -0.455041000000000      2.973369000000000
C      -3.355347000000000     -0.533911000000000      5.705392000000000
H      -4.146126000000000      0.224050000000000      5.699864000000000
H      -3.137169000000000     -0.798212000000000      6.746648000000000
H      -2.452413000000000     -0.086602000000000      5.273247000000000
C      -5.012674000000000     -2.406948000000000      5.583297000000000
H      -4.750062000000000     -2.740944000000000      6.592547000000000
H      -5.836343000000000     -1.691047000000000      5.676626000000000
H      -5.360390000000000     -3.273383000000000      5.010574000000000
C      -2.650882000000000     -2.817592000000000      4.948251000000000
H      -2.459095000000000     -3.120707000000000      5.983930000000000
H      -2.929410000000000     -3.702082000000000      4.368345000000000
H      -1.713625000000000     -2.419020000000000      4.545083000000000
C      -3.848587000000000     -0.061703000000000     -5.642606000000000
H      -4.530896000000000      0.794224000000000     -5.671497000000000
H      -3.716002000000000     -0.424267000000000     -6.668221000000000
H      -4.324256000000000     -0.854137000000000     -5.055499000000000
C      -1.848418000000000      1.433596000000000     -5.884492000000000
H      -0.885197000000000      1.742978000000000     -5.466942000000000
H      -1.682706000000000      1.072764000000000     -6.905796000000000
H      -2.487398000000000      2.320457000000000     -5.948144000000000
C      -1.571655000000000     -0.903381000000000     -5.075094000000000
H      -2.010288000000000     -1.757004000000000     -4.548725000000000
H      -1.406983000000000     -1.202389000000000     -6.115602000000000
H      -0.595635000000000     -0.686304000000000     -4.624924000000000
C      -3.593616000000000      4.779628000000000     -1.044283000000000
H      -3.302565000000000      4.354939000000000     -0.079266000000000
H      -2.672971000000000      5.029688000000000     -1.581962000000000
H      -4.144264000000000      5.707637000000000     -0.854142000000000
C      -4.871182000000000      4.504497000000000     -3.163549000000000
H      -3.997731000000000      4.773425000000000     -3.769076000000000
H      -5.529377000000000      3.874242000000000     -3.770749000000000
H      -5.413086000000000      5.427089000000000     -2.932167000000000
C      -5.737618000000000      3.472224000000000     -1.068688000000000
H      -6.383180000000000      2.800734000000000     -1.644965000000000
H      -5.501407000000000      2.980945000000000     -0.118691000000000
H      -6.301407000000000      4.385600000000000     -0.847771000000000
C      -0.260800000000000     -4.196586000000000      0.956665000000000
C      -1.576975000000000     -3.732955000000000      1.200659000000000
C      -2.765890000000000     -4.247626000000000      0.441880000000000
O      -3.280533000000000     -5.472926000000000      1.025078000000000
C      -4.097314000000000     -5.345806000000000      2.074992000000000
C      -4.505753000000000     -6.696107000000000      2.608819000000000
O      -4.452063000000000     -4.285809000000000      2.539319000000000
H      -0.083955000000000     -4.924956000000000      0.166821000000000
H       0.465097000000000     -4.221863000000000      1.762899000000000
H      -1.829371000000000     -3.382409000000000      2.199282000000000
H      -2.499049000000000     -4.540869000000000     -0.575814000000000
H      -3.574025000000000     -3.509776000000000      0.422047000000000
H      -3.629697000000000     -7.194536000000000      3.032998000000000
H      -4.883135000000000     -7.323415000000000      1.798409000000000
H      -5.265816000000000     -6.566775000000000      3.378068000000000
