86

H      -4.125134000000000     -3.795040000000000     -2.444728000000000
H      -2.353562000000000     -2.152598000000000     -1.916894000000000
H      -3.121906000000000     -0.305349000000000      2.199405000000000
H      -3.268538000000000      0.170612000000000      4.614408000000000
H       0.778460000000000     -1.176463000000000      5.124853000000000
H       0.926716000000000     -1.671870000000000      2.715036000000000
H      -0.984864000000000      2.520738000000000      2.053520000000000
H      -0.869653000000000      2.726807000000000      4.511862000000000
H       3.244411000000000      1.496740000000000      4.418804000000000
H       3.138250000000000      1.311172000000000      1.963913000000000
H       2.760948000000000      6.449258000000000      0.688786000000000
H       2.525145000000000      4.043899000000000      1.185829000000000
C      -3.835354000000000     -3.628952000000000     -1.411967000000000
C      -2.835702000000000     -2.708324000000000     -1.115569000000000
C      -1.090165000000000     -1.035665000000000      2.290834000000000
C      -2.261457000000000     -0.494477000000000      2.838221000000000
C      -2.348584000000000     -0.231572000000000      4.201185000000000
C      -1.257464000000000     -0.485684000000000      5.029804000000000
C      -0.081259000000000     -0.994414000000000      4.487447000000000
C       0.005109000000000     -1.270435000000000      3.124651000000000
C       1.069845000000000      1.912697000000000      1.836088000000000
C      -0.054959000000000      2.303223000000000      2.571919000000000
C       0.011745000000000      2.423303000000000      3.955332000000000
C       1.199929000000000      2.137734000000000      4.625132000000000
C       2.316356000000000      1.726894000000000      3.904005000000000
C       2.253881000000000      1.616559000000000      2.515749000000000
C       1.052065000000000      3.692555000000000     -0.351810000000000
C       1.312556000000000      6.427629000000000     -0.906952000000000
C       2.070000000000000      5.845117000000000      0.108983000000000
C       1.938088000000000      4.489402000000000      0.386867000000000
H      -2.781529000000000     -3.036316000000000      2.267613000000000
H      -4.577404000000000     -4.645482000000000      1.741988000000000
H      -0.397207000000000      3.681951000000000     -1.940656000000000
H      -0.169714000000000      6.093983000000000     -2.431157000000000
C      -2.451359000000000     -2.476837000000000      0.210729000000000
C      -3.080849000000000     -3.189081000000000      1.235268000000000
C      -4.090691000000000     -4.102817000000000      0.937539000000000
C      -4.469162000000000     -4.324181000000000     -0.383684000000000
C       0.297085000000000      4.286447000000000     -1.365767000000000
C       0.426868000000000      5.647502000000000     -1.641818000000000
H      -0.825301000000000     -4.338718000000000      0.031786000000000
H       1.093621000000000     -5.743376000000000     -0.602200000000000
H       3.387120000000000      3.024203000000000     -1.474250000000000
H       5.417138000000000      1.843655000000000     -2.261555000000000
C       0.162227000000000     -3.897238000000000     -0.035888000000000
C       0.340445000000000     -2.529172000000000      0.223801000000000
C       1.632776000000000     -2.030621000000000      0.142529000000000
C       2.724044000000000     -2.793989000000000     -0.284882000000000
C       2.520066000000000     -4.141919000000000     -0.554843000000000
C       1.245356000000000     -4.687778000000000     -0.403378000000000
C       2.779389000000000     -0.065867000000000     -0.262468000000000
C       3.893804000000000     -0.762791000000000     -0.724525000000000
C       4.849896000000000     -0.058534000000000     -1.452030000000000
C       4.664102000000000      1.302293000000000     -1.698486000000000
C       3.525560000000000      1.970874000000000     -1.253661000000000
C       2.549993000000000      1.274784000000000     -0.530889000000000
O       1.856001000000000     -0.727267000000000      0.521146000000000
P      -1.042869000000000     -1.322225000000000      0.481581000000000
P       0.900558000000000      1.887482000000000     -0.000312000000000
H       1.412097000000000      7.487481000000000     -1.120131000000000
H      -5.255934000000000     -5.036217000000000     -0.612416000000000
H       1.250606000000000      2.226128000000000      5.706307000000000
H      -1.321302000000000     -0.277452000000000      6.093549000000000
Rh     -0.902083000000000      0.681125000000000     -1.061321000000000
H      -0.777491000000000      1.761977000000000     -2.150245000000000
C      -0.180321000000000     -0.428219000000000     -2.407974000000000
O       0.318580000000000     -1.053393000000000     -3.233553000000000
C      -2.441202000000000      1.969268000000000     -0.147299000000000
C      -3.016731000000000      1.299448000000000     -1.239416000000000
C      -4.072734000000000      0.257844000000000     -1.021280000000000
O      -5.371545000000000      0.876839000000000     -0.851439000000000
C      -5.985148000000000      1.264720000000000     -1.979204000000000
C      -7.311172000000000      1.915647000000000     -1.673381000000000
O      -5.528221000000000      1.110861000000000     -3.085773000000000
H      -2.699907000000000      1.651105000000000      0.862132000000000
H      -2.135878000000000      3.009008000000000     -0.233202000000000
H      -3.111051000000000      1.818318000000000     -2.189002000000000
H      -3.916553000000000     -0.288474000000000     -0.088885000000000
H      -4.139484000000000     -0.448829000000000     -1.850345000000000
H      -7.143402000000000      2.825227000000000     -1.090568000000000
H      -7.926276000000000      1.244725000000000     -1.069137000000000
H      -7.817926000000000      2.159005000000000     -2.605973000000000
H       5.731232000000000     -0.572645000000000     -1.824789000000000
H       3.352230000000000     -4.758769000000000     -0.882344000000000
N       3.958535000000000     -2.133735000000000     -0.419252000000000
H       4.668695000000000     -2.653158000000000     -0.919766000000000
