93

H       4.460675000000000     -1.201774000000000      3.814564000000000
H       3.922260000000000     -1.147543000000000      1.406925000000000
H       2.355904000000000     -4.125140000000000      1.455341000000000
H       3.227457000000000     -6.330771000000000      0.772819000000000
H       3.225532000000000     -5.060046000000000     -3.337355000000000
H       2.338125000000000     -2.872815000000000     -2.665570000000000
H       1.978041000000000      3.255853000000000     -2.836181000000000
H       2.643545000000000      5.513812000000000     -3.589526000000000
H       3.086665000000000      6.743674000000000      0.501460000000000
H       2.402948000000000      4.498060000000000      1.254536000000000
H       1.192457000000000      1.438390000000000      4.705786000000000
H       0.254059000000000      1.581301000000000      2.430661000000000
C       3.447863000000000     -1.412081000000000      3.485171000000000
C       3.142572000000000     -1.374013000000000      2.129672000000000
C       2.278814000000000     -3.347495000000000     -0.558034000000000
C       2.538466000000000     -4.330422000000000      0.404528000000000
C       3.028202000000000     -5.575324000000000      0.018940000000000
C       3.266850000000000     -5.848661000000000     -1.326617000000000
C       3.012833000000000     -4.876349000000000     -2.290148000000000
C       2.516598000000000     -3.632305000000000     -1.907990000000000
C       2.154728000000000      3.713737000000000     -0.741137000000000
C       2.221451000000000      4.019997000000000     -2.104296000000000
C       2.595893000000000      5.293012000000000     -2.527809000000000
C       2.913612000000000      6.274719000000000     -1.593435000000000
C       2.845245000000000      5.981705000000000     -0.233188000000000
C       2.463820000000000      4.711725000000000      0.191575000000000
C       2.159815000000000      1.940572000000000      1.486226000000000
C       3.216750000000000      1.805376000000000      4.074762000000000
C       1.852521000000000      1.630331000000000      3.865448000000000
C       1.323209000000000      1.702368000000000      2.578070000000000
H      -0.163945000000000     -2.144809000000000      2.301059000000000
H       0.372412000000000     -2.171334000000000      4.706915000000000
H       4.197519000000000      2.259482000000000      0.854599000000000
H       5.127907000000000      2.158029000000000      3.141907000000000
C       1.843337000000000     -1.645565000000000      1.685725000000000
C       0.848635000000000     -1.924597000000000      2.626022000000000
C       1.153266000000000     -1.948265000000000      3.986207000000000
C       2.452887000000000     -1.702244000000000      4.417073000000000
C       3.538080000000000      2.079490000000000      1.700669000000000
C       4.061031000000000      2.026793000000000      2.987818000000000
H      -0.115579000000000     -4.196336000000000     -0.631404000000000
Br     -4.846447000000000     -2.839896000000000     -0.385364000000000
H      -2.576405000000000     -4.484351000000000     -0.700600000000000
Br     -4.880478000000000      3.134327000000000      0.027254000000000
H      -0.175349000000000      4.557179000000000     -0.250231000000000
H      -2.629790000000000      4.828859000000000     -0.148455000000000
C      -0.766392000000000     -3.341801000000000     -0.476937000000000
C      -0.228602000000000     -2.087135000000000     -0.218683000000000
C      -1.120170000000000     -1.025523000000000     -0.029475000000000
C      -2.508156000000000     -1.112181000000000     -0.131342000000000
C      -2.991124000000000     -2.414674000000000     -0.352175000000000
C      -2.146161000000000     -3.505545000000000     -0.527078000000000
C      -1.129484000000000      1.333909000000000      0.086218000000000
C      -2.521369000000000      1.416298000000000      0.025668000000000
C      -3.021187000000000      2.728748000000000     -0.030892000000000
C      -2.188784000000000      3.840398000000000     -0.105364000000000
C      -0.808773000000000      3.683127000000000     -0.142720000000000
C      -0.247484000000000      2.413772000000000     -0.045395000000000
C      -3.386523000000000      0.141770000000000      0.032630000000000
O      -0.510003000000000      0.142490000000000      0.317903000000000
P       1.571445000000000     -1.705231000000000     -0.130669000000000
P       1.554966000000000      2.042918000000000     -0.244688000000000
C      -4.086196000000000      0.047201000000000      1.408265000000000
H      -4.704996000000000     -0.850028000000000      1.467290000000000
H      -3.332774000000000      0.002854000000000      2.201332000000000
H      -4.721916000000000      0.917093000000000      1.582359000000000
C      -4.378818000000000      0.213886000000000     -1.172284000000000
H      -4.243571000000000      1.136445000000000     -1.736626000000000
H      -4.207728000000000     -0.608067000000000     -1.867783000000000
H      -5.418281000000000      0.168310000000000     -0.840178000000000
H       3.623596000000000      1.757921000000000      5.080450000000000
H       2.690565000000000     -1.728894000000000      5.476223000000000
H       3.212569000000000      7.264953000000000     -1.922799000000000
H       3.659112000000000     -6.817039000000000     -1.621876000000000
Rh      2.174846000000000      0.198049000000000     -1.672369000000000
H       2.495658000000000      1.251076000000000     -2.752945000000000
C       0.696422000000000     -0.221349000000000     -2.792750000000000
O      -0.189332000000000     -0.391029000000000     -3.503438000000000
C       4.323048000000000      0.310947000000000     -1.284747000000000
C       4.054734000000000     -0.664543000000000     -2.268610000000000
C       4.353318000000000     -0.438652000000000     -3.725621000000000
O       5.616522000000000     -1.043794000000000     -4.090325000000000
C       5.578722000000000     -2.361541000000000     -4.324468000000000
C       6.949098000000000     -2.892489000000000     -4.659954000000000
O       4.572745000000000     -3.031004000000000     -4.269037000000000
H       4.715087000000000      1.281599000000000     -1.584366000000000
H       4.587352000000000      0.009489000000000     -0.275066000000000
H       4.091482000000000     -1.711997000000000     -1.977828000000000
H       4.477452000000000      0.624909000000000     -3.939558000000000
H       3.579310000000000     -0.857691000000000     -4.371485000000000
H       7.608830000000000     -2.762216000000000     -3.798010000000000
H       7.375406000000000     -2.326079000000000     -5.491091000000000
H       6.876293000000000     -3.948149000000000     -4.916791000000000
