97

H      -1.337800000000000     -2.857926000000000      4.995029000000000
H      -1.388865000000000     -2.835972000000000      2.527602000000000
H      -3.258535000000000     -1.913296000000000     -1.713542000000000
H      -5.558283000000000     -2.687208000000000     -2.081256000000000
H      -6.523466000000000     -1.790072000000000      2.014062000000000
H      -4.206650000000000     -1.030393000000000      2.394027000000000
H       2.858305000000000     -2.403025000000000     -2.205231000000000
H       4.985736000000000     -3.475102000000000     -2.865744000000000
H       6.456971000000000     -3.014981000000000      1.142927000000000
H       4.342003000000000     -1.930103000000000      1.798164000000000
H       1.869290000000000     -3.960118000000000      4.345916000000000
H       1.902462000000000     -3.570019000000000      1.905489000000000
C      -1.479947000000000     -1.919262000000000      4.468421000000000
C      -1.501987000000000     -1.905750000000000      3.078605000000000
C      -3.572593000000000     -1.411301000000000      0.364948000000000
C      -3.974211000000000     -1.869141000000000     -0.895796000000000
C      -5.281340000000000     -2.301155000000000     -1.106626000000000
C      -6.199999000000000     -2.271182000000000     -0.060818000000000
C      -5.810030000000000     -1.812591000000000      1.195948000000000
C      -4.502313000000000     -1.385700000000000      1.411192000000000
C       3.445856000000000     -2.100745000000000     -0.158068000000000
C       3.646983000000000     -2.537126000000000     -1.471277000000000
C       4.846553000000000     -3.140687000000000     -1.842458000000000
C       5.858456000000000     -3.319195000000000     -0.903725000000000
C       5.670311000000000     -2.883529000000000      0.406358000000000
C       4.474369000000000     -2.274935000000000      0.776850000000000
C       1.827329000000000     -1.420826000000000      2.077111000000000
C       1.768748000000000     -1.864246000000000      4.839991000000000
C       1.832109000000000     -2.945046000000000      3.961828000000000
C       1.846444000000000     -2.725653000000000      2.589082000000000
H      -1.966779000000000      1.424437000000000      2.579857000000000
H      -1.885669000000000      1.402175000000000      5.044172000000000
H       1.721299000000000      0.672916000000000      2.583202000000000
H       1.642943000000000      0.276749000000000      5.015860000000000
C      -1.687553000000000     -0.705912000000000      2.382492000000000
C      -1.817068000000000      0.484342000000000      3.102397000000000
C      -1.779592000000000      0.471025000000000      4.495812000000000
C      -1.621712000000000     -0.729616000000000      5.180629000000000
C       1.746984000000000     -0.344499000000000      2.962247000000000
C       1.712020000000000     -0.568124000000000      4.337549000000000
H      -4.199791000000000      1.005085000000000     -0.139040000000000
C      -2.309465000000000      5.063031000000000     -0.950077000000000
H      -4.249913000000000      3.412846000000000     -0.733365000000000
C       3.432195000000000      4.546353000000000     -0.911925000000000
H       4.537925000000000      0.184911000000000     -0.269827000000000
H       5.036279000000000      2.560273000000000     -0.743867000000000
C      -3.277616000000000      1.575206000000000     -0.185797000000000
C      -2.062164000000000      0.966406000000000      0.106933000000000
C      -0.904247000000000      1.750061000000000      0.031360000000000
C      -0.867452000000000      3.079795000000000     -0.374358000000000
C      -2.127439000000000      3.673653000000000     -0.626024000000000
C      -3.305778000000000      2.920308000000000     -0.529650000000000
C       1.445957000000000      1.525301000000000      0.009451000000000
C       1.653151000000000      2.848188000000000     -0.370363000000000
C       2.999135000000000      3.207158000000000     -0.616722000000000
C       4.017003000000000      2.245741000000000     -0.549428000000000
C       3.737322000000000      0.916774000000000     -0.263986000000000
C       2.431563000000000      0.528591000000000      0.025322000000000
C       0.470812000000000      3.815721000000000     -0.542006000000000
O       0.222691000000000      1.094439000000000      0.431507000000000
P      -1.846340000000000     -0.807556000000000      0.554617000000000
P       1.878096000000000     -1.222372000000000      0.252164000000000
C       0.568194000000000      4.941116000000000      0.507225000000000
H      -0.258584000000000      5.645501000000000      0.390640000000000
H       0.527580000000000      4.518901000000000      1.516294000000000
H       1.506810000000000      5.488570000000000      0.396388000000000
C       0.525963000000000      4.361687000000000     -1.987408000000000
H       0.442648000000000      3.532217000000000     -2.696614000000000
H      -0.290103000000000      5.060262000000000     -2.171643000000000
H       1.463898000000000      4.885795000000000     -2.170896000000000
H       1.750786000000000     -2.033392000000000      5.912519000000000
H      -1.600922000000000     -0.739617000000000      6.266231000000000
H       6.790934000000000     -3.795322000000000     -1.190604000000000
H      -7.217884000000000     -2.613248000000000     -0.221378000000000
Rh     -0.113696000000000     -1.912750000000000     -0.926436000000000
H       0.823501000000000     -2.550241000000000     -1.971432000000000
C      -0.443478000000000     -0.620250000000000     -2.282954000000000
O      -0.551599000000000      0.153060000000000     -3.125054000000000
C      -2.562597000000000      6.215796000000000     -1.203173000000000
H      -2.766832000000000      7.237577000000000     -1.432899000000000
C       3.890367000000000      5.638644000000000     -1.144447000000000
H       4.276800000000000      6.610954000000000     -1.353642000000000
C      -0.192582000000000     -3.939248000000000     -0.116529000000000
C      -1.199957000000000     -3.762437000000000     -1.089764000000000
C      -1.103597000000000     -4.366256000000000     -2.464069000000000
O      -1.860905000000000     -5.598026000000000     -2.537835000000000
C      -3.179692000000000     -5.454135000000000     -2.717271000000000
C      -3.873336000000000     -6.792439000000000     -2.741072000000000
O      -3.734829000000000     -4.386431000000000     -2.840248000000000
H       0.710789000000000     -4.490441000000000     -0.373004000000000
H      -0.452149000000000     -3.964418000000000      0.938205000000000
H      -2.223909000000000     -3.623023000000000     -0.750577000000000
H      -0.075435000000000     -4.652730000000000     -2.694826000000000
H      -1.481229000000000     -3.691720000000000     -3.234838000000000
H      -3.760414000000000     -7.275859000000000     -1.767036000000000
H      -3.408846000000000     -7.440674000000000     -3.487635000000000
H      -4.929305000000000     -6.649670000000000     -2.965239000000000
