97

H      -0.761350000000000     -4.217389000000000      3.580970000000000
H      -0.843526000000000     -3.460447000000000      1.232712000000000
H      -4.017683000000000     -2.098502000000000      1.485295000000000
H      -6.194447000000000     -3.014378000000000      0.769117000000000
H      -5.026613000000000     -2.571009000000000     -3.347985000000000
H      -2.870046000000000     -1.639614000000000     -2.641035000000000
H       3.194608000000000     -1.506487000000000     -2.872078000000000
H       5.483393000000000     -2.072055000000000     -3.622963000000000
H       6.903119000000000     -1.658431000000000      0.409521000000000
H       4.620109000000000     -1.094500000000000      1.157221000000000
H       2.551053000000000     -4.577781000000000      2.807824000000000
H       2.481834000000000     -3.458232000000000      0.607324000000000
C      -1.091011000000000     -3.208738000000000      3.352229000000000
C      -1.132967000000000     -2.780778000000000      2.030117000000000
C      -3.294194000000000     -1.799819000000000     -0.527282000000000
C      -4.239685000000000     -2.194513000000000      0.426532000000000
C      -5.467812000000000     -2.710029000000000      0.022055000000000
C      -5.762015000000000     -2.838507000000000     -1.334001000000000
C      -4.827318000000000     -2.448386000000000     -2.289259000000000
C      -3.599566000000000     -1.927460000000000     -1.887724000000000
C       3.747405000000000     -1.263300000000000     -0.809844000000000
C       4.007293000000000     -1.539103000000000     -2.153677000000000
C       5.298179000000000     -1.857660000000000     -2.575104000000000
C       6.341037000000000     -1.903379000000000     -1.656638000000000
C       6.092912000000000     -1.626869000000000     -0.312249000000000
C       4.806338000000000     -1.309886000000000      0.108365000000000
C       2.050442000000000     -1.507427000000000      1.420223000000000
C       2.115598000000000     -2.779758000000000      3.914554000000000
C       2.340209000000000     -3.514040000000000      2.751158000000000
C       2.296505000000000     -2.884413000000000      1.512765000000000
H      -2.243166000000000      0.393431000000000      2.526202000000000
H      -2.129112000000000     -0.355832000000000      4.872316000000000
H       1.624053000000000      0.285971000000000      2.542997000000000
H       1.653880000000000     -0.842861000000000      4.729749000000000
C      -1.553901000000000     -1.484187000000000      1.715707000000000
C      -1.906453000000000     -0.614504000000000      2.750894000000000
C      -1.849912000000000     -1.040041000000000      4.076783000000000
C      -1.450394000000000     -2.338154000000000      4.379082000000000
C       1.815824000000000     -0.781306000000000      2.588997000000000
C       1.843332000000000     -1.418426000000000      3.828818000000000
H      -4.172027000000000      0.610233000000000     -0.686450000000000
H      -2.700509000000000      4.579974000000000     -0.014179000000000
C      -4.819450000000000      3.195548000000000     -0.797242000000000
H       2.355398000000000      4.925875000000000      0.111865000000000
H       4.334062000000000      1.209196000000000     -0.662183000000000
C       4.655619000000000      3.847955000000000     -0.646984000000000
C      -3.362144000000000      1.262677000000000     -0.376511000000000
C      -2.134526000000000      0.729429000000000      0.005445000000000
C      -1.134380000000000      1.620413000000000      0.393371000000000
C      -1.291930000000000      3.004396000000000      0.415446000000000
C      -2.520832000000000      3.510763000000000      0.004577000000000
C      -3.556656000000000      2.651640000000000     -0.388365000000000
C       1.185871000000000      1.774765000000000      0.421239000000000
C       1.158088000000000      3.168054000000000      0.467863000000000
C       2.318314000000000      3.842264000000000      0.103439000000000
C       3.464629000000000      3.135256000000000     -0.284016000000000
C       3.445447000000000      1.734603000000000     -0.329598000000000
C       2.293269000000000      1.028303000000000      0.013774000000000
C      -0.127811000000000      3.828864000000000      0.959006000000000
O       0.062611000000000      1.064513000000000      0.773373000000000
P      -1.680206000000000     -1.052947000000000     -0.064902000000000
P       2.051130000000000     -0.781260000000000     -0.270777000000000
C      -0.158854000000000      3.733370000000000      2.501610000000000
H      -0.104451000000000      2.690334000000000      2.830351000000000
H       0.690509000000000      4.276139000000000      2.928901000000000
H      -1.087248000000000      4.168500000000000      2.885728000000000
C      -0.216972000000000      5.295887000000000      0.542133000000000
H       0.613090000000000      5.866044000000000      0.968382000000000
H      -0.196653000000000      5.405647000000000     -0.546535000000000
H      -1.138162000000000      5.745273000000000      0.923263000000000
H       2.144384000000000     -3.269577000000000      4.883291000000000
H      -1.411649000000000     -2.670014000000000      5.412211000000000
H       7.345419000000000     -2.153738000000000     -1.983812000000000
H      -6.717511000000000     -3.249865000000000     -1.644858000000000
Rh      0.203801000000000     -1.355091000000000     -1.696758000000000
H       1.228288000000000     -1.451120000000000     -2.847594000000000
C      -0.357734000000000      0.211231000000000     -2.617741000000000
O      -0.619271000000000      1.159633000000000     -3.208670000000000
C      -5.881486000000000      3.654389000000000     -1.138198000000000
H      -6.820766000000000      4.055945000000000     -1.445462000000000
C       5.656838000000000      4.448601000000000     -0.949685000000000
H       6.542528000000000      4.977089000000000     -1.221922000000000
C       0.475306000000000     -3.524881000000000     -1.574236000000000
C      -0.549407000000000     -3.214517000000000     -2.491892000000000
C      -0.354598000000000     -3.320513000000000     -3.979630000000000
O      -0.884826000000000     -4.571508000000000     -4.478759000000000
C      -2.209786000000000     -4.600214000000000     -4.670226000000000
C      -2.658928000000000     -5.954862000000000     -5.155553000000000
O      -2.943112000000000     -3.658434000000000     -4.474362000000000
H       1.460447000000000     -3.807013000000000     -1.942419000000000
H       0.228009000000000     -3.924983000000000     -0.595038000000000
H      -1.581141000000000     -3.357995000000000     -2.179170000000000
H       0.706999000000000     -3.342169000000000     -4.235003000000000
H      -0.846886000000000     -2.507291000000000     -4.516338000000000
H      -2.449477000000000     -6.702992000000000     -4.386437000000000
H      -2.098756000000000     -6.235060000000000     -6.050602000000000
H      -3.726521000000000     -5.928108000000000     -5.368167000000000
