99

H      -4.211880000000000     -3.868162000000000     -3.099852000000000
H      -2.758037000000000     -2.073876000000000     -2.227310000000000
H      -0.312673000000000     -1.628138000000000      2.796624000000000
H      -0.800913000000000     -1.462442000000000      5.208379000000000
H      -4.859228000000000     -0.365287000000000      4.324109000000000
H      -4.371205000000000     -0.502808000000000      1.911395000000000
H      -2.613490000000000      2.418813000000000      2.247783000000000
H      -2.676623000000000      2.296339000000000      4.715498000000000
H       1.544803000000000      1.505962000000000      4.781958000000000
H       1.618432000000000      1.662563000000000      2.324542000000000
H      -1.813032000000000      6.539907000000000     -1.911309000000000
H      -1.694480000000000      4.079064000000000     -1.704078000000000
C      -4.129042000000000     -3.717147000000000     -2.028263000000000
C      -3.304272000000000     -2.711597000000000     -1.536101000000000
C      -2.308846000000000     -1.087623000000000      2.186227000000000
C      -1.309261000000000     -1.348146000000000      3.125380000000000
C      -1.587686000000000     -1.261021000000000      4.487970000000000
C      -2.863845000000000     -0.918925000000000      4.924149000000000
C      -3.862213000000000     -0.638783000000000      3.992659000000000
C      -3.583129000000000     -0.710503000000000      2.632156000000000
C      -0.493840000000000      2.056325000000000      2.115188000000000
C      -1.700375000000000      2.225776000000000      2.805685000000000
C      -1.734529000000000      2.161180000000000      4.193401000000000
C      -0.566275000000000      1.905357000000000      4.909919000000000
C       0.631707000000000      1.710023000000000      4.230968000000000
C       0.670345000000000      1.789378000000000      2.839189000000000
C      -0.661801000000000      4.116429000000000      0.183295000000000
C      -0.801668000000000      6.905436000000000     -0.046466000000000
C      -1.336359000000000      6.095572000000000     -1.043255000000000
C      -1.268936000000000      4.708039000000000     -0.928260000000000
H      -3.821760000000000     -3.170445000000000      1.793494000000000
H      -5.308171000000000     -4.930671000000000      0.915337000000000
H       0.342936000000000      4.496336000000000      2.056001000000000
H       0.219840000000000      6.951903000000000      1.849931000000000
C      -3.187904000000000     -2.497226000000000     -0.156908000000000
C      -3.910377000000000     -3.310357000000000      0.720613000000000
C      -4.746614000000000     -4.309893000000000      0.224173000000000
C      -4.857552000000000     -4.515064000000000     -1.147736000000000
C      -0.127891000000000      4.940691000000000      1.183239000000000
C      -0.196769000000000      6.325208000000000      1.067533000000000
H      -1.346238000000000     -4.122178000000000      0.387107000000000
C       3.166592000000000     -4.470465000000000     -0.270301000000000
H       0.779041000000000     -5.311240000000000      0.100932000000000
C       5.329711000000000      1.110640000000000     -1.095773000000000
H       1.860521000000000      4.037038000000000     -0.511030000000000
H       4.164840000000000      3.379190000000000     -1.082468000000000
C      -0.429570000000000     -3.557729000000000      0.254829000000000
C      -0.449116000000000     -2.169154000000000      0.259269000000000
C       0.776657000000000     -1.513476000000000      0.081736000000000
C       1.994698000000000     -2.131870000000000     -0.212103000000000
C       1.962303000000000     -3.546962000000000     -0.181211000000000
C       0.771127000000000     -4.229475000000000      0.073177000000000
C       1.656554000000000      0.679679000000000     -0.173284000000000
C       2.923523000000000      0.238601000000000     -0.539524000000000
C       3.838926000000000      1.275913000000000     -0.857182000000000
C       3.441134000000000      2.613172000000000     -0.834737000000000
C       2.143336000000000      2.989481000000000     -0.503965000000000
C       1.226085000000000      2.013931000000000     -0.150600000000000
C       3.194847000000000     -1.275770000000000     -0.685868000000000
O       0.689048000000000     -0.173673000000000      0.253811000000000
P      -2.018105000000000     -1.176546000000000      0.378182000000000
P      -0.543231000000000      2.281466000000000      0.288062000000000
C       3.259664000000000     -1.522007000000000     -2.221498000000000
H       4.054762000000000     -0.940091000000000     -2.683348000000000
H       3.422806000000000     -2.574310000000000     -2.446578000000000
H       2.307795000000000     -1.218694000000000     -2.668182000000000
C       4.479133000000000     -1.659225000000000      0.107179000000000
H       4.257669000000000     -2.399508000000000      0.875474000000000
H       5.251945000000000     -2.065851000000000     -0.543223000000000
H       4.893065000000000     -0.792714000000000      0.622481000000000
H      -0.858158000000000      7.986021000000000     -0.133502000000000
H      -5.509988000000000     -5.293230000000000     -1.530943000000000
H      -0.594198000000000      1.849284000000000      5.994002000000000
H      -3.079233000000000     -0.861629000000000      5.986739000000000
Rh     -2.068266000000000      0.956390000000000     -1.034231000000000
H      -2.038005000000000      2.127457000000000     -2.027831000000000
C      -1.022562000000000      0.081008000000000     -2.339921000000000
O      -0.292586000000000     -0.396601000000000     -3.090533000000000
F       3.744794000000000     -4.605511000000000      0.937170000000000
F       4.124601000000000     -4.088227000000000     -1.122169000000000
F       2.803807000000000     -5.703669000000000     -0.653899000000000
F       5.995999000000000      1.135004000000000      0.073958000000000
F       5.818202000000000      2.122395000000000     -1.829009000000000
F       5.696258000000000     -0.011357000000000     -1.726073000000000
C      -3.862517000000000      1.919269000000000     -0.199576000000000
C      -4.227139000000000      1.233343000000000     -1.370958000000000
C      -5.100437000000000      0.015597000000000     -1.308241000000000
O      -6.497500000000000      0.392199000000000     -1.258259000000000
C      -7.052227000000000      0.729857000000000     -2.432646000000000
C      -8.497502000000001      1.121523000000000     -2.252153000000000
O      -6.463139000000000      0.719557000000000     -3.485908000000000
H      -4.150121000000000      1.506761000000000      0.766721000000000
H      -3.723378000000000      2.997453000000000     -0.211020000000000
H      -4.328184000000000      1.788412000000000     -2.299145000000000
H      -4.945711000000000     -0.548479000000000     -0.385945000000000
H      -4.954655000000000     -0.644760000000000     -2.165134000000000
H      -8.557029999999999      2.009376000000000     -1.617120000000000
H      -9.042064999999999      0.318603000000000     -1.749751000000000
H      -8.939702000000000      1.329095000000000     -3.225332000000000
