99

H       4.192840000000000     -1.007505000000000     -3.345239000000000
H       1.926835000000000     -0.374289000000000     -2.592808000000000
H       1.039875000000000      0.365438000000000      2.630187000000000
H       0.875586000000000     -0.706210000000000      4.847380000000000
H      -0.572326000000000     -4.308409000000000      3.008200000000000
H      -0.451245000000000     -3.223129000000000      0.791364000000000
H      -3.752176000000000     -3.292266000000000      0.151327000000000
H      -3.846552000000000     -4.613747000000000      2.229631000000000
H      -2.990002000000000     -1.078154000000000      4.512608000000000
H      -2.919824000000000      0.249742000000000      2.448235000000000
H      -8.119109999999999     -1.586200000000000     -0.102996000000000
H      -5.894224000000000     -1.008014000000000      0.792026000000000
C       3.865895000000000     -1.269994000000000     -2.344225000000000
C       2.592975000000000     -0.907884000000000     -1.917551000000000
C       0.311771000000000     -1.360352000000000      1.558405000000000
C       0.675910000000000     -0.655087000000000      2.708514000000000
C       0.590268000000000     -1.262245000000000      3.959601000000000
C       0.153725000000000     -2.579455000000000      4.070056000000000
C      -0.214024000000000     -3.287052000000000      2.927624000000000
C      -0.146805000000000     -2.676247000000000      1.680051000000000
C      -3.321030000000000     -1.426292000000000      1.146516000000000
C      -3.572045000000000     -2.805423000000000      1.106614000000000
C      -3.633111000000000     -3.550189000000000      2.278842000000000
C      -3.427600000000000     -2.931170000000000      3.510459000000000
C      -3.158996000000000     -1.567319000000000      3.558195000000000
C      -3.109990000000000     -0.816214000000000      2.384926000000000
C      -4.918973000000000     -1.036892000000000     -1.134095000000000
C      -7.446626000000000     -1.699958000000000     -2.147814000000000
C      -7.274973000000000     -1.492891000000000     -0.778963000000000
C      -6.021181000000000     -1.166666000000000     -0.275774000000000
H       2.687930000000000     -2.197694000000000      1.228897000000000
H       4.932189000000000     -2.872437000000000      0.453637000000000
H      -4.258755000000000     -1.148405000000000     -3.177743000000000
H      -6.485790000000000     -1.736056000000000     -4.072828000000000
C       2.155907000000000     -1.235642000000000     -0.627055000000000
C       3.009854000000000     -1.940141000000000      0.224380000000000
C       4.278951000000000     -2.318103000000000     -0.212847000000000
C       4.709435000000000     -1.982172000000000     -1.492504000000000
C      -5.102826000000000     -1.244290000000000     -2.502546000000000
C      -6.360793000000000     -1.575432000000000     -3.006725000000000
H       2.903658000000000      1.163157000000000     -0.357384000000000
H       1.200101000000000      4.945603000000000      0.698914000000000
C       3.491811000000000      3.767284000000000     -0.035441000000000
H      -3.858896000000000      5.071779000000000      0.515119000000000
H      -5.614749000000000      1.395871000000000     -0.801534000000000
C      -6.121923000000000      4.011827000000000     -0.463267000000000
C       2.042496000000000      1.731362000000000     -0.022889000000000
C       0.818354000000000      1.098939000000000      0.191192000000000
C      -0.241558000000000      1.895111000000000      0.626113000000000
C      -0.152874000000000      3.271366000000000      0.833982000000000
C       1.073992000000000      3.875360000000000      0.577449000000000
C       2.157485000000000      3.107089000000000      0.159452000000000
C      -2.565737000000000      1.955206000000000      0.533631000000000
C      -2.604465000000000      3.331971000000000      0.746741000000000
C      -3.773115000000000      3.998224000000000      0.389406000000000
C      -4.844716000000000      3.288796000000000     -0.146613000000000
C      -4.774057000000000      1.913272000000000     -0.351446000000000
C      -3.612911000000000      1.215531000000000     -0.017564000000000
C      -1.383618000000000      3.978528000000000      1.393271000000000
O      -1.429827000000000      1.251444000000000      0.857357000000000
P       0.469656000000000     -0.686076000000000     -0.139098000000000
P      -3.270915000000000     -0.541757000000000     -0.470660000000000
C      -1.339114000000000      5.487331000000000      1.156431000000000
H      -1.298773000000000      5.725876000000000      0.089135000000000
H      -2.219810000000000      5.968306000000000      1.590801000000000
H      -0.466464000000000      5.926322000000000      1.647731000000000
C      -1.439539000000000      3.700680000000000      2.913115000000000
H      -2.338932000000000      4.151346000000000      3.344737000000000
H      -1.459472000000000      2.624681000000000      3.114686000000000
H      -0.559031000000000      4.127096000000000      3.404510000000000
H      -8.425485000000000     -1.957483000000000     -2.539998000000000
H       5.699022000000000     -2.275225000000000     -1.828395000000000
H      -3.472759000000000     -3.510701000000000      4.427605000000000
H       0.092952000000000     -3.052629000000000      5.045383000000000
Rh     -1.354220000000000     -0.897318000000000     -1.881894000000000
H      -2.339055000000000     -0.827246000000000     -3.060243000000000
C      -0.708695000000000      0.700249000000000     -2.657618000000000
O      -0.392987000000000      1.691001000000000     -3.146568000000000
F       3.359738000000000      5.040413000000000     -0.436696000000000
F       4.237115000000000      3.126874000000000     -0.944993000000000
F       4.201091000000000      3.791654000000000      1.105213000000000
F      -5.901098000000000      5.297932000000000     -0.774448000000000
F      -6.964744000000000      4.004171000000000      0.582662000000000
F      -6.771140000000000      3.449179000000000     -1.490806000000000
C      -1.817523000000000     -3.058667000000000     -1.934622000000000
C      -0.832682000000000     -2.792758000000000     -2.897511000000000
C       0.559994000000000     -3.319511000000000     -2.710803000000000
O       0.642228000000000     -4.695598000000000     -3.151954000000000
C       0.748207000000000     -4.875745000000000     -4.477582000000000
C       0.808934000000000     -6.343673000000000     -4.818072000000000
O       0.786996000000000     -3.975416000000000     -5.280440000000000
H      -1.541740000000000     -3.583808000000000     -1.022039000000000
H      -2.857393000000000     -3.176936000000000     -2.229675000000000
H      -1.121731000000000     -2.674829000000000     -3.937728000000000
H       0.837306000000000     -3.361686000000000     -1.654324000000000
H       1.302657000000000     -2.740635000000000     -3.261276000000000
H      -0.121394000000000     -6.827735000000000     -4.509495000000000
H       1.626350000000000     -6.819796000000000     -4.271455000000000
H       0.951703000000000     -6.459874000000000     -5.891295000000000
