105

H       7.037855000000000      9.882320000000000      2.339770000000000
H       7.172597000000000      7.509716000000000      2.982704000000000
H       7.905388000000000      3.518737000000000      4.365689000000000
H       9.657226000000000      2.595859000000000      2.906890000000000
H      11.561299000000000      6.446723000000000      2.747327000000000
H       9.785321000000000      7.383892000000000      4.178385000000000
H       2.209792000000000      3.789798000000000      6.581931000000000
H      -0.230098000000000      3.388393000000000      6.507728000000000
H      -0.931692000000000      7.614587000000000      6.813557000000000
H       1.503164000000000      8.015136000000000      6.921650000000000
H       3.921798000000000     10.316677000000000      4.292344000000000
H       3.749863000000000      7.873405000000000      4.615204000000000
C       7.149475000000000      9.616277999999999      3.388817000000000
C       7.213085000000000      8.277450999999999      3.752538000000000
C       8.743694000000000      5.505213000000000      4.410841000000000
C       8.723281000000000      4.156715000000000      4.040329000000000
C       9.716473000000001      3.633659000000000      3.214886000000000
C      10.743081999999999      4.453011000000000      2.756899000000000
C      10.769420000000000      5.800388000000000      3.113612000000000
C       9.772656000000000      6.326252000000000      3.929177000000000
C       2.022521000000000      5.928101000000000      6.761390000000000
C       1.519121000000000      4.626948000000000      6.643918000000000
C       0.147023000000000      4.402308000000000      6.598186000000000
C      -0.738815000000000      5.476695000000000      6.656183000000000
C      -0.246442000000000      6.773613000000000      6.768767000000000
C       1.127797000000000      7.000325000000000      6.826289000000000
C       4.041987000000000      7.956660000000000      6.745733000000000
C       4.251160000000000     10.745355999999999      6.375077000000000
C       4.012174000000000      9.896115000000000      5.291327000000000
C       3.920938000000000      8.522168000000001      5.469429000000000
H       7.543165000000000      8.660024000000000      7.111622000000000
H       7.432464000000000     11.027818999999999      6.452161000000000
H       4.387880000000000      8.394748000000000      8.833342999999999
H       4.587682000000000     10.822848000000000      8.496309999999999
C       7.371243000000000      7.909271000000000      5.096688000000000
C       7.436304000000000      8.916067000000000      6.061314000000000
C       7.376681000000000     10.256876999999999      5.686421000000000
C       7.239112000000000     10.628814000000000      4.349986000000000
C       4.284403000000000      8.802201999999999      7.832146000000000
C       4.390901000000000     10.178371000000000      7.641794000000000
H      10.195885000000001      6.864866000000000      6.440636000000000
H       9.897038000000000      6.443464000000000     10.694366000000000
H      11.193127000000000      7.047979000000000      8.690640000000000
H       5.068799000000000      5.987151000000000     12.456692000000000
H       2.101442000000000      6.321036000000000      9.374643000000001
H       2.731100000000000      6.326719000000000     11.770943000000001
C       9.608112000000000      6.600542000000000      7.314053000000000
C       8.287036000000001      6.170396000000000      7.154310000000000
C       7.591305000000000      5.827783000000000      8.313725000000000
C       8.124884000000000      5.897389000000000      9.603540000000001
C       9.433179000000001      6.359561000000000      9.716867000000001
C      10.170225000000000      6.703177000000000      8.581809000000000
C       5.399979000000000      5.660547000000000      9.121335000000000
C       5.803833000000000      5.689814000000000     10.454405000000000
C       4.813835000000000      5.947389000000000     11.402566999999999
C       3.488063000000000      6.144874000000000     11.015110000000000
C       3.129927000000000      6.130314000000000      9.668319000000000
C       4.098070000000000      5.909804000000000      8.686423000000000
C       7.267192000000000      5.363082000000000     10.753258000000001
O       6.311079000000000      5.400406000000000      8.140547000000000
P       7.407355000000000      6.121070000000000      5.520713000000000
P       3.847977000000000      6.129135000000000      6.866476000000000
C       7.710696000000000      5.925223000000000     12.104111000000000
H       7.624799000000000      7.016028000000000     12.133172999999999
H       7.105444000000000      5.504481000000000     12.911728999999999
H       8.747900000000000      5.649228000000000     12.313110000000000
C       7.412361000000000      3.823887000000000     10.768685000000000
H       6.789601000000000      3.396514000000000     11.561563000000000
H       7.099201000000000      3.391301000000000      9.813288000000000
H       8.456401000000000      3.546621000000000     10.947843000000001
C       4.328216000000000     12.239970000000000      6.187714000000000
C       7.240047000000000     12.079587000000000      3.933690000000000
H      -1.809407000000000      5.302763000000000      6.610473000000000
H      11.513646000000000      4.048422000000000      2.107857000000000
Rh      5.174619000000000      4.824488000000000      5.258771000000000
H       3.897179000000000      4.004149000000000      5.014210000000000
C       5.774337000000000      3.298244000000000      6.240381000000000
O       6.054797000000000      2.341323000000000      6.809459000000000
H       5.144836000000000     12.646597000000000      6.797704000000000
H       4.570401000000000     12.464447000000000      5.142811000000000
C       3.013370000000000     12.929284000000001      6.569556000000000
H       2.191199000000000     12.552303000000000      5.953860000000000
H       2.763544000000000     12.730847000000001      7.616368000000000
H       3.079125000000000     14.012358000000001      6.431554000000000
H       6.442281000000000     12.253773000000001      3.200726000000000
H       7.016590000000000     12.709856000000000      4.801696000000000
C       8.585765000000000     12.497415000000000      3.330148000000000
H       8.574956999999999     13.549054999999999      3.029608000000000
H       9.391540000000001     12.353899999999999      4.056199000000000
H       8.819623999999999     11.891814000000000      2.449174000000000
C       4.651112000000000      5.766527000000000      3.373195000000000
C       5.469728000000000      4.628432000000000      3.162743000000000
C       4.920805000000000      3.340122000000000      2.612302000000000
O       5.161979000000000      3.244160000000000      1.187985000000000
C       6.387561000000000      2.834820000000000      0.836803000000000
C       6.540698000000000      2.810498000000000     -0.663319000000000
O       7.253443000000000      2.529054000000000      1.623518000000000
H       3.582674000000000      5.699246000000000      3.173664000000000
H       5.069282000000000      6.763017000000000      3.256751000000000
H       6.518952000000000      4.781581000000000      2.911723000000000
H       3.834739000000000      3.301068000000000      2.718638000000000
H       5.370746000000000      2.467054000000000      3.089240000000000
H       6.439749000000000      3.826354000000000     -1.054474000000000
H       5.748724000000000      2.204630000000000     -1.109582000000000
H       7.518937000000000      2.407703000000000     -0.921318000000000
