99

H      -0.942076000000000     -3.890416000000000      3.812619000000000
H      -1.050755000000000     -3.252188000000000      1.430369000000000
H      -3.063876000000000     -1.589546000000000     -2.486734000000000
H      -5.264237000000000     -2.489186000000000     -3.095453000000000
H      -6.371073000000000     -2.613521000000000      1.060196000000000
H      -4.150020000000000     -1.731971000000000      1.677533000000000
H       2.996292000000000     -1.552736000000000     -2.867340000000000
H       5.251573000000000     -2.206301000000000     -3.648131000000000
H       6.759254000000000     -1.754852000000000      0.348167000000000
H       4.510032000000000     -1.099538000000000      1.124015000000000
H       2.366055000000000     -4.396533000000000      2.974783000000000
H       2.294888000000000     -3.377222000000000      0.725932000000000
C      -1.232139000000000     -2.880731000000000      3.538904000000000
C      -1.287761000000000     -2.519443000000000      2.197497000000000
C      -3.453476000000000     -1.594539000000000     -0.361184000000000
C      -3.789210000000000     -1.800623000000000     -1.704580000000000
C      -5.041849000000000     -2.302208000000000     -2.050732000000000
C      -5.972194000000000     -2.593560000000000     -1.056845000000000
C      -5.648391000000000     -2.385619000000000      0.282578000000000
C      -4.395157000000000     -1.890112000000000      0.631368000000000
C       3.594667000000000     -1.284623000000000     -0.821367000000000
C       3.821211000000000     -1.596274000000000     -2.163534000000000
C       5.093237000000000     -1.963909000000000     -2.601883000000000
C       6.151538000000000     -2.024201000000000     -1.701823000000000
C       5.937190000000000     -1.711657000000000     -0.359635000000000
C       4.669278000000000     -1.344258000000000      0.077275000000000
C       1.938543000000000     -1.378431000000000      1.453676000000000
C       2.005865000000000     -2.536494000000000      4.003437000000000
C       2.188116000000000     -3.330183000000000      2.872091000000000
C       2.143274000000000     -2.756914000000000      1.606582000000000
H      -2.238816000000000      0.724153000000000      2.549901000000000
H      -2.104652000000000      0.090627000000000      4.930398000000000
H       1.586308000000000      0.476920000000000      2.497325000000000
H       1.618459000000000     -0.550427000000000      4.734593000000000
C      -1.657492000000000     -1.222623000000000      1.824928000000000
C      -1.944762000000000     -0.285779000000000      2.820821000000000
C      -1.876035000000000     -0.645517000000000      4.165568000000000
C      -1.527834000000000     -1.943491000000000      4.526612000000000
C       1.747031000000000     -0.592234000000000      2.591156000000000
C       1.775522000000000     -1.172388000000000      3.858545000000000
H      -4.243686000000000      0.826390000000000     -0.656637000000000
H      -2.640627000000000      4.772005000000000     -0.214728000000000
C      -4.875873000000000      3.446706000000000     -0.978938000000000
H       2.397729000000000      4.967770000000000     -0.188683000000000
H       4.246680000000000      1.163639000000000     -0.816041000000000
C       4.732090000000000      3.828379000000000     -0.943771000000000
C      -3.414565000000000      1.478319000000000     -0.393834000000000
C      -2.201269000000000      0.920332000000000      0.006828000000000
C      -1.167375000000000      1.792995000000000      0.337815000000000
C      -1.284734000000000      3.178130000000000      0.285392000000000
C      -2.506078000000000      3.696276000000000     -0.144551000000000
C      -3.574507000000000      2.864116000000000     -0.487451000000000
C       1.153545000000000      1.876746000000000      0.324651000000000
C       1.170211000000000      3.269540000000000      0.295495000000000
C       2.343003000000000      3.883944000000000     -0.137306000000000
C       3.461660000000000      3.136813000000000     -0.516272000000000
C       3.389066000000000      1.742827000000000     -0.486092000000000
C       2.227230000000000      1.083205000000000     -0.075567000000000
C      -0.088065000000000      3.993142000000000      0.771324000000000
O       0.016765000000000      1.220767000000000      0.742160000000000
P      -1.806374000000000     -0.874803000000000      0.027199000000000
P       1.925288000000000     -0.727079000000000     -0.267522000000000
C      -0.097902000000000      3.976330000000000      2.317047000000000
H       0.773510000000000      4.513896000000000      2.705225000000000
H      -1.007221000000000      4.457539000000000      2.692287000000000
H      -0.068910000000000      2.949566000000000      2.695989000000000
C      -0.140013000000000      5.440186000000000      0.284582000000000
H      -0.133452000000000      5.495899000000000     -0.808471000000000
H      -1.041800000000000      5.935398000000000      0.655591000000000
H       0.713623000000000      6.004800000000000      0.670119000000000
H       2.034292000000000     -2.982188000000000      4.993331000000000
H      -1.478884000000000     -2.223480000000000      5.574627000000000
H       7.140966000000000     -2.314551000000000     -2.041519000000000
H      -6.946901000000000     -2.990583000000000     -1.323873000000000
Rh      0.030233000000000     -1.337223000000000     -1.622115000000000
H       1.025045000000000     -1.541277000000000     -2.785515000000000
C      -0.506845000000000      0.184120000000000     -2.628654000000000
O      -0.756451000000000      1.095472000000000     -3.280480000000000
H      -5.727700000000000      2.846454000000000     -0.647756000000000
H      -4.900320000000000      3.476522000000000     -2.073759000000000
H      -5.016304000000000      4.468496000000000     -0.616000000000000
H       4.516343000000000      4.745814000000000     -1.498730000000000
H       5.338368000000000      3.179680000000000     -1.581273000000000
H       5.342124000000000      4.103535000000000     -0.076096000000000
C       0.243763000000000     -3.498603000000000     -1.364385000000000
C      -0.795573000000000     -3.217654000000000     -2.276355000000000
C      -0.641264000000000     -3.427307000000000     -3.757592000000000
O      -1.215582000000000     -4.694290000000000     -4.160108000000000
C      -2.543882000000000     -4.698950000000000     -4.325656000000000
C      -3.039618000000000     -6.073095000000000     -4.698416000000000
O      -3.248277000000000     -3.725263000000000     -4.187597000000000
H       1.210101000000000     -3.834450000000000     -1.737512000000000
H       0.010902000000000     -3.827939000000000     -0.355692000000000
H      -1.822540000000000     -3.311498000000000     -1.930509000000000
H       0.412719000000000     -3.494692000000000     -4.035394000000000
H      -1.125996000000000     -2.638715000000000     -4.336299000000000
H      -2.864318000000000     -6.758116000000000     -3.864476000000000
H      -2.483928000000000     -6.451077000000000     -5.559464000000000
H      -4.104306000000000     -6.026193000000000     -4.922034000000000
