99

H       0.938855000000000      3.047893000000000      3.407244000000000
H       1.114781000000000      0.872740000000000      2.271822000000000
H       4.321652000000000      1.559700000000000      0.283526000000000
H       6.614673000000000      1.579414000000000     -0.631009000000000
H       5.344824000000000     -0.965410000000000     -3.858693000000000
H       3.071011000000000     -1.012635000000000     -2.932217000000000
H      -2.759616000000000     -0.146715000000000     -3.666564000000000
H      -4.929676000000000      0.243005000000000     -4.795088000000000
H      -6.712097000000000      1.227480000000000     -1.013448000000000
H      -4.545450000000000      0.849054000000000      0.107417000000000
H      -1.373561000000000      4.742579000000000      0.368842000000000
H      -1.263838000000000      2.787925000000000     -1.134268000000000
C       1.232973000000000      3.014996000000000      2.360545000000000
C       1.329269000000000      1.781815000000000      1.717849000000000
C       3.535497000000000      0.272560000000000     -1.261306000000000
C       4.546543000000000      1.002144000000000     -0.621317000000000
C       5.839033000000000      1.011376000000000     -1.135580000000000
C       6.135398000000000      0.297824000000000     -2.296756000000000
C       5.138899000000000     -0.430885000000000     -2.938033000000000
C       3.845766000000000     -0.450126000000000     -2.417646000000000
C      -3.504623000000000      0.313336000000000     -1.705360000000000
C      -3.627332000000000      0.151069000000000     -3.086593000000000
C      -4.850688000000000      0.370911000000000     -3.719961000000000
C      -5.961775000000000      0.755355000000000     -2.977954000000000
C      -5.849111000000000      0.923351000000000     -1.597734000000000
C      -4.629351000000000      0.707704000000000     -0.967207000000000
C      -1.911672000000000      1.381661000000000      0.360898000000000
C      -2.023451000000000      3.615220000000000      2.082171000000000
C      -1.638702000000000      3.757975000000000      0.747391000000000
C      -1.573706000000000      2.657530000000000     -0.100177000000000
H       2.275876000000000      2.879823000000000     -1.351824000000000
H       2.088646000000000      5.049929000000000     -0.204915000000000
H      -2.565484000000000      0.255175000000000      2.083374000000000
H      -2.645566000000000      2.203776000000000      3.579615000000000
C       1.709080000000000      1.716140000000000      0.377692000000000
C       1.963997000000000      2.911370000000000     -0.309793000000000
C       1.869627000000000      4.134359000000000      0.339518000000000
C       1.505272000000000      4.205475000000000      1.687930000000000
C      -2.291219000000000      1.233373000000000      1.697774000000000
C      -2.343260000000000      2.337182000000000      2.543281000000000
H       4.205922000000000     -1.458539000000000      0.401278000000000
H       2.337194000000000     -4.281460000000000      3.024674000000000
H       4.347898000000000     -3.410267000000000      1.897605000000000
H      -2.649137000000000     -4.664632000000000      2.345205000000000
H      -4.214844000000000     -1.990704000000000     -0.623726000000000
H      -4.416999000000000     -4.039828000000000      0.749320000000000
C       3.315888000000000     -1.806556000000000      0.914102000000000
C       2.093083000000000     -1.161235000000000      0.701173000000000
C       0.983716000000000     -1.664100000000000      1.382123000000000
C       1.023919000000000     -2.778154000000000      2.221078000000000
C       2.256848000000000     -3.404159000000000      2.391396000000000
C       3.393722000000000     -2.914789000000000      1.752429000000000
C      -1.318944000000000     -1.829701000000000      1.101236000000000
C      -1.404536000000000     -2.963296000000000      1.903368000000000
C      -2.539615000000000     -3.761337000000000      1.754219000000000
C      -3.540500000000000     -3.408465000000000      0.851491000000000
C      -3.429714000000000     -2.253432000000000      0.078469000000000
C      -2.299210000000000     -1.442562000000000      0.187922000000000
C      -0.277937000000000     -3.183100000000000      2.909316000000000
O      -0.211975000000000     -1.013996000000000      1.188674000000000
P       1.833980000000000      0.153226000000000     -0.570646000000000
P      -1.891167000000000      0.006560000000000     -0.865077000000000
C      -0.510426000000000     -2.226757000000000      4.101493000000000
H       0.304487000000000     -2.323168000000000      4.826470000000000
H      -0.552890000000000     -1.185922000000000      3.764328000000000
H      -1.456361000000000     -2.468059000000000      4.597633000000000
C      -0.235480000000000     -4.622120000000000      3.420323000000000
H      -0.067852000000000     -5.332497000000000      2.604742000000000
H       0.560529000000000     -4.742974000000000      4.160529000000000
H      -1.174269000000000     -4.877026000000000      3.920168000000000
C      -2.055373000000000      4.794740000000000      3.018464000000000
C       1.385309000000000      5.542226000000000      2.372313000000000
H      -6.913610000000000      0.928226000000000     -3.470726000000000
H       7.142209000000000      0.317187000000000     -2.702843000000000
Rh      0.054552000000000     -0.390149000000000     -2.217606000000000
H      -0.938877000000000     -0.856617000000000     -3.312563000000000
C       0.447990000000000     -2.239106000000000     -2.067028000000000
O       0.620181000000000     -3.371562000000000     -1.988510000000000
H      -1.155714000000000      4.818151000000000      3.645443000000000
H      -2.919069000000000      4.747358000000000      3.688390000000000
H      -2.100640000000000      5.739499000000000      2.469362000000000
H       1.338294000000000      5.431564000000000      3.459239000000000
H       0.476412000000000      6.064980000000000      2.050875000000000
H       2.235103000000000      6.188386000000000      2.131958000000000
C       0.067769000000000      1.524506000000000     -3.289795000000000
C       1.032608000000000      0.655108000000000     -3.838111000000000
C       0.836993000000000     -0.034941000000000     -5.159904000000000
O       1.519677000000000      0.678914000000000     -6.218895000000000
C       2.836206000000000      0.453142000000000     -6.309185000000000
C       3.451683000000000      1.268585000000000     -7.418000000000000
O       3.445319000000000     -0.305040000000000     -5.589992000000000
H      -0.876886000000000      1.683449000000000     -3.806747000000000
H       0.382120000000000      2.349370000000000     -2.655472000000000
H       2.078056000000000      0.826104000000000     -3.592235000000000
H      -0.215571000000000     -0.032471000000000     -5.451247000000000
H       1.213572000000000     -1.059471000000000     -5.147335000000000
H       3.342515000000000      2.332058000000000     -7.189455000000000
H       2.927492000000000      1.076986000000000     -8.357116000000000
H       4.506255000000000      1.014304000000000     -7.512571000000000
