97

H       2.918490000000000      4.055551000000000     -1.615123000000000
H       2.391472000000000      1.733496000000000     -2.304370000000000
H       4.358386000000000      0.264235000000000     -0.697814000000000
H       6.406723000000000     -0.498288000000000     -1.839585000000000
H       4.080062000000000     -3.284553000000000     -4.149704000000000
H       2.044939000000000     -2.550252000000000     -2.994268000000000
H      -3.489955000000000     -0.361312000000000     -3.297533000000000
H      -5.660755000000000      0.358643000000000     -4.250472000000000
H      -6.521651000000000      2.522183000000000     -0.641130000000000
H      -4.355118000000000      1.810478000000000      0.303872000000000
H      -0.315860000000000      4.680160000000000     -0.998837000000000
H      -1.018442000000000      2.447276000000000     -1.874835000000000
C       2.604660000000000      3.323804000000000     -0.874060000000000
C       2.296664000000000      2.024392000000000     -1.260532000000000
C       3.055047000000000     -1.083896000000000     -1.771359000000000
C       4.295097000000000     -0.514153000000000     -1.452754000000000
C       5.451358000000000     -0.946761000000000     -2.094011000000000
C       5.382474000000000     -1.949117000000000     -3.061178000000000
C       4.156666000000000     -2.524904000000000     -3.379765000000000
C       2.998441000000000     -2.099819000000000     -2.731349000000000
C      -3.778727000000000      0.665121000000000     -1.432730000000000
C      -4.157305000000000      0.266845000000000     -2.716015000000000
C      -5.379964000000000      0.673655000000000     -3.250391000000000
C      -6.232464000000000      1.481832000000000     -2.506705000000000
C      -5.861862000000000      1.887459000000000     -1.224354000000000
C      -4.642549000000000      1.484922000000000     -0.692942000000000
C      -1.638017000000000      1.713656000000000      0.052621000000000
C      -0.842420000000000      4.208641000000000      1.022807000000000
C      -0.726171000000000      3.920759000000000     -0.340193000000000
C      -1.116273000000000      2.681713000000000     -0.818139000000000
H       1.499018000000000      0.734715000000000      1.788676000000000
H       2.048764000000000      3.064667000000000      2.459477000000000
H      -2.156987000000000      1.267105000000000      2.100101000000000
H      -1.439197000000000      3.480000000000000      2.956411000000000
C       1.907205000000000      1.074424000000000     -0.305088000000000
C       1.803350000000000      1.456218000000000      1.037614000000000
C       2.111202000000000      2.754569000000000      1.420466000000000
C       2.519236000000000      3.690912000000000      0.469475000000000
C      -1.751423000000000      2.005881000000000      1.414519000000000
C      -1.354489000000000      3.251463000000000      1.896109000000000
H       3.556206000000000     -2.587878000000000      0.154444000000000
H       1.575753000000000     -4.175772000000000      3.604658000000000
H       3.494925000000000     -4.149657000000000      2.060013000000000
H      -3.391094000000000     -3.301566000000000      3.679677000000000
H      -4.807053000000000     -1.035734000000000      0.322694000000000
H      -5.227672000000000     -2.586152000000000      2.204627000000000
C       2.714445000000000     -2.567742000000000      0.838190000000000
C       1.661171000000000     -1.673958000000000      0.618996000000000
C       0.602620000000000     -1.702327000000000      1.528072000000000
C       0.531792000000000     -2.577545000000000      2.611802000000000
C       1.590937000000000     -3.466453000000000      2.783918000000000
C       2.675650000000000     -3.454583000000000      1.910161000000000
C      -1.686276000000000     -1.287455000000000      1.584374000000000
C      -1.885594000000000     -2.148811000000000      2.659069000000000
C      -3.183987000000000     -2.616833000000000      2.864008000000000
C      -4.224125000000000     -2.212815000000000      2.029561000000000
C      -3.990181000000000     -1.336698000000000      0.971086000000000
C      -2.700075000000000     -0.862585000000000      0.726051000000000
C      -0.675180000000000     -2.448286000000000      3.538672000000000
O      -0.421810000000000     -0.807606000000000      1.319509000000000
P       1.508641000000000     -0.622052000000000     -0.890340000000000
P      -2.165269000000000      0.125970000000000     -0.725255000000000
C      -0.443617000000000     -1.230953000000000      4.463040000000000
H       0.446659000000000     -1.389949000000000      5.080114000000000
H      -0.299715000000000     -0.317158000000000      3.877191000000000
H      -1.308289000000000     -1.087594000000000      5.119351000000000
C      -0.880793000000000     -3.696930000000000      4.394433000000000
H      -1.044450000000000     -4.584921000000000      3.775902000000000
H      -0.011446000000000     -3.870136000000000      5.034872000000000
H      -1.741126000000000     -3.567382000000000      5.057047000000000
C      -0.386867000000000      5.525439000000000      1.526568000000000
C       2.865471000000000      5.067480000000000      0.904309000000000
H      -7.182830000000000      1.800453000000000     -2.923527000000000
H       6.285281000000000     -2.275505000000000     -3.568282000000000
Rh     -0.611544000000000     -1.037175000000000     -2.139285000000000
H      -1.854505000000000     -1.469799000000000     -2.954222000000000
C      -0.617355000000000     -2.846597000000000     -1.554395000000000
O      -0.690290000000000     -3.938666000000000     -1.210536000000000
O       0.104949000000000      6.376289000000000      0.820852000000000
H      -0.516656000000000      5.692748000000000      2.615210000000000
O       2.857003000000000      5.422439000000000      2.059809000000000
H       3.143577000000000      5.768202000000000      0.091508000000000
C      -0.345960000000000      0.497021000000000     -3.682662000000000
C       0.282759000000000     -0.701894000000000     -4.076479000000000
C      -0.289883000000000     -1.605526000000000     -5.134043000000000
O       0.351614000000000     -1.373187000000000     -6.409913000000000
C       1.548295000000000     -1.954021000000000     -6.566083000000000
C       2.138294000000000     -1.628271000000000     -7.914208000000000
O       2.078788000000000     -2.646272000000000     -5.727765000000000
H      -1.301004000000000      0.781022000000000     -4.121081000000000
H       0.259860000000000      1.331445000000000     -3.338040000000000
H       1.365688000000000     -0.759972000000000     -4.001446000000000
H      -1.346530000000000     -1.388552000000000     -5.305403000000000
H      -0.166815000000000     -2.660441000000000     -4.881379000000000
H       2.302742000000000     -0.550064000000000     -7.987841000000000
H       1.438846000000000     -1.910326000000000     -8.704615000000000
H       3.081536000000000     -2.158671000000000     -8.035009000000001
