93

H      -0.725923000000000      2.060622000000000      3.907948000000000
H      -1.187599000000000      1.592143000000000      1.545061000000000
H      -4.163859000000000     -0.879705000000000      1.784952000000000
H      -6.323283000000000     -2.073713000000000      1.667352000000000
H      -4.901070000000000     -4.306774000000000     -1.722923000000000
H      -2.761150000000000     -3.100942000000000     -1.626346000000000
H       2.524574000000000     -1.385276000000000     -2.736792000000000
H       4.507497000000000     -1.289528000000000     -4.212907000000000
H       6.980700000000000     -0.374671000000000     -0.821809000000000
H       5.004637000000000     -0.456857000000000      0.646513000000000
H       1.795420000000000     -1.281158000000000      4.994650000000000
H       1.277587000000000     -0.266162000000000      2.815619000000000
C      -0.963270000000000      1.045812000000000      3.603974000000000
C      -1.220273000000000      0.775253000000000      2.259629000000000
C      -3.323873000000000     -1.889460000000000      0.069739000000000
C      -4.332094000000000     -1.617942000000000      1.005075000000000
C      -5.547110000000000     -2.292128000000000      0.940524000000000
C      -5.762194000000000     -3.250825000000000     -0.049312000000000
C      -4.762943000000000     -3.534482000000000     -0.974759000000000
C      -3.548766000000000     -2.852900000000000     -0.918849000000000
C       3.623058000000000     -0.921215000000000     -0.947754000000000
C       3.500049000000000     -1.156601000000000     -2.319202000000000
C       4.619120000000000     -1.104645000000000     -3.149176000000000
C       5.871965000000000     -0.825379000000000     -2.613918000000000
C       6.005114000000000     -0.591571000000000     -1.245675000000000
C       4.887823000000000     -0.633586000000000     -0.419176000000000
C       2.660231000000000     -1.508223000000000      1.713484000000000
C       3.236103000000000     -2.673447000000000      4.195771000000000
C       2.305535000000000     -1.640901000000000      4.105934000000000
C       2.014922000000000     -1.063943000000000      2.873076000000000
H      -1.849005000000000     -2.554671000000000      2.503028000000000
H      -1.380183000000000     -2.074539000000000      4.873946000000000
H       4.073830000000000     -2.927809000000000      0.912628000000000
H       4.591676000000000     -3.940747000000000      3.103345000000000
C      -1.527536000000000     -0.523928000000000      1.843721000000000
C      -1.585045000000000     -1.543670000000000      2.805001000000000
C      -1.330840000000000     -1.271755000000000      4.144858000000000
C      -1.013961000000000      0.025087000000000      4.548429000000000
C       3.581841000000000     -2.556798000000000      1.808242000000000
C       3.870607000000000     -3.131399000000000      3.043583000000000
H      -4.321751000000000      0.506831000000000     -0.422130000000000
H      -2.810073000000000      4.439669000000000     -1.172899000000000
Cl     -5.298406000000000      3.131940000000000     -0.884500000000000
H       1.868882000000000      4.828913000000000      0.600473000000000
H       3.631695000000000      1.111868000000000      1.794054000000000
Cl      3.903947000000000      3.886717000000000      2.320123000000000
C      -3.473213000000000      1.144451000000000     -0.645895000000000
C      -2.173778000000000      0.629892000000000     -0.650886000000000
C      -1.139034000000000      1.504154000000000     -0.979009000000000
C      -1.310047000000000      2.882813000000000     -1.113157000000000
C      -2.609264000000000      3.379073000000000     -1.072063000000000
C      -3.673571000000000      2.498554000000000     -0.886847000000000
C       1.063567000000000      1.675599000000000     -0.323508000000000
C       0.991174000000000      3.071852000000000     -0.303595000000000
C       1.881173000000000      3.747532000000000      0.523046000000000
C       2.809603000000000      3.021748000000000      1.270706000000000
C       2.894104000000000      1.637957000000000      1.196253000000000
C       2.006818000000000      0.931076000000000      0.377780000000000
C      -0.038028000000000      3.721368000000000     -1.233859000000000
O       0.129472000000000      0.989527000000000     -1.057339000000000
P      -1.713225000000000     -1.011798000000000      0.073322000000000
P       2.089848000000000     -0.903501000000000      0.080167000000000
C      -0.285201000000000      5.186609000000000     -0.881099000000000
H      -0.665320000000000      5.298848000000000      0.139414000000000
H       0.640721000000000      5.761105000000000     -0.975749000000000
H      -1.006154000000000      5.629952000000000     -1.573741000000000
C       0.488683000000000      3.626745000000000     -2.683329000000000
H      -0.244998000000000      4.055042000000000     -3.373565000000000
H       1.427368000000000      4.181857000000000     -2.776311000000000
H       0.669054000000000      2.587611000000000     -2.971323000000000
H       3.462048000000000     -3.123022000000000      5.157532000000000
H      -0.815783000000000      0.238457000000000      5.594324000000000
H       6.745002000000000     -0.791392000000000     -3.258244000000000
H      -6.706627000000000     -3.784770000000000     -0.088955000000000
Rh      0.258355000000000     -2.270442000000000     -0.805415000000000
H       1.414737000000000     -3.116070000000000     -1.399221000000000
C      -0.118958000000000     -1.828472000000000     -2.614038000000000
O      -0.266907000000000     -1.617709000000000     -3.733982000000000
C       0.404367000000000     -3.727887000000000      0.821368000000000
C      -0.535691000000000     -4.166403000000000     -0.128683000000000
C      -0.238799000000000     -5.275228000000000     -1.101343000000000
O      -0.801541000000000     -6.526211000000000     -0.639772000000000
C      -2.107265000000000     -6.695740000000000     -0.882127000000000
C      -2.593405000000000     -8.014559000000000     -0.337147000000000
O      -2.799282000000000     -5.890273000000000     -1.461488000000000
H       1.401838000000000     -4.161931000000000      0.829942000000000
H       0.097547000000000     -3.299394000000000      1.771703000000000
H      -1.596107000000000     -4.061987000000000      0.094000000000000
H       0.835515000000000     -5.455812000000000     -1.171751000000000
H      -0.644599000000000     -5.067851000000000     -2.093258000000000
H      -2.476004000000000     -8.023728999999999      0.749676000000000
H      -1.989062000000000     -8.829976000000000     -0.741367000000000
H      -3.641030000000000     -8.151799000000000     -0.600415000000000
