99

H       3.365427000000000     -5.749152000000000      0.854423000000000
H       1.710526000000000     -4.076916000000000      1.598730000000000
H       1.412587000000000     -0.844500000000000      2.652182000000000
H       1.073786000000000     -1.492305000000000      5.008127000000000
H      -1.831942000000000     -4.415236000000000      3.795952000000000
H      -1.524604000000000     -3.739808000000000      1.438651000000000
H      -4.615436000000000     -2.429125000000000      0.957153000000000
H      -4.994921000000000     -3.300192000000000      3.231697000000000
H      -2.464258000000000     -0.219418000000000      4.829574000000000
H      -2.103869000000000      0.671064000000000      2.568766000000000
H      -7.933460000000000      0.740697000000000      0.605869000000000
H      -5.586365000000000      0.466963000000000      1.312041000000000
C       2.951790000000000     -5.048062000000000      0.136243000000000
C       2.013259000000000     -4.105687000000000      0.556420000000000
C      -0.027649000000000     -2.256033000000000      1.883291000000000
C       0.694083000000000     -1.621087000000000      2.897459000000000
C       0.508318000000000     -1.992122000000000      4.227641000000000
C      -0.388129000000000     -3.005760000000000      4.553370000000000
C      -1.116488000000000     -3.637616000000000      3.547464000000000
C      -0.945744000000000     -3.256035000000000      2.221224000000000
C      -3.329689000000000     -0.817823000000000      1.596513000000000
C      -4.133491000000000     -1.947920000000000      1.804560000000000
C      -4.354463000000000     -2.435128000000000      3.087702000000000
C      -3.758751000000000     -1.812025000000000      4.182711000000000
C      -2.941198000000000     -0.704481000000000      3.983424000000000
C      -2.730624000000000     -0.204678000000000      2.699247000000000
C      -4.879518000000000     -0.104549000000000     -0.646088000000000
C      -7.548939000000000      0.207747000000000     -1.446903000000000
C      -7.185045000000000      0.439332000000000     -0.120475000000000
C      -5.861968000000000      0.283520000000000      0.277031000000000
H       1.440674000000000     -2.568291000000000     -2.420598000000000
H       3.134148000000000     -4.211354000000000     -3.150226000000000
H      -4.505757000000000     -0.632548000000000     -2.696698000000000
H      -6.857504000000000     -0.359371000000000     -3.404405000000000
C       1.464157000000000     -3.205150000000000     -0.359050000000000
C       1.876211000000000     -3.254874000000000     -1.697508000000000
C       2.825037000000000     -4.183762000000000     -2.110149000000000
C       3.360357000000000     -5.087592000000000     -1.193047000000000
C      -5.255151000000000     -0.330720000000000     -1.972069000000000
C      -6.582940000000000     -0.175663000000000     -2.370474000000000
H       3.206673000000000     -1.427233000000000     -0.268747000000000
C       3.782567000000000      3.070848000000000      0.411139000000000
H       4.522725000000000      0.658580000000000     -0.186510000000000
C      -1.387664000000000      5.621152000000000      0.297926000000000
H      -4.554727000000000      2.407414000000000     -0.538626000000000
H      -3.714964000000000      4.725789000000000     -0.425005000000000
C       2.709880000000000     -0.484926000000000     -0.067624000000000
C       1.336798000000000     -0.444949000000000      0.151874000000000
C       0.759139000000000      0.803736000000000      0.412882000000000
C       1.449995000000000      2.012678000000000      0.431410000000000
C       2.843182000000000      1.917858000000000      0.236589000000000
C       3.450986000000000      0.689940000000000     -0.027259000000000
C      -1.345863000000000      1.846761000000000      0.365797000000000
C      -0.807700000000000      3.129506000000000      0.383850000000000
C      -1.721392000000000      4.172984000000000      0.125240000000000
C      -3.047907000000000      3.898763000000000     -0.210603000000000
C      -3.523583000000000      2.594044000000000     -0.260502000000000
C      -2.672668000000000      1.535323000000000      0.041288000000000
C       0.685488000000000      3.320574000000000      0.707187000000000
O      -0.576734000000000      0.762587000000000      0.695889000000000
P       0.225486000000000     -1.921458000000000      0.097420000000000
P      -3.109816000000000     -0.249399000000000     -0.143101000000000
C       1.273290000000000      4.468844000000000     -0.165456000000000
H       2.075614000000000      4.108801000000000     -0.811910000000000
H       0.524634000000000      4.874844000000000     -0.847796000000000
H       1.660032000000000      5.281653000000000      0.450027000000000
C       0.790817000000000      3.596324000000000      2.229094000000000
H       0.363566000000000      2.752047000000000      2.782492000000000
H       1.837408000000000      3.713382000000000      2.512355000000000
H       0.237879000000000      4.502467000000000      2.479426000000000
H      -8.582938000000000      0.325554000000000     -1.755888000000000
H       4.091703000000000     -5.821552000000000     -1.516515000000000
H      -3.926113000000000     -2.192791000000000      5.185812000000000
H      -0.526582000000000     -3.297744000000000      5.589959000000000
Rh     -1.673787000000000     -1.579856000000000     -1.546645000000000
H      -2.650561000000000     -1.265459000000000     -2.691100000000000
C      -0.500059000000000     -0.538774000000000     -2.600266000000000
O       0.148315000000000      0.137425000000000     -3.265889000000000
O       3.757014000000000      3.882923000000000      1.303190000000000
O       4.743012000000000      3.080957000000000     -0.532876000000000
H       5.339277000000000      3.816350000000000     -0.303859000000000
O      -0.743490000000000      6.102649000000000      1.197853000000000
O      -1.949471000000000      6.384786000000000     -0.659460000000000
H      -1.736544000000000      7.306493000000000     -0.427736000000000
C      -2.993852000000000     -3.317034000000000     -1.215639000000000
C      -2.090382000000000     -3.635328000000000     -2.241887000000000
C      -1.032496000000000     -4.674780000000000     -2.015500000000000
O      -1.575745000000000     -6.001800000000000     -2.217756000000000
C      -1.691008000000000     -6.395315000000000     -3.494942000000000
C      -2.283622000000000     -7.779822000000000     -3.579815000000000
O      -1.362661000000000     -5.723083000000000     -4.442184000000000
H      -2.870618000000000     -3.776390000000000     -0.236518000000000
H      -4.013353000000000     -3.022388000000000     -1.453265000000000
H      -2.409906000000000     -3.553907000000000     -3.276708000000000
H      -0.690371000000000     -4.683137000000000     -0.977600000000000
H      -0.177249000000000     -4.552085000000000     -2.681326000000000
H      -3.293551000000000     -7.769788000000000     -3.161509000000000
H      -1.687328000000000     -8.477615000000000     -2.987181000000000
H      -2.314315000000000     -8.096437000000000     -4.621218000000000
