105

H       5.454837000000000     -2.483315000000000      1.932571000000000
H       3.146676000000000     -2.166769000000000      2.740192000000000
H       1.131321000000000     -3.962543000000000      2.430117000000000
H       1.090872000000000     -4.864949000000000      4.725095000000000
H      -0.096727000000000     -1.015885000000000      6.217383000000000
H      -0.033647000000000     -0.100936000000000      3.925320000000000
H      -2.335499000000000     -3.935166000000000      2.596386000000000
H      -2.356053000000000     -4.406609000000000      5.022284000000000
H      -3.757231000000000     -0.418505000000000      5.782361000000000
H      -3.764597000000000      0.044861000000000      3.359516000000000
H      -6.020041000000000     -4.568569000000000     -1.859768000000000
H      -3.950815000000000     -3.328015000000000     -1.319110000000000
C       4.676045000000000     -2.199400000000000      1.231481000000000
C       3.369351000000000     -2.027122000000000      1.686960000000000
C       0.564073000000000     -1.963406000000000      3.021271000000000
C       0.857360000000000     -3.313106000000000      3.258992000000000
C       0.841920000000000     -3.822172000000000      4.553265000000000
C       0.509019000000000     -2.993583000000000      5.623235000000000
C       0.183359000000000     -1.660902000000000      5.390186000000000
C       0.211569000000000     -1.145191000000000      4.096153000000000
C      -3.056018000000000     -1.916846000000000      2.809391000000000
C      -2.653771000000000     -3.166366000000000      3.296093000000000
C      -2.670109000000000     -3.432527000000000      4.660126000000000
C      -3.071234000000000     -2.446122000000000      5.559732000000000
C      -3.448303000000000     -1.193522000000000      5.087096000000000
C      -3.444224000000000     -0.929407000000000      3.717850000000000
C      -4.646193000000000     -2.663869000000000      0.604518000000000
C      -6.992376000000000     -4.072601000000000     -0.004745000000000
C      -5.939780000000000     -4.043355000000000     -0.913149000000000
C      -4.772366000000000     -3.343592000000000     -0.609790000000000
H       1.885256000000000     -1.207010000000000     -1.256141000000000
H       4.206991000000000     -1.479622000000000     -2.053482000000000
H      -5.626986000000000     -2.185176000000000      2.466500000000000
H      -7.693042000000000     -3.420840000000000      1.925966000000000
C       2.353303000000000     -1.670954000000000      0.796011000000000
C       2.671720000000000     -1.472539000000000     -0.553330000000000
C       3.977657000000000     -1.632508000000000     -1.003612000000000
C       4.982607000000000     -2.003202000000000     -0.111709000000000
C      -5.711720000000000     -2.702870000000000      1.514646000000000
C      -6.876270000000000     -3.399689000000000      1.211041000000000
H       2.865511000000000      0.645285000000000      1.519475000000000
C       0.917623000000000      4.823238000000000      1.553395000000000
H       2.869497000000000      3.098139000000000      1.596590000000000
C      -4.787253000000000      4.200593000000000      0.460469000000000
H      -5.730571000000000     -0.312295000000000      0.141864000000000
H      -6.232797000000000      2.096172000000000     -0.056786000000000
C       1.923119000000000      1.182233000000000      1.517756000000000
C       0.716178000000000      0.486150000000000      1.475708000000000
C      -0.455066000000000      1.252841000000000      1.469573000000000
C      -0.495829000000000      2.646866000000000      1.390215000000000
C       0.742213000000000      3.316835000000000      1.473399000000000
C       1.921486000000000      2.568814000000000      1.544347000000000
C      -2.774512000000000      1.016159000000000      1.094350000000000
C      -2.989821000000000      2.381762000000000      0.938164000000000
C      -4.292372000000000      2.766987000000000      0.546867000000000
C      -5.243384000000000      1.781801000000000      0.265923000000000
C      -4.970203000000000      0.423643000000000      0.384069000000000
C      -3.714664000000000      0.017572000000000      0.818838000000000
C      -1.842578000000000      3.375742000000000      1.200460000000000
O      -1.597260000000000      0.522632000000000      1.578935000000000
P       0.605729000000000     -1.354280000000000      1.292089000000000
P      -3.112549000000000     -1.709245000000000      0.978071000000000
C      -1.712135000000000      4.317941000000000     -0.042427000000000
H      -2.427470000000000      4.039728000000000     -0.818655000000000
H      -1.885329000000000      5.367794000000000      0.216380000000000
H      -0.719166000000000      4.241395000000000     -0.489077000000000
C      -2.170358000000000      4.136098000000000      2.506060000000000
H      -1.394286000000000      4.862889000000000      2.757111000000000
H      -3.120717000000000      4.670200000000000      2.429408000000000
H      -2.248329000000000      3.424651000000000      3.334422000000000
H      -7.900016000000000     -4.620305000000000     -0.239012000000000
H       6.000368000000000     -2.139197000000000     -0.463790000000000
H      -3.079086000000000     -2.652397000000000      6.625930000000000
H       0.493703000000000     -3.389480000000000      6.634207000000000
Rh     -1.152751000000000     -2.158568000000000     -0.351148000000000
H      -2.151244000000000     -2.507428000000000     -1.469201000000000
C      -0.829328000000000     -0.633013000000000     -1.416096000000000
O      -0.719989000000000      0.323366000000000     -2.045415000000000
H       1.669995000000000      5.125538000000000      0.815062000000000
H       0.006664000000000      5.360225000000000      1.296304000000000
C       1.382591000000000      5.258552000000000      2.949449000000000
H       0.655339000000000      4.964059000000000      3.712707000000000
H       2.336912000000000      4.792415000000000      3.209938000000000
H       1.509688000000000      6.344007000000000      2.994879000000000
H      -3.973951000000000      4.921505000000000      0.516441000000000
H      -5.261141000000000      4.349194000000000     -0.517368000000000
C      -5.807112000000000      4.511023000000000      1.564184000000000
H      -6.154567000000000      5.545733000000000      1.491730000000000
H      -6.677960000000000      3.853526000000000      1.493228000000000
H      -5.366204000000000      4.364059000000000      2.555356000000000
C      -1.161687000000000     -4.307488000000000      0.122299000000000
C      -0.340421000000000     -4.103596000000000     -1.000472000000000
C       1.141633000000000     -4.309344000000000     -0.909456000000000
O       1.473058000000000     -5.711834000000000     -1.063566000000000
C       1.483370000000000     -6.174614000000000     -2.321939000000000
C       1.813261000000000     -7.646539000000000     -2.350812000000000
O       1.256535000000000     -5.497388000000000     -3.295066000000000
H      -0.697605000000000     -4.526963000000000      1.083148000000000
H      -2.171216000000000     -4.693907000000000      0.006635000000000
H      -0.742450000000000     -4.294992000000000     -1.991223000000000
H       1.526618000000000     -4.055002000000000      0.080082000000000
H       1.688381000000000     -3.745218000000000     -1.667313000000000
H       1.035786000000000     -8.203849000000000     -1.821621000000000
H       2.759020000000000     -7.827278000000000     -1.834512000000000
H       1.874993000000000     -7.982871000000000     -3.384668000000000
