105

H       5.409143000000000     -0.875461000000000     -3.597027000000000
H       3.169207000000000     -0.323800000000000     -2.711862000000000
H       2.389955000000000     -0.121104000000000      2.581644000000000
H       2.291930000000000     -1.414458000000000      4.683382000000000
H       0.867471000000000     -4.839407000000000      2.516663000000000
H       0.926749000000000     -3.535244000000000      0.419053000000000
H      -1.528336000000000     -0.232282000000000      2.499933000000000
H      -1.526110000000000     -1.779720000000000      4.409649000000000
H      -2.450477000000000     -5.048926000000000      1.782022000000000
H      -2.425929000000000     -3.506875000000000     -0.140939000000000
H      -6.800794000000000     -1.806567000000000     -0.074806000000000
H      -4.550846000000000     -1.313142000000000      0.810368000000000
C       5.112029000000000     -1.241351000000000     -2.619186000000000
C       3.853596000000000     -0.927103000000000     -2.118368000000000
C       1.674437000000000     -1.744615000000000      1.355640000000000
C       2.048754000000000     -1.152230000000000      2.564590000000000
C       1.999511000000000     -1.884101000000000      3.749082000000000
C       1.587952000000000     -3.213771000000000      3.734146000000000
C       1.208232000000000     -3.808940000000000      2.533002000000000
C       1.239797000000000     -3.074302000000000      1.352546000000000
C      -1.967793000000000     -1.758590000000000      1.038281000000000
C      -1.718944000000000     -1.286222000000000      2.328897000000000
C      -1.727304000000000     -2.162027000000000      3.413468000000000
C      -1.994052000000000     -3.514116000000000      3.225431000000000
C      -2.238714000000000     -3.995681000000000      1.940707000000000
C      -2.217314000000000     -3.126441000000000      0.855935000000000
C      -3.634552000000000     -1.127007000000000     -1.134698000000000
C      -6.191581000000000     -1.690427000000000     -2.139158000000000
C      -5.978231000000000     -1.633002000000000     -0.761750000000000
C      -4.710350000000000     -1.355760000000000     -0.263925000000000
H       4.036738000000000     -2.544989000000000      0.866968000000000
H       6.255007000000000     -3.133667000000000     -0.041619000000000
H      -3.036786000000000     -1.012269000000000     -3.196383000000000
H      -5.288898000000000     -1.511252000000000     -4.084363000000000
C       3.452175000000000     -1.391050000000000     -0.858120000000000
C       4.329492000000000     -2.181994000000000     -0.113631000000000
C       5.584570000000000     -2.510804000000000     -0.625644000000000
C       5.978780000000000     -2.040500000000000     -1.874107000000000
C      -3.860458000000000     -1.185031000000000     -2.511219000000000
C      -5.132441000000000     -1.465890000000000     -3.011150000000000
H       4.217238000000000      0.956790000000000     -0.352296000000000
H       2.558656000000000      4.615738000000000      1.110425000000000
C       4.827216000000000      3.549396000000000      0.053662000000000
H      -2.488270000000000      4.771433000000000      1.105664000000000
H      -4.308484000000000      1.262238000000000     -0.525635000000000
C      -4.774130000000000      3.883270000000000     -0.042084000000000
C       3.368650000000000      1.501208000000000      0.052265000000000
C       2.150313000000000      0.848297000000000      0.236226000000000
C       1.104086000000000      1.591740000000000      0.780872000000000
C       1.210256000000000      2.937550000000000      1.120434000000000
C       2.434442000000000      3.561241000000000      0.880081000000000
C       3.519177000000000      2.857643000000000      0.355115000000000
C      -1.218330000000000      1.666952000000000      0.766230000000000
C      -1.245168000000000      3.013915000000000      1.117060000000000
C      -2.421842000000000      3.715037000000000      0.859265000000000
C      -3.531269000000000      3.090339000000000      0.284819000000000
C      -3.452330000000000      1.737660000000000     -0.054436000000000
C      -2.287916000000000      1.000293000000000      0.171274000000000
C       0.000283000000000      3.584754000000000      1.790404000000000
O      -0.079121000000000      0.925961000000000      0.992028000000000
P       1.783607000000000     -0.889394000000000     -0.263363000000000
P      -1.966887000000000     -0.697182000000000     -0.470060000000000
C       0.046619000000000      5.110022000000000      1.715937000000000
H      -0.818208000000000      5.544084000000000      2.225512000000000
H       0.937461000000000      5.490903000000000      2.223181000000000
H       0.055792000000000      5.460706000000000      0.679192000000000
C      -0.010289000000000      3.149103000000000      3.273532000000000
H      -0.893472000000000      3.553623000000000      3.778816000000000
H      -0.030809000000000      2.057838000000000      3.359227000000000
H       0.888010000000000      3.517715000000000      3.779909000000000
H      -7.180953000000000     -1.911364000000000     -2.527710000000000
H       6.956703000000000     -2.297120000000000     -2.269181000000000
H      -2.005880000000000     -4.191188000000000      4.074410000000000
H       1.554225000000000     -3.783909000000000      4.657653000000000
Rh     -0.093147000000000     -0.916446000000000     -1.973924000000000
H      -1.110597000000000     -0.718962000000000     -3.109626000000000
C       0.535435000000000      0.757664000000000     -2.586142000000000
O       0.839824000000000      1.793787000000000     -2.979631000000000
H       4.881477000000000      4.492172000000000      0.609078000000000
H       5.660395000000000      2.928057000000000      0.402078000000000
C       4.987221000000000      3.821767000000000     -1.446336000000000
H       5.935920000000000      4.323292000000000     -1.658437000000000
H       4.960422000000000      2.885008000000000     -2.012263000000000
H       4.171626000000000      4.452674000000000     -1.811935000000000
H      -5.656695000000000      3.242996000000000      0.065060000000000
H      -4.887814000000000      4.703091000000000      0.676137000000000
C      -4.721573000000000      4.449320000000000     -1.465582000000000
H      -5.624301000000000      5.021699000000000     -1.698234000000000
H      -3.855244000000000      5.107009000000000     -1.586183000000000
H      -4.628302000000000      3.640321000000000     -2.196598000000000
C      -0.563175000000000     -3.054824000000000     -2.231821000000000
C       0.393516000000000     -2.691696000000000     -3.193706000000000
C       1.789503000000000     -3.231971000000000     -3.102497000000000
O       1.858144000000000     -4.561575000000000     -3.673995000000000
C       1.926458000000000     -4.617626000000000     -5.011854000000000
C       1.971360000000000     -6.048210000000000     -5.488682000000000
O       1.946998000000000     -3.647845000000000     -5.730496000000000
H      -0.260802000000000     -3.668294000000000     -1.385021000000000
H      -1.611112000000000     -3.147854000000000     -2.507107000000000
H       0.072692000000000     -2.473840000000000     -4.208235000000000
H       2.099619000000000     -3.372667000000000     -2.064127000000000
H       2.515773000000000     -2.603161000000000     -3.618985000000000
H       1.044609000000000     -6.554801000000000     -5.206510000000000
H       2.796965000000000     -6.576666000000000     -5.006249000000000
H       2.090567000000000     -6.064819000000000     -6.570947000000000
