93

H      -2.084212000000000     -4.623151000000000      2.899794000000000
H      -2.162118000000000     -3.507501000000000      0.699530000000000
H      -2.782697000000000     -1.207943000000000     -2.875261000000000
H      -4.995370000000000     -1.804649000000000     -3.754343000000000
H      -6.515447000000000     -2.112034000000000      0.258587000000000
H      -4.283360000000000     -1.545599000000000      1.146090000000000
H       3.058136000000000     -2.225069000000000     -2.628058000000000
H       5.288455000000000     -3.131393000000000     -3.209786000000000
H       6.835248000000000     -1.715541000000000      0.538688000000000
H       4.608513000000000     -0.824416000000000      1.122515000000000
H       1.374222000000000     -4.037251000000000      3.315208000000000
H       1.375750000000000     -3.235161000000000      0.976002000000000
C      -1.883855000000000     -3.558393000000000      2.829529000000000
C      -1.916594000000000     -2.930673000000000      1.588883000000000
C      -3.375385000000000     -1.340232000000000     -0.803005000000000
C      -3.598398000000000     -1.397763000000000     -2.182533000000000
C      -4.857547000000000     -1.726906000000000     -2.681672000000000
C      -5.906865000000000     -1.984046000000000     -1.805283000000000
C      -5.697751000000000     -1.915506000000000     -0.427989000000000
C      -4.439185000000000     -1.598259000000000      0.072305000000000
C       3.682177000000000     -1.455145000000000     -0.722097000000000
C       3.887266000000000     -2.111874000000000     -1.936930000000000
C       5.144383000000000     -2.621346000000000     -2.262467000000000
C       6.206186000000000     -2.478385000000000     -1.376499000000000
C       6.010804000000000     -1.826703000000000     -0.158674000000000
C       4.757360000000000     -1.322764000000000      0.167826000000000
C       1.949666000000000     -1.224428000000000      1.487839000000000
C       1.939573000000000     -2.127990000000000      4.138130000000000
C       1.628753000000000     -3.004092000000000      3.099909000000000
C       1.625364000000000     -2.552975000000000      1.784908000000000
H      -1.186892000000000      0.243529000000000      2.570375000000000
H      -1.110704000000000     -0.877072000000000      4.762192000000000
H       2.503319000000000      0.686479000000000      2.325838000000000
H       2.478606000000000     -0.110035000000000      4.658324000000000
C      -1.681796000000000     -1.553021000000000      1.481994000000000
C      -1.383394000000000     -0.822187000000000      2.633665000000000
C      -1.345712000000000     -1.455447000000000      3.873989000000000
C      -1.602379000000000     -2.819225000000000      3.976658000000000
C       2.248029000000000     -0.348884000000000      2.534899000000000
C       2.240361000000000     -0.799715000000000      3.853989000000000
H      -4.132835000000000      1.024632000000000     -0.485857000000000
H      -2.406413000000000      4.864822000000000      0.175463000000000
F      -4.523221000000000      3.560153000000000     -0.420549000000000
H       2.666046000000000      4.916629000000000     -0.271609000000000
H       4.373716000000000      1.088029000000000     -1.084153000000000
F       4.688797000000000      3.643436000000000     -1.177031000000000
C      -3.257940000000000      1.596855000000000     -0.199006000000000
C      -2.034002000000000      0.982459000000000      0.080139000000000
C      -0.964136000000000      1.807674000000000      0.428612000000000
C      -1.042277000000000      3.200339000000000      0.474038000000000
C      -2.267054000000000      3.790062000000000      0.173146000000000
C      -3.346302000000000      2.978471000000000     -0.143969000000000
C       1.352222000000000      1.841002000000000      0.255509000000000
C       1.401766000000000      3.231685000000000      0.269300000000000
C       2.551538000000000      3.839576000000000     -0.233988000000000
C       3.586095000000000      3.042954000000000     -0.703037000000000
C       3.533813000000000      1.655996000000000     -0.698483000000000
C       2.383914000000000      1.030459000000000     -0.217174000000000
C       0.214279000000000      3.961831000000000      0.889983000000000
O       0.230327000000000      1.194130000000000      0.727389000000000
P      -1.719258000000000     -0.818532000000000     -0.197971000000000
P       2.024042000000000     -0.770590000000000     -0.297302000000000
C       0.347719000000000      3.868278000000000      2.427232000000000
H       0.394926000000000      2.823957000000000      2.752244000000000
H       1.261231000000000      4.374858000000000      2.755311000000000
H      -0.513024000000000      4.343422000000000      2.908828000000000
C       0.161139000000000      5.430686000000000      0.474728000000000
H       1.067554000000000      5.950510000000000      0.797662000000000
H       0.062072000000000      5.537840000000000     -0.609891000000000
H      -0.681650000000000      5.934514000000000      0.956305000000000
H       1.936621000000000     -2.478844000000000      5.165798000000000
H      -1.576611000000000     -3.306729000000000      4.946519000000000
H       7.184444000000000     -2.875424000000000     -1.629271000000000
H      -6.887682000000000     -2.243134000000000     -2.192048000000000
Rh      0.174512000000000     -1.242550000000000     -1.751086000000000
H       1.242184000000000     -1.440037000000000     -2.856499000000000
C      -0.201943000000000      0.366625000000000     -2.683609000000000
O      -0.362057000000000      1.348412000000000     -3.256469000000000
C       0.197288000000000     -3.431159000000000     -1.571423000000000
C      -0.712271000000000     -3.037023000000000     -2.572819000000000
C      -0.417565000000000     -3.195591000000000     -4.039309000000000
O      -1.048364000000000     -4.387942000000000     -4.563593000000000
C      -2.352791000000000     -4.271910000000000     -4.844141000000000
C      -2.915922000000000     -5.573150000000000     -5.355850000000000
O      -2.988212000000000     -3.252782000000000     -4.700152000000000
H       1.171117000000000     -3.831504000000000     -1.847411000000000
H      -0.174956000000000     -3.767229000000000     -0.606913000000000
H      -1.774388000000000     -3.063841000000000     -2.341386000000000
H       0.651086000000000     -3.342396000000000     -4.210718000000000
H      -0.770509000000000     -2.343071000000000     -4.622634000000000
H      -2.835126000000000     -6.335175000000000     -4.576193000000000
H      -2.336451000000000     -5.917503000000000     -6.215572000000000
H      -3.959497000000000     -5.432509000000000     -5.633016000000000
