109

H      -0.086622000000000     -4.485538000000000      3.789440000000000
H      -0.225543000000000     -3.898605000000000      1.396122000000000
H      -2.400261000000000     -2.641983000000000     -2.597340000000000
H      -4.323737000000000     -4.018240000000000     -3.253910000000000
H      -5.403771000000000     -4.494956000000000      0.882880000000000
H      -3.459495000000000     -3.128598000000000      1.547960000000000
H       3.487098000000000     -0.897762000000000     -2.883374000000000
H       5.821307000000000     -1.008289000000000     -3.689493000000000
H       7.209850000000000     -1.182835000000000      0.370801000000000
H       4.883207000000000     -1.052028000000000      1.175485000000000
H       3.303034000000000     -4.313957000000000      3.025024000000000
H       3.116682000000000     -3.339452000000000      0.760500000000000
C      -0.539027000000000     -3.544595000000000      3.491745000000000
C      -0.609978000000000     -3.210173000000000      2.144368000000000
C      -2.797277000000000     -2.784247000000000     -0.478197000000000
C      -3.064297000000000     -3.033180000000000     -1.829902000000000
C      -4.160140000000000     -3.807417000000000     -2.202953000000000
C      -5.003868000000000     -4.332642000000000     -1.227755000000000
C      -4.748924000000000     -4.085511000000000      0.119678000000000
C      -3.650471000000000     -3.316688000000000      0.495450000000000
C       4.018991000000000     -0.977906000000000     -0.800690000000000
C       4.303149000000000     -0.959930000000000     -2.169944000000000
C       5.618955000000000     -1.021846000000000     -2.623042000000000
C       6.668135000000000     -1.107626000000000     -1.712362000000000
C       6.396706000000000     -1.121037000000000     -0.345954000000000
C       5.082246000000000     -1.052058000000000      0.107896000000000
C       2.351872000000000     -1.445941000000000      1.453692000000000
C       2.542238000000000     -2.557080000000000      4.015766000000000
C       2.922803000000000     -3.304188000000000      2.902046000000000
C       2.814102000000000     -2.757669000000000      1.628385000000000
H      -2.130550000000000     -0.183509000000000      2.417965000000000
H      -1.967999000000000     -0.761957000000000      4.811321000000000
H       1.586786000000000      0.303946000000000      2.453755000000000
H       1.730765000000000     -0.688472000000000      4.708455000000000
C      -1.191679000000000     -2.002880000000000      1.741055000000000
C      -1.671737000000000     -1.122385000000000      2.713417000000000
C      -1.587182000000000     -1.452823000000000      4.065116000000000
C      -1.030707000000000     -2.666428000000000      4.455937000000000
C       1.957122000000000     -0.710164000000000      2.572261000000000
C       2.047420000000000     -1.267834000000000      3.846548000000000
H      -4.203804000000000     -0.666699000000000     -0.448361000000000
N      -3.736872000000000      3.891825000000000     -0.175539000000000
H      -5.068257000000000      1.649311000000000     -0.469559000000000
N       1.727943000000000      5.262430000000000      0.111055000000000
H       4.295083000000000      1.481162000000000     -0.273992000000000
H       3.974859000000000      3.920564000000000     -0.124644000000000
C      -3.526557000000000      0.169623000000000     -0.307444000000000
C      -2.170901000000000     -0.053848000000000     -0.095420000000000
C      -1.346918000000000      1.063112000000000      0.082304000000000
C      -1.768365000000000      2.390348000000000      0.005350000000000
C      -3.157402000000000      2.572199000000000     -0.176763000000000
C      -4.005587000000000      1.473237000000000     -0.329583000000000
C       0.944383000000000      1.633759000000000      0.142934000000000
C       0.694168000000000      3.006683000000000      0.107706000000000
C       1.840265000000000      3.827701000000000      0.035087000000000
C       3.112363000000000      3.262124000000000     -0.074715000000000
C       3.298507000000000      1.887895000000000     -0.138080000000000
C       2.200998000000000      1.038313000000000     -0.027440000000000
C      -0.750954000000000      3.543762000000000      0.096664000000000
O      -0.056392000000000      0.738403000000000      0.382173000000000
P      -1.364423000000000     -1.707314000000000     -0.064813000000000
P       2.264950000000000     -0.794070000000000     -0.261007000000000
C      -1.017169000000000      4.368911000000000      1.369590000000000
H      -0.324452000000000      5.211333000000000      1.413577000000000
H      -2.035970000000000      4.760254000000000      1.347482000000000
H      -0.889382000000000      3.750749000000000      2.264963000000000
C      -0.913968000000000      4.422806000000000     -1.163532000000000
H      -1.917869000000000      4.844020000000000     -1.191071000000000
H      -0.198915000000000      5.243536000000000     -1.135909000000000
H      -0.746235000000000      3.823161000000000     -2.064699000000000
H       2.619366000000000     -2.984188000000000      5.011235000000000
H      -0.971953000000000     -2.925897000000000      5.508741000000000
H       7.693486000000000     -1.163346000000000     -2.064697000000000
H      -5.855345000000000     -4.941667000000000     -1.515924000000000
Rh      0.584719000000000     -1.802092000000000     -1.670992000000000
H       1.649329000000000     -1.831145000000000     -2.787293000000000
C      -0.188618000000000     -0.402563000000000     -2.700763000000000
O      -0.566028000000000      0.470157000000000     -3.345293000000000
C      -4.420402000000000      4.210100000000000     -1.423320000000000
H      -4.689810000000000      5.271467000000000     -1.418318000000000
H      -3.749869000000000      4.024245000000000     -2.266157000000000
H      -5.341811000000000      3.624071000000000     -1.577777000000000
C      -4.608902000000000      4.104631000000000      0.972680000000000
H      -5.527029000000000      3.493553000000000      0.939471000000000
H      -4.070131000000000      3.863604000000000      1.892945000000000
H      -4.901144000000000      5.159379000000000      1.005785000000000
C       2.305340000000000      5.944277000000000     -1.040381000000000
H       2.033872000000000      7.004142000000000     -0.995564000000000
H       3.405225000000000      5.876228000000000     -1.084357000000000
H       1.897519000000000      5.518914000000000     -1.960924000000000
C       2.274631000000000      5.781542000000000      1.358742000000000
H       3.369433000000000      5.664178000000000      1.431486000000000
H       2.037886000000000      6.848000000000000      1.434670000000000
H       1.817601000000000      5.261874000000000      2.204974000000000
C       1.200977000000000     -3.873068000000000     -1.364964000000000
C       0.164385000000000     -3.807695000000000     -2.322056000000000
C       0.416669000000000     -4.001362000000000     -3.792005000000000
O       0.110327000000000     -5.359478000000000     -4.191554000000000
C      -1.185316000000000     -5.620520000000000     -4.402141000000000
C      -1.394151000000000     -7.067766000000000     -4.770006000000000
O      -2.068035000000000     -4.799075000000000     -4.305060000000000
H       2.227845000000000     -4.021562000000000     -1.695539000000000
H       0.993989000000000     -4.233635000000000     -0.361146000000000
H      -0.837927000000000     -4.097898000000000     -2.015289000000000
H       1.474505000000000     -3.869847000000000     -4.028759000000000
H      -0.185738000000000     -3.326776000000000     -4.403354000000000
H      -1.101869000000000     -7.700674000000000     -3.927853000000000
H      -0.759498000000000     -7.332864000000000     -5.618684000000000
H      -2.442793000000000     -7.232750000000000     -5.012650000000000
