97

H      -4.029542000000000     -3.822469000000000     -2.482971000000000
H      -2.233954000000000     -2.216475000000000     -1.933937000000000
H      -3.107311000000000     -0.155025000000000      2.174210000000000
H      -3.290170000000000      0.266671000000000      4.597427000000000
H       0.666186000000000     -1.306244000000000      5.169221000000000
H       0.842033000000000     -1.758501000000000      2.746794000000000
H      -0.917605000000000      2.542715000000000      2.043126000000000
H      -0.750813000000000      2.643146000000000      4.507943000000000
H       3.298781000000000      1.228951000000000      4.288268000000000
H       3.143814000000000      1.158027000000000      1.825582000000000
H       2.578782000000000      6.503762000000000      0.882876000000000
H       2.368942000000000      4.082616000000000      1.315121000000000
C      -3.789597000000000     -3.618208000000000     -1.444198000000000
C      -2.774572000000000     -2.719514000000000     -1.135303000000000
C      -1.122250000000000     -0.999177000000000      2.295549000000000
C      -2.275263000000000     -0.406805000000000      2.828593000000000
C      -2.382839000000000     -0.174016000000000      4.195523000000000
C      -1.327981000000000     -0.506991000000000      5.043525000000000
C      -0.166688000000000     -1.063580000000000      4.516285000000000
C      -0.062756000000000     -1.311838000000000      3.149122000000000
C       1.103748000000000      1.853395000000000      1.765151000000000
C       0.009839000000000      2.263124000000000      2.537037000000000
C       0.105449000000000      2.323199000000000      3.922213000000000
C       1.290755000000000      1.955046000000000      4.557236000000000
C       2.374220000000000      1.522503000000000      3.799904000000000
C       2.283718000000000      1.474373000000000      2.409092000000000
C       1.043254000000000      3.724208000000000     -0.349335000000000
C       1.279206000000000      6.475047000000000     -0.835428000000000
C       1.958537000000000      5.893040000000000      0.233947000000000
C       1.840302000000000      4.528544000000000      0.476754000000000
H      -2.922628000000000     -2.880761000000000      2.256709000000000
H      -4.742983000000000     -4.451099000000000      1.706003000000000
H      -0.262961000000000      3.706384000000000     -2.057233000000000
H      -0.052991000000000      6.132353000000000     -2.491143000000000
C      -2.454265000000000     -2.435864000000000      0.198396000000000
C      -3.166974000000000     -3.074166000000000      1.216787000000000
C      -4.192412000000000     -3.966856000000000      0.905305000000000
C      -4.505715000000000     -4.240102000000000     -0.422594000000000
C       0.364941000000000      4.318233000000000     -1.416946000000000
C       0.483446000000000      5.686071000000000     -1.659567000000000
H      -0.814456000000000     -4.308080000000000      0.552701000000000
N       3.473866000000000     -5.169272000000000     -0.624505000000000
H       1.059415000000000     -5.814862000000000      0.060833000000000
N       6.148523000000000     -0.425036000000000     -1.963402000000000
H       3.450301000000000      3.170428000000000     -1.305067000000000
H       5.527161000000000      2.089915000000000     -2.082689000000000
C       0.155805000000000     -3.887609000000000      0.309085000000000
C       0.329767000000000     -2.502926000000000      0.278978000000000
C       1.614476000000000     -2.046175000000000     -0.041399000000000
C       2.678363000000000     -2.851869000000000     -0.438367000000000
C       2.460583000000000     -4.246759000000000     -0.376203000000000
C       1.206162000000000     -4.739475000000000      0.013653000000000
C       2.773115000000000     -0.047745000000000     -0.552267000000000
C       3.894630000000000     -0.715507000000000     -1.023093000000000
C       4.915583000000000      0.098715000000000     -1.569810000000000
C       4.731617000000000      1.485514000000000     -1.655663000000000
C       3.567404000000000      2.095336000000000     -1.207730000000000
C       2.553255000000000      1.331889000000000     -0.639460000000000
C       4.005097000000000     -2.241271000000000     -0.913853000000000
O       1.767818000000000     -0.704347000000000      0.090634000000000
P      -1.042114000000000     -1.284006000000000      0.485132000000000
P       0.909270000000000      1.906783000000000     -0.067209000000000
C       4.324193000000000     -2.816895000000000     -2.336363000000000
H       3.550834000000000     -3.514033000000000     -2.666503000000000
H       4.341796000000000     -2.023713000000000     -3.087595000000000
H       5.290076000000000     -3.339900000000000     -2.366150000000000
C       5.107714000000000     -2.573660000000000      0.119025000000000
H       4.831177000000000     -2.145101000000000      1.086446000000000
H       5.222318000000000     -3.652774000000000      0.252451000000000
H       6.068688000000000     -2.143743000000000     -0.176707000000000
H       1.368056000000000      7.541051000000000     -1.021109000000000
H      -5.305655000000000     -4.933702000000000     -0.662132000000000
H       1.363092000000000      1.995478000000000      5.640105000000000
H      -1.408296000000000     -0.322967000000000      6.110646000000000
Rh     -0.938239000000000      0.728027000000000     -1.098983000000000
H      -0.839916000000000      1.800062000000000     -2.196638000000000
C      -0.173790000000000     -0.393457000000000     -2.411266000000000
O       0.387417000000000     -1.024286000000000     -3.193441000000000
H       3.142319000000000     -6.102619000000000     -0.830473000000000
H       4.210467000000000     -4.884245000000000     -1.252386000000000
H       6.148082000000000     -1.375605000000000     -2.302676000000000
H       6.672506000000000      0.186297000000000     -2.576590000000000
C      -2.466422000000000      2.013867000000000     -0.188035000000000
C      -3.054897000000000      1.307716000000000     -1.253445000000000
C      -4.089439000000000      0.254529000000000     -0.993606000000000
O      -5.399307000000000      0.853566000000000     -0.826897000000000
C      -6.034968000000000      1.192433000000000     -1.957133000000000
C      -7.368867000000000      1.829064000000000     -1.653470000000000
O      -5.592232000000000      1.011072000000000     -3.065506000000000
H      -2.704556000000000      1.722594000000000      0.834438000000000
H      -2.177612000000000      3.055212000000000     -0.307664000000000
H      -3.177126000000000      1.803516000000000     -2.212246000000000
H      -3.914835000000000     -0.262302000000000     -0.047726000000000
H      -4.151154000000000     -0.477917000000000     -1.800533000000000
H      -7.209968000000000      2.760619000000000     -1.103819000000000
H      -7.962663000000000      1.167630000000000     -1.018221000000000
H      -7.893378000000000      2.031707000000000     -2.586015000000000
