95

H      -4.770888000000000     -4.417034000000000      1.722209000000000
H      -2.935901000000000     -2.860972000000000      2.265253000000000
H      -3.099690000000000     -0.142419000000000      2.187792000000000
H      -3.261997000000000      0.282777000000000      4.611905000000000
H       0.694704000000000     -1.299641000000000      5.154140000000000
H       0.850981000000000     -1.754345000000000      2.731687000000000
H      -0.887579000000000      2.548549000000000      2.047181000000000
H      -0.712504000000000      2.659017000000000      4.510798000000000
H       3.325061000000000      1.211651000000000      4.285674000000000
H       3.162593000000000      1.130632000000000      1.824754000000000
H       2.632863000000000      6.480555000000000      0.883691000000000
H       2.396690000000000      4.063412000000000      1.323347000000000
C      -4.221346000000000     -3.935375000000000      0.919279000000000
C      -3.187745000000000     -3.050722000000000      1.226438000000000
C      -1.116290000000000     -0.992634000000000      2.294749000000000
C      -2.263276000000000     -0.395939000000000      2.835935000000000
C      -2.359201000000000     -0.161064000000000      4.203396000000000
C      -1.298682000000000     -0.496151000000000      5.043364000000000
C      -0.142896000000000     -1.056173000000000      4.507627000000000
C      -0.050379000000000     -1.306248000000000      3.140056000000000
C       1.127596000000000      1.842246000000000      1.766201000000000
C       0.039012000000000      2.263523000000000      2.539506000000000
C       0.139336000000000      2.329265000000000      3.924086000000000
C       1.323729000000000      1.955147000000000      4.557289000000000
C       2.401418000000000      1.510379000000000      3.798778000000000
C       2.306392000000000      1.456690000000000      2.408488000000000
C       1.081292000000000      3.711029000000000     -0.350855000000000
C       1.347791000000000      6.457465000000000     -0.845531000000000
C       2.012506000000000      5.873188000000000      0.231749000000000
C       1.879308000000000      4.510802000000000      0.478783000000000
H      -2.267079000000000     -2.193886000000000     -1.928708000000000
H      -4.077051000000000     -3.786142000000000     -2.469859000000000
H      -0.210988000000000      3.699323000000000     -2.069719000000000
H       0.026366000000000      6.121042000000000     -2.511163000000000
C      -2.476687000000000     -2.415702000000000      0.204748000000000
C      -2.806766000000000     -2.694178000000000     -1.127677000000000
C      -3.829881000000000     -3.585247000000000     -1.432177000000000
C      -4.544196000000000     -4.203906000000000     -0.407388000000000
C       0.417568000000000      4.307326000000000     -1.426464000000000
C       0.551413000000000      5.672946000000000     -1.673360000000000
H      -0.863133000000000     -4.303899000000000      0.527959000000000
O       3.422161000000000     -5.115129000000000     -0.679672000000000
H       1.004011000000000     -5.831227000000000      0.030852000000000
O       6.051259000000000     -0.536963000000000     -1.981599000000000
H       3.471151000000000      3.135706000000000     -1.312780000000000
H       5.543269000000000      2.030305000000000     -2.096829000000000
C       0.113014000000000     -3.893393000000000      0.292355000000000
C       0.307749000000000     -2.513313000000000      0.272318000000000
C       1.599024000000000     -2.065210000000000     -0.040486000000000
C       2.660084000000000     -2.876295000000000     -0.436104000000000
C       2.408747000000000     -4.258260000000000     -0.375910000000000
C       1.159478000000000     -4.755682000000000     -0.002052000000000
C       2.774725000000000     -0.079551000000000     -0.546368000000000
C       3.889192000000000     -0.761892000000000     -1.014398000000000
C       4.898016000000000      0.055660000000000     -1.561025000000000
C       4.742784000000000      1.438107000000000     -1.659976000000000
C       3.581237000000000      2.060366000000000     -1.212862000000000
C       2.567604000000000      1.303385000000000     -0.639006000000000
C       3.983990000000000     -2.290108000000000     -0.946448000000000
O       1.761740000000000     -0.724579000000000      0.097408000000000
P      -1.052840000000000     -1.277471000000000      0.484329000000000
P       0.927776000000000      1.895765000000000     -0.065225000000000
C       4.215151000000000     -2.822746000000000     -2.380142000000000
H       3.384361000000000     -2.516331000000000     -3.023578000000000
H       5.143095000000000     -2.423076000000000     -2.789564000000000
H       4.275099000000000     -3.911381000000000     -2.377374000000000
C       5.137193000000000     -2.692939000000000     -0.005935000000000
H       4.952326000000000     -2.309575000000000      1.002629000000000
H       5.223803000000000     -3.780415000000000      0.043239000000000
H       6.080299000000000     -2.279131000000000     -0.369923000000000
H       1.448359000000000      7.521821000000000     -1.034503000000000
H      -5.350321000000000     -4.891473000000000     -0.643448000000000
H       1.399893000000000      2.000587000000000      5.639671000000000
H      -1.370031000000000     -0.310742000000000      6.110856000000000
Rh     -0.929458000000000      0.733726000000000     -1.095713000000000
H      -0.824543000000000      1.804998000000000     -2.193016000000000
C      -0.175274000000000     -0.395764000000000     -2.409585000000000
O       0.380637000000000     -1.034794000000000     -3.188008000000000
H       3.096041000000000     -6.023690000000000     -0.605176000000000
H       6.638432000000000      0.144225000000000     -2.340016000000000
C      -2.443468000000000      2.033807000000000     -0.180785000000000
C      -3.041114000000000      1.335215000000000     -1.245803000000000
C      -4.086544000000000      0.293109000000000     -0.984216000000000
O      -5.388884000000000      0.906322000000000     -0.813846000000000
C      -6.022843000000000      1.253959000000000     -1.942845000000000
C      -7.349393000000000      1.904039000000000     -1.636182000000000
O      -5.583165000000000      1.069494000000000     -3.051802000000000
H      -2.683430000000000      1.743812000000000      0.841684000000000
H      -2.143665000000000      3.072129000000000     -0.299897000000000
H      -3.159809000000000      1.832965000000000     -2.203989000000000
H      -3.914956000000000     -0.226013000000000     -0.038974000000000
H      -4.158104000000000     -0.438073000000000     -1.791486000000000
H      -7.180179000000000      2.831628000000000     -1.082942000000000
H      -7.950185000000000      1.246615000000000     -1.003333000000000
H      -7.871991000000000      2.115914000000000     -2.567734000000000
