95

H       1.127539000000000      0.530675000000000      5.218938000000000
H       1.598908000000000      0.801782000000000      2.810708000000000
H       3.482122000000000     -0.339069000000000     -1.365965000000000
H       5.881425000000000     -0.849471000000000     -1.425564000000000
H       5.571438000000000     -2.789974000000000      2.401555000000000
H       3.162529000000000     -2.259616000000000      2.475396000000000
H      -3.845904000000000      2.782237000000000      1.345946000000000
H      -5.021636000000000      4.899420000000000      0.867982000000000
H      -2.308729000000000      5.677122000000000     -2.370013000000000
H      -1.130763000000000      3.554853000000000     -1.887891000000000
H      -0.948730000000000      3.204580000000000      4.596198000000000
H      -0.741077000000000      3.187942000000000      2.134963000000000
C       0.899715000000000     -0.278193000000000      4.531712000000000
C       1.160240000000000     -0.123704000000000      3.174810000000000
C       3.152969000000000     -1.266383000000000      0.558379000000000
C       3.931811000000000     -0.887450000000000     -0.541606000000000
C       5.291983000000000     -1.184863000000000     -0.579549000000000
C       5.882685000000000     -1.870114000000000      0.478570000000000
C       5.113510000000000     -2.255852000000000      1.574647000000000
C       3.754919000000000     -1.955649000000000      1.617425000000000
C      -2.403357000000000      3.022721000000000     -0.241123000000000
C      -3.506668000000000      3.415621000000000      0.530470000000000
C      -4.170519000000000      4.607342000000000      0.260519000000000
C      -3.741901000000000      5.426048000000000     -0.784430000000000
C      -2.650308000000000      5.044426000000000     -1.556695000000000
C      -1.984612000000000      3.848842000000000     -1.286066000000000
C      -1.758973000000000      1.302077000000000      1.889136000000000
C      -1.982009000000000      1.314456000000000      4.680925000000000
C      -1.348868000000000      2.370473000000000      4.027481000000000
C      -1.228454000000000      2.358456000000000      2.642742000000000
H       0.067962000000000     -3.144997000000000      2.066387000000000
H      -0.426274000000000     -3.403037000000000      4.469519000000000
H      -2.797533000000000     -0.586646000000000      1.988616000000000
H      -2.967758000000000     -0.583429000000000      4.445220000000000
C       0.872461000000000     -1.154189000000000      2.273523000000000
C       0.293788000000000     -2.332700000000000      2.751146000000000
C       0.020729000000000     -2.481199000000000      4.109688000000000
C       0.329730000000000     -1.459348000000000      5.002252000000000
C      -2.382114000000000      0.242955000000000      2.551495000000000
C      -2.486685000000000      0.249619000000000      3.941723000000000
H       2.566110000000000     -3.390869000000000     -0.791240000000000
H      -0.965426000000000     -5.334164000000000     -2.236410000000000
O       1.692092000000000     -5.391979000000000     -2.107723000000000
H      -5.030458000000000     -2.349761000000000     -2.500480000000000
H      -4.221952000000000      1.697092000000000     -1.387055000000000
O      -5.850393000000000      0.040815000000000     -2.696788000000000
C       1.483429000000000     -3.409976000000000     -0.859931000000000
C       0.700968000000000     -2.409002000000000     -0.292249000000000
C      -0.683949000000000     -2.500833000000000     -0.422406000000000
C      -1.320116000000000     -3.534419000000000     -1.099533000000000
C      -0.516108000000000     -4.513401000000000     -1.683436000000000
C       0.872170000000000     -4.451092000000000     -1.562512000000000
C      -2.540609000000000     -1.116465000000000     -0.561918000000000
C      -3.294612000000000     -2.081827000000000     -1.229238000000000
C      -4.405668000000000     -1.656428000000000     -1.949062000000000
C      -4.741568000000000     -0.302172000000000     -1.983071000000000
C      -3.961526000000000      0.643789000000000     -1.320677000000000
C      -2.828967000000000      0.245072000000000     -0.605437000000000
C      -2.847432000000000     -3.535367000000000     -1.086785000000000
O      -1.432992000000000     -1.503310000000000      0.162630000000000
P       1.353764000000000     -0.893733000000000      0.520745000000000
P      -1.561356000000000      1.408343000000000      0.062660000000000
C      -3.310528000000000     -4.048857000000000      0.295738000000000
H      -2.973258000000000     -5.079861000000000      0.445479000000000
H      -2.898442000000000     -3.430025000000000      1.099123000000000
H      -4.403109000000000     -4.020481000000000      0.360326000000000
C      -3.434852000000000     -4.427591000000000     -2.178374000000000
H      -3.114735000000000     -5.464130000000000     -2.037237000000000
H      -4.527210000000000     -4.424057000000000     -2.128221000000000
H      -3.128791000000000     -4.096096000000000     -3.175507000000000
H      -2.072670000000000      1.317954000000000      5.763076000000000
H       0.120555000000000     -1.578412000000000      6.061101000000000
H      -4.257483000000000      6.358810000000000     -0.991340000000000
H       6.943916000000000     -2.098286000000000      0.453563000000000
Rh      0.658759000000000      1.116403000000000     -0.808915000000000
H       0.338983000000000      2.261666000000000     -1.795201000000000
C       0.552981000000000      0.033536000000000     -2.369089000000000
O       0.441761000000000     -0.555312000000000     -3.347858000000000
H       1.160617000000000     -6.031657000000000     -2.601802000000000
H      -5.954322000000000      1.002760000000000     -2.676073000000000
C       1.588728000000000      2.703709000000000      0.377860000000000
C       2.524149000000000      2.163410000000000     -0.529049000000000
C       2.958736000000000      2.898716000000000     -1.766942000000000
O       4.215891000000000      3.581272000000000     -1.544203000000000
C       5.311747000000000      2.818227000000000     -1.643407000000000
C       6.557029000000000      3.616780000000000     -1.352987000000000
O       5.295675000000000      1.642287000000000     -1.925760000000000
H       1.122991000000000      3.664020000000000      0.161726000000000
H       1.649187000000000      2.459674000000000      1.434700000000000
H       3.277383000000000      1.479428000000000     -0.144831000000000
H       2.249961000000000      3.689549000000000     -2.021622000000000
H       3.085193000000000      2.227754000000000     -2.618754000000000
H       6.534700000000000      3.955928000000000     -0.313883000000000
H       6.589320000000000      4.503742000000000     -1.989790000000000
H       7.434414000000000      2.994381000000000     -1.521911000000000
