95

H      -1.066866000000000     -3.844006000000000      3.515707000000000
H      -1.179653000000000     -3.000028000000000      1.196125000000000
H      -3.127649000000000     -0.887514000000000     -2.468398000000000
H      -5.419842000000000     -1.540937000000000     -3.018204000000000
H      -6.381549000000000     -1.779129000000000      1.160244000000000
H      -4.050322000000000     -1.149256000000000      1.729285000000000
H       2.863729000000000     -1.264190000000000     -3.269023000000000
H       4.990919000000000     -2.071752000000000     -4.243174000000000
H       6.723367000000000     -2.228678000000000     -0.316129000000000
H       4.602136000000000     -1.416304000000000      0.652869000000000
H       2.015236000000000     -4.524511000000000      2.459368000000000
H       2.141640000000000     -3.354246000000000      0.270966000000000
C      -1.240131000000000     -2.787812000000000      3.333107000000000
C      -1.291723000000000     -2.309241000000000      2.028163000000000
C      -3.412930000000000     -0.969018000000000     -0.327239000000000
C      -3.830875000000000     -1.068513000000000     -1.659335000000000
C      -5.136535000000000     -1.423779000000000     -1.975883000000000
C      -6.049498000000000     -1.679119000000000     -0.953839000000000
C      -5.654427000000000     -1.574233000000000      0.381926000000000
C      -4.347156000000000     -1.223793000000000      0.687027000000000
C       3.584510000000000     -1.287288000000000     -1.244401000000000
C       3.710444000000000     -1.474165000000000     -2.623044000000000
C       4.909634000000000     -1.928953000000000     -3.170119000000000
C       5.994379000000000     -2.203606000000000     -2.343629000000000
C       5.880062000000000     -2.017690000000000     -0.966503000000000
C       4.684736000000000     -1.561658000000000     -0.420745000000000
C       2.038175000000000     -1.374593000000000      1.123089000000000
C       1.883819000000000     -2.704602000000000      3.583650000000000
C       2.000572000000000     -3.441105000000000      2.403376000000000
C       2.064039000000000     -2.776360000000000      1.189074000000000
H      -1.800626000000000      0.987121000000000      2.678269000000000
H      -1.682472000000000      0.142246000000000      4.991931000000000
H       1.949594000000000      0.429572000000000      2.304015000000000
H       1.785238000000000     -0.740901000000000      4.458761000000000
C      -1.501358000000000     -0.949244000000000      1.774881000000000
C      -1.630638000000000     -0.071183000000000      2.854551000000000
C      -1.570385000000000     -0.549907000000000      4.162529000000000
C      -1.383333000000000     -1.908045000000000      4.404296000000000
C       1.957351000000000     -0.655369000000000      2.314977000000000
C       1.877868000000000     -1.313545000000000      3.538672000000000
H      -3.992505000000000      1.525609000000000     -0.337792000000000
H      -1.982726000000000      5.271187000000000      0.246899000000000
H      -4.022530000000000      4.000573000000000     -0.288567000000000
H       3.056600000000000      4.996742000000000     -0.102826000000000
H       4.482255000000000      1.084398000000000     -1.116784000000000
H       4.823836000000000      3.524652000000000     -0.984221000000000
C      -3.087931000000000      2.075903000000000     -0.098354000000000
C      -1.904613000000000      1.381651000000000      0.158736000000000
C      -0.770617000000000      2.133767000000000      0.460180000000000
C      -0.752773000000000      3.525224000000000      0.518464000000000
C      -1.946751000000000      4.186860000000000      0.231415000000000
C      -3.101864000000000      3.469112000000000     -0.071833000000000
C       1.545221000000000      2.005198000000000      0.266472000000000
C       1.694908000000000      3.388829000000000      0.338721000000000
C       2.894825000000000      3.924237000000000     -0.128012000000000
C       3.893532000000000      3.092960000000000     -0.629951000000000
C       3.705196000000000      1.714703000000000     -0.696889000000000
C       2.508280000000000      1.141529000000000     -0.257302000000000
C       0.550674000000000      4.185129000000000      0.961612000000000
O       0.380084000000000      1.426219000000000      0.717308000000000
P      -1.691995000000000     -0.440519000000000      0.016651000000000
P       2.017671000000000     -0.613547000000000     -0.544954000000000
C       0.651504000000000      4.051197000000000      2.498391000000000
H       1.597776000000000      4.473422000000000      2.852348000000000
H      -0.176126000000000      4.584664000000000      2.977575000000000
H       0.606032000000000      3.000031000000000      2.801518000000000
C       0.605473000000000      5.663914000000000      0.581709000000000
H       0.538484000000000      5.802064000000000     -0.501933000000000
H      -0.213877000000000      6.210961000000000      1.056533000000000
H       1.535705000000000      6.116490000000000      0.936488000000000
O       1.753452000000000     -3.398826000000000      4.746784000000000
H      -1.348021000000000     -2.283645000000000      5.423041000000000
H       6.926645000000000     -2.562723000000000     -2.768538000000000
O      -7.335186000000000     -2.041615000000000     -1.199360000000000
Rh     -0.011585000000000     -0.949672000000000     -1.793059000000000
H       0.879507000000000     -1.163268000000000     -3.035095000000000
C      -0.474176000000000      0.678441000000000     -2.660324000000000
O      -0.679345000000000      1.652304000000000     -3.232672000000000
H       1.643979000000000     -2.770232000000000      5.474655000000000
H      -7.468940000000000     -2.093030000000000     -2.156836000000000
C       0.023600000000000     -3.131286000000000     -1.674518000000000
C      -1.046722000000000     -2.708039000000000     -2.491100000000000
C      -1.013214000000000     -2.838222000000000     -3.988644000000000
O      -1.710750000000000     -4.033799000000000     -4.417076000000000
C      -3.041926000000000     -3.933443000000000     -4.494948000000000
C      -3.661785000000000     -5.247118000000000     -4.899221000000000
O      -3.662531000000000     -2.920235000000000     -4.264610000000000
H       0.928352000000000     -3.525516000000000     -2.134895000000000
H      -0.169960000000000     -3.500177000000000     -0.671077000000000
H      -2.051507000000000     -2.739964000000000     -2.075806000000000
H       0.009970000000000     -2.966576000000000     -4.347644000000000
H      -1.474375000000000     -1.982793000000000     -4.486111000000000
H      -3.494683000000000     -5.982755000000000     -4.107767000000000
H      -3.184505000000000     -5.623417000000000     -5.806685000000000
H      -4.730434000000000     -5.111366000000000     -5.058620000000000
