101

H       7.036158000000000     -0.872110000000000      1.188834000000000
H       4.686218000000000     -0.796030000000000      1.934701000000000
H       3.009354000000000     -2.857259000000000      1.863944000000000
H       2.974676000000000     -3.467784000000000      4.253258000000000
H       1.043679000000000      0.256495000000000      5.177629000000000
H       1.101738000000000      0.885283000000000      2.792023000000000
H      -0.415118000000000     -3.340439000000000      1.941719000000000
H      -0.468135000000000     -3.613455000000000      4.398524000000000
H      -2.685497000000000      0.048177000000000      4.752883000000000
H      -2.673601000000000      0.296276000000000      2.296782000000000
H      -4.426645000000000     -4.027289000000000     -2.993054000000000
H      -2.551684000000000     -2.542936000000000     -2.381284000000000
C       6.242309000000000     -0.792151000000000      0.452542000000000
C       4.913367000000000     -0.756364000000000      0.873895000000000
C       2.073244000000000     -0.933256000000000      2.164351000000000
C       2.575782000000000     -2.170786000000000      2.588379000000000
C       2.562312000000000     -2.514581000000000      3.936465000000000
C       2.021627000000000     -1.636634000000000      4.873748000000000
C       1.486679000000000     -0.421906000000000      4.454996000000000
C       1.512871000000000     -0.069092000000000      3.107850000000000
C      -1.549418000000000     -1.510388000000000      1.950361000000000
C      -0.921692000000000     -2.603919000000000      2.559299000000000
C      -0.955321000000000     -2.758176000000000      3.940523000000000
C      -1.592650000000000     -1.806011000000000      4.734558000000000
C      -2.192486000000000     -0.700494000000000      4.139908000000000
C      -2.177805000000000     -0.555525000000000      2.753242000000000
C      -2.951676000000000     -2.618810000000000     -0.265061000000000
C      -5.074613000000000     -4.315244000000000     -0.958306000000000
C      -4.251895000000000     -3.784061000000000     -1.949611000000000
C      -3.194822000000000     -2.947577000000000     -1.604919000000000
H       3.400344000000000     -0.522637000000000     -2.158177000000000
H       5.757294000000000     -0.555407000000000     -2.899892000000000
H      -3.626224000000000     -2.897990000000000      1.765617000000000
H      -5.478062000000000     -4.403641000000000      1.153942000000000
C       3.879565000000000     -0.663393000000000     -0.061561000000000
C       4.199748000000000     -0.586779000000000     -1.423039000000000
C       5.525780000000000     -0.610418000000000     -1.840829000000000
C       6.550879000000000     -0.720150000000000     -0.902500000000000
C      -3.790202000000000     -3.147131000000000      0.721836000000000
C      -4.840652000000000     -3.995342000000000      0.375606000000000
H       4.043411000000000      1.781947000000000      0.371621000000000
O       1.352863000000000      5.400986000000000     -0.184074000000000
H       3.717659000000000      4.188015000000000      0.135824000000000
O      -3.778278000000000      4.008187000000000     -0.952663000000000
H      -4.385848000000000     -0.498961000000000     -0.691356000000000
H      -5.227199000000000      1.764522000000000     -1.123324000000000
C       3.033757000000000      2.170287000000000      0.290847000000000
C       1.946578000000000      1.304320000000000      0.325393000000000
C       0.675297000000000      1.888376000000000      0.213953000000000
C       0.428006000000000      3.234956000000000     -0.026004000000000
C       1.568775000000000      4.068947000000000     -0.026878000000000
C       2.850330000000000      3.541066000000000      0.141678000000000
C      -1.590014000000000      1.291126000000000     -0.081469000000000
C      -1.983069000000000      2.588385000000000     -0.369709000000000
C      -3.343072000000000      2.738465000000000     -0.733054000000000
C      -4.191099000000000      1.635057000000000     -0.839126000000000
C      -3.715625000000000      0.348807000000000     -0.586640000000000
C      -2.398132000000000      0.151440000000000     -0.202671000000000
C      -0.989592000000000      3.757525000000000     -0.311770000000000
O      -0.344202000000000      1.008339000000000      0.392898000000000
P       2.092649000000000     -0.539168000000000      0.373142000000000
P      -1.570289000000000     -1.457475000000000      0.110475000000000
C      -0.970278000000000      4.434338000000000     -1.703503000000000
H      -1.960852000000000      4.809537000000000     -1.958891000000000
H      -0.267194000000000      5.266586000000000     -1.714868000000000
H      -0.664343000000000      3.704584000000000     -2.460023000000000
C      -1.417630000000000      4.741650000000000      0.795953000000000
H      -1.419543000000000      4.234820000000000      1.766278000000000
H      -0.725340000000000      5.584136000000000      0.843460000000000
H      -2.422721000000000      5.118334000000000      0.597295000000000
H      -5.893168000000000     -4.976490000000000     -1.225312000000000
H       7.586056000000000     -0.749888000000000     -1.227826000000000
H      -1.611624000000000     -1.922229000000000      5.814195000000000
H       2.006533000000000     -1.904814000000000      5.925874000000000
Rh      0.480754000000000     -1.814204000000000     -1.143285000000000
H      -0.444620000000000     -2.488187000000000     -2.167623000000000
C       0.584483000000000     -0.425747000000000     -2.423342000000000
O       0.561262000000000      0.428650000000000     -3.192927000000000
C       2.467941000000000      6.266297000000000     -0.201224000000000
H       3.146961000000000      6.023394000000000     -1.026293000000000
H       2.064550000000000      7.268333000000000     -0.344862000000000
H       3.017038000000000      6.225917000000000      0.746388000000000
C      -5.125701000000000      4.201227000000000     -1.324466000000000
H      -5.355739000000000      3.690220000000000     -2.266263000000000
H      -5.808502000000000      3.848036000000000     -0.543149000000000
H      -5.247718000000000      5.276283000000000     -1.454667000000000
C       0.792446000000000     -3.846807000000000     -0.381786000000000
C       1.585589000000000     -3.670045000000000     -1.531441000000000
C       3.080819000000000     -3.636126000000000     -1.428060000000000
O       3.621404000000000     -4.980892000000000     -1.415782000000000
C       3.725908000000000     -5.579728000000000     -2.610745000000000
C       4.268925000000000     -6.979822000000000     -2.464442000000000
O       3.422633000000000     -5.061748000000000     -3.658018000000000
H       1.279445000000000     -3.866973000000000      0.592774000000000
H      -0.143586000000000     -4.397142000000000     -0.437949000000000
H       1.229860000000000     -4.055824000000000     -2.482485000000000
H       3.412620000000000     -3.210276000000000     -0.478939000000000
H       3.544051000000000     -3.090903000000000     -2.252458000000000
H       3.567746000000000     -7.582147000000000     -1.880787000000000
H       5.217095000000000     -6.957940000000000     -1.922074000000000
H       4.405964000000000     -7.419340000000000     -3.451289000000000
