101

H      -4.938754000000000     -3.529826000000000      2.665745000000000
H      -4.170737000000000     -2.508393000000000      0.552541000000000
H      -3.965062000000000      1.105755000000000     -0.774267000000000
H      -5.898678000000000      0.933180000000000     -2.280229000000000
H      -4.655971000000000     -3.021497000000000     -3.426623000000000
H      -2.697787000000000     -2.830815000000000     -1.986725000000000
H       3.280332000000000     -2.656504000000000     -2.071394000000000
H       5.485086000000000     -3.762896000000000     -2.264424000000000
H       6.539361000000000     -2.336196000000000      1.647099000000000
H       4.353344000000000     -1.204438000000000      1.827101000000000
H       1.022225000000000      1.746932000000000      3.991978000000000
H       1.555797000000000      1.476438000000000      1.612121000000000
C      -4.050498000000000     -2.905667000000000      2.664830000000000
C      -3.617736000000000     -2.328137000000000      1.470774000000000
C      -3.191593000000000     -0.854589000000000     -1.252510000000000
C      -4.107292000000000      0.199231000000000     -1.353101000000000
C      -5.203965000000000      0.102058000000000     -2.205394000000000
C      -5.412834000000000     -1.053796000000000     -2.953928000000000
C      -4.509145000000000     -2.107895000000000     -2.859805000000000
C      -3.396225000000000     -2.002436000000000     -2.029548000000000
C       3.664409000000000     -1.856529000000000     -0.110883000000000
C       3.999338000000000     -2.579731000000000     -1.260710000000000
C       5.238629000000000     -3.205223000000000     -1.366355000000000
C       6.153352000000000     -3.123968000000000     -0.319565000000000
C       5.829135000000000     -2.406107000000000      0.829028000000000
C       4.593967000000000     -1.770928000000000      0.931991000000000
C       1.797826000000000     -0.669971000000000      1.724053000000000
C       1.217246000000000     -0.346984000000000      4.453915000000000
C       1.234732000000000      0.755053000000000      3.604896000000000
C       1.531962000000000      0.598121000000000      2.250071000000000
H      -0.877903000000000     -0.689015000000000      2.644570000000000
H      -1.651502000000000     -1.704274000000000      4.750970000000000
H       1.974688000000000     -2.767406000000000      2.193475000000000
H       1.485207000000000     -2.482602000000000      4.593727000000000
C      -2.475918000000000     -1.524157000000000      1.455218000000000
C      -1.771475000000000     -1.309843000000000      2.647812000000000
C      -2.210252000000000     -1.881275000000000      3.836471000000000
C      -3.351691000000000     -2.683129000000000      3.847090000000000
C       1.772210000000000     -1.775348000000000      2.588326000000000
C       1.494568000000000     -1.614944000000000      3.941000000000000
H      -3.273172000000000      0.979969000000000      1.757913000000000
H      -1.463284000000000      4.787403000000000      0.972955000000000
O      -3.221461000000000      3.641070000000000      2.335605000000000
H       3.170773000000000      4.538565000000000     -0.762965000000000
H       4.664258000000000      0.554219000000000     -0.301843000000000
O       5.363089000000000      2.953319000000000     -0.522145000000000
C      -2.532098000000000      1.580625000000000      1.242672000000000
C      -1.653688000000000      0.950844000000000      0.346204000000000
C      -0.701185000000000      1.734832000000000     -0.285277000000000
C      -0.612332000000000      3.123675000000000     -0.118744000000000
C      -1.484692000000000      3.721026000000000      0.775675000000000
C      -2.433070000000000      2.950963000000000      1.468342000000000
C       1.504955000000000      1.604351000000000     -0.918284000000000
C       1.695644000000000      2.982133000000000     -0.909841000000000
C       2.996779000000000      3.469856000000000     -0.772239000000000
C       4.061034000000000      2.576282000000000     -0.627785000000000
C       3.821071000000000      1.202603000000000     -0.516959000000000
C       2.528606000000000      0.699222000000000     -0.626273000000000
C       0.434089000000000      3.844411000000000     -0.974097000000000
O       0.226947000000000      1.116216000000000     -1.086828000000000
P      -1.756632000000000     -0.838492000000000     -0.089710000000000
P       2.037075000000000     -1.001553000000000     -0.079259000000000
C       0.684929000000000      5.269637000000000     -0.486698000000000
H       1.412595000000000      5.771614000000000     -1.131149000000000
H      -0.238966000000000      5.853374000000000     -0.532867000000000
H       1.057670000000000      5.285376000000000      0.542616000000000
C      -0.074000000000000      3.889320000000000     -2.432405000000000
H      -1.004288000000000      4.463762000000000     -2.487276000000000
H       0.674674000000000      4.368978000000000     -3.071184000000000
H      -0.262119000000000      2.883280000000000     -2.816012000000000
H       0.992449000000000     -0.221329000000000      5.508755000000000
H      -3.691869000000000     -3.134596000000000      4.773932000000000
H       7.116181000000000     -3.619289000000000     -0.397779000000000
H      -6.275016000000000     -1.129451000000000     -3.609462000000000
Rh      0.161486000000000     -2.206503000000000     -0.984741000000000
H       1.181447000000000     -3.178475000000000     -1.617445000000000
C      -0.110304000000000     -1.583788000000000     -2.778842000000000
O      -0.210210000000000     -1.276921000000000     -3.878818000000000
C      -4.169648000000000      2.900528000000000      3.072017000000000
H      -4.673034000000000      3.614867000000000      3.723022000000000
H      -4.906359000000000      2.427082000000000      2.411350000000000
H      -3.685340000000000      2.126389000000000      3.679937000000000
C       5.651499000000000      4.330515000000000     -0.586386000000000
H       5.319479000000000      4.764112000000000     -1.537868000000000
H       5.182709000000000      4.877436000000000      0.241337000000000
H       6.734912000000000      4.417456000000000     -0.507604000000000
C       0.009407000000000     -3.734406000000000      0.542930000000000
C      -0.938887000000000     -3.971910000000000     -0.481115000000000
C      -0.784239000000000     -5.071438000000000     -1.494246000000000
O      -1.541115000000000     -6.244797000000000     -1.107207000000000
C      -2.858458000000000     -6.179484000000000     -1.327955000000000
C      -3.552433000000000     -7.429365000000000     -0.848972000000000
O      -3.416210000000000     -5.235345000000000     -1.840457000000000
H       0.909305000000000     -4.346412000000000      0.585793000000000
H      -0.326231000000000     -3.340307000000000      1.500420000000000
H      -1.980754000000000     -3.741469000000000     -0.262118000000000
H       0.251995000000000     -5.410068000000000     -1.550720000000000
H      -1.124811000000000     -4.766184000000000     -2.486859000000000
H      -3.445526000000000     -7.507844000000000      0.236301000000000
H      -3.082992000000000     -8.310779999999999     -1.291703000000000
H      -4.606924000000000     -7.384208000000000     -1.116920000000000
