101

H      -6.550951000000000      0.619061000000000     -0.917364000000000
H      -4.307113000000000      0.629856000000000      0.119493000000000
H      -1.155312000000000      2.127085000000000     -1.642712000000000
H      -1.166879000000000      4.356574000000000     -0.637658000000000
H      -2.109594000000000      2.640345000000000      3.183350000000000
H      -2.132938000000000      0.380340000000000      2.162140000000000
H       2.101233000000000      2.118807000000000     -2.135489000000000
H       1.993010000000000      4.471641000000000     -1.347022000000000
H       1.535655000000000      3.084777000000000      2.691052000000000
H       1.714488000000000      0.771825000000000      1.928948000000000
H       6.718753000000000      1.090770000000000     -1.474116000000000
H       4.474624000000000      1.200767000000000     -0.454528000000000
C      -5.716696000000000      0.152120000000000     -1.431998000000000
C      -4.454636000000000      0.159407000000000     -0.849574000000000
C      -1.655026000000000      1.088240000000000      0.176749000000000
C      -1.381918000000000      2.226191000000000     -0.583196000000000
C      -1.392562000000000      3.497401000000000     -0.017278000000000
C      -1.655420000000000      3.638219000000000      1.346090000000000
C      -1.909196000000000      2.505829000000000      2.125428000000000
C      -1.913830000000000      1.246629000000000      1.543783000000000
C       1.927332000000000      1.268127000000000     -0.155981000000000
C       1.990843000000000      2.330641000000000     -1.073484000000000
C       1.931878000000000      3.644669000000000     -0.646999000000000
C       1.768471000000000      3.930513000000000      0.714474000000000
C       1.680632000000000      2.889442000000000      1.635286000000000
C       1.769131000000000      1.568061000000000      1.193087000000000
C       3.669089000000000     -0.414370000000000     -1.635799000000000
C       6.225522000000000     -0.551368000000000     -2.777434000000000
C       5.947036000000000      0.398916000000000     -1.797337000000000
C       4.679365000000000      0.464236000000000     -1.225942000000000
H      -2.739621000000000     -1.486809000000000     -3.285149000000000
H      -4.974028000000000     -1.535867000000000     -4.291057000000000
H       3.182956000000000     -2.053456000000000     -2.939731000000000
H       5.439978000000000     -2.180507000000000     -3.945688000000000
C      -3.368657000000000     -0.435475000000000     -1.506715000000000
C      -3.568026000000000     -1.026774000000000     -2.756750000000000
C      -4.838086000000000     -1.045881000000000     -3.332769000000000
C      -5.910451000000000     -0.455590000000000     -2.673507000000000
C       3.959668000000000     -1.366399000000000     -2.617615000000000
C       5.230968000000000     -1.436845000000000     -3.182968000000000
H      -3.984970000000000     -2.396034000000000      0.106520000000000
H      -2.163313000000000     -4.448571000000000      3.407458000000000
H      -4.063739000000000     -4.129372000000000      1.874023000000000
H       2.848213000000000     -4.088897000000000      3.507057000000000
H       4.459717000000000     -1.912346000000000      0.187570000000000
H       4.733869000000000     -3.537314000000000      2.018131000000000
C      -3.143861000000000     -2.524899000000000      0.781029000000000
C      -2.011788000000000     -1.720748000000000      0.636196000000000
C      -0.953273000000000     -1.934188000000000      1.517943000000000
C      -0.966220000000000     -2.887312000000000      2.532856000000000
C      -2.108352000000000     -3.681166000000000      2.642253000000000
C      -3.184395000000000     -3.501655000000000      1.774793000000000
C       1.365077000000000     -1.797191000000000      1.523900000000000
C       1.479524000000000     -2.723010000000000      2.560719000000000
C       2.712338000000000     -3.353225000000000      2.721248000000000
C       3.777022000000000     -3.045249000000000      1.877830000000000
C       3.624450000000000     -2.120743000000000      0.847668000000000
C       2.397545000000000     -1.481822000000000      0.639481000000000
C       0.254055000000000     -2.932690000000000      3.448015000000000
O       0.163344000000000     -1.151976000000000      1.331203000000000
P      -1.712700000000000     -0.513565000000000     -0.711008000000000
P       2.007965000000000     -0.433540000000000     -0.833960000000000
C       0.331201000000000     -4.236433000000000      4.240037000000000
H      -0.554400000000000     -4.351534000000000      4.871543000000000
H       0.405162000000000     -5.104998000000000      3.578003000000000
H       1.198217000000000     -4.229058000000000      4.906618000000000
C       0.159644000000000     -1.744857000000000      4.432699000000000
H      -0.731665000000000     -1.846864000000000      5.060607000000000
H       1.045019000000000     -1.718997000000000      5.076379000000000
H       0.095418000000000     -0.794305000000000      3.893375000000000
H       7.214199000000000     -0.600239000000000     -3.223238000000000
H      -6.899026000000000     -0.466292000000000     -3.122576000000000
O       1.690465000000000      5.249457000000000      1.038154000000000
O      -1.671661000000000      4.829721000000000      2.001825000000000
Rh      0.147580000000000     -1.146127000000000     -2.188518000000000
H       1.196473000000000     -1.595892000000000     -3.241859000000000
C      -0.266199000000000      0.172726000000000     -3.478688000000000
O      -0.458067000000000      0.952186000000000     -4.302160000000000
C       1.555735000000000      5.573416000000000      2.407739000000000
H       2.406716000000000      5.195447000000000      2.986720000000000
H       1.539741000000000      6.662691000000000      2.458548000000000
H       0.621259000000000      5.172589000000000      2.818418000000000
C      -1.544153000000000      6.001739000000000      1.219777000000000
H      -1.640820000000000      6.837199000000000      1.913980000000000
H      -0.566819000000000      6.044756000000000      0.725394000000000
H      -2.339939000000000      6.058612000000000      0.467696000000000
C       0.226630000000000     -3.237478000000000     -1.534634000000000
C      -0.781413000000000     -3.083311000000000     -2.505531000000000
C      -0.619563000000000     -3.556488000000000     -3.923506000000000
O      -1.249322000000000     -4.846118000000000     -4.113696000000000
C      -2.577064000000000     -4.818813000000000     -4.283930000000000
C      -3.133241000000000     -6.211502000000000     -4.437946000000000
O      -3.237126000000000     -3.805380000000000     -4.306453000000000
H       1.180940000000000     -3.680745000000000     -1.811762000000000
H      -0.039414000000000     -3.351503000000000     -0.485854000000000
H      -1.817562000000000     -3.064955000000000     -2.168374000000000
H       0.433725000000000     -3.717190000000000     -4.161816000000000
H      -1.055652000000000     -2.859822000000000     -4.642680000000000
H      -2.959861000000000     -6.774495000000000     -3.516992000000000
H      -2.615165000000000     -6.732848000000000     -5.246169000000000
H      -4.200804000000000     -6.154641000000000     -4.644714000000000
