113

H       5.193459000000000     -2.420746000000000     -3.357809000000000
H       2.973127000000000     -1.927216000000000     -2.399243000000000
H       2.872370000000000     -3.210934000000000      2.078589000000000
H       3.077039000000000     -3.286197000000000      4.527217000000000
H       1.790007000000000      0.805234000000000      4.763410000000000
H       1.574333000000000      0.887041000000000      2.315401000000000
H      -2.080062000000000      1.126838000000000      1.919843000000000
H      -1.768315000000000      1.568972000000000      4.321138000000000
H      -0.579684000000000     -2.513086000000000      4.933555000000000
H      -0.856029000000000     -2.951478000000000      2.517411000000000
H      -5.412865000000000     -3.994767000000000     -1.781592000000000
H      -3.213505000000000     -2.869197000000000     -1.717086000000000
C       5.105017000000000     -2.181734000000000     -2.302776000000000
C       3.854587000000000     -1.898576000000000     -1.763134000000000
C       2.216913000000000     -1.151407000000000      2.015189000000000
C       2.623312000000000     -2.327563000000000      2.661199000000000
C       2.747150000000000     -2.370513000000000      4.046287000000000
C       2.457580000000000     -1.240620000000000      4.808395000000000
C       2.033515000000000     -0.075617000000000      4.177320000000000
C       1.908964000000000     -0.029846000000000      2.790620000000000
C      -1.502300000000000     -0.950929000000000      2.050648000000000
C      -1.744075000000000      0.324309000000000      2.569273000000000
C      -1.573785000000000      0.574178000000000      3.931589000000000
C      -1.172810000000000     -0.445409000000000      4.787541000000000
C      -0.915015000000000     -1.717044000000000      4.275997000000000
C      -1.065800000000000     -1.963758000000000      2.917219000000000
C      -3.373549000000000     -2.303621000000000      0.356366000000000
C      -5.858222000000000     -3.593154000000000      0.288292000000000
C      -5.069352000000000     -3.536360000000000     -0.859526000000000
C      -3.832430000000000     -2.901487000000000     -0.823997000000000
H       4.772162000000000     -1.346245000000000      1.464000000000000
H       6.985263000000000     -1.864545000000000      0.506584000000000
H      -3.836365000000000     -1.892722000000000      2.423235000000000
H      -6.017532000000000     -3.045763000000000      2.363545000000000
C       3.718756000000000     -1.592876000000000     -0.403739000000000
C       4.857821000000000     -1.580159000000000      0.406766000000000
C       6.109044000000000     -1.871979000000000     -0.134433000000000
C       6.235216000000000     -2.172379000000000     -1.487628000000000
C      -4.172999000000000     -2.358387000000000      1.501663000000000
C      -5.407417000000000     -3.005784000000000      1.466466000000000
H       4.062762000000000      0.991786000000000      0.566575000000000
H       2.044892000000000      4.481130000000000     -0.881859000000000
C       4.371473000000000      3.644505000000000      0.200517000000000
H      -3.053569000000000      3.918259000000000     -1.283948000000000
H      -4.402210000000000      0.104847000000000      0.138548000000000
C      -5.256922000000000      2.596850000000000     -0.463082000000000
C       3.187088000000000      1.446995000000000      0.111282000000000
C       2.078206000000000      0.651231000000000     -0.185311000000000
C       0.974594000000000      1.287455000000000     -0.744259000000000
C       0.912681000000000      2.659544000000000     -1.005792000000000
C       2.031402000000000      3.414881000000000     -0.677001000000000
C       3.178958000000000      2.823651000000000     -0.123040000000000
C      -1.335310000000000      1.049876000000000     -0.891816000000000
C      -1.538627000000000      2.394441000000000     -1.192954000000000
C      -2.832767000000000      2.884266000000000     -1.036899000000000
C      -3.880708000000000      2.059817000000000     -0.600616000000000
C      -3.609211000000000      0.725871000000000     -0.270540000000000
C      -2.321804000000000      0.204475000000000     -0.389826000000000
C      -0.337098000000000      3.178375000000000     -1.723475000000000
O      -0.094752000000000      0.501733000000000     -1.044268000000000
P       2.022086000000000     -1.167543000000000      0.185634000000000
P      -1.760027000000000     -1.422714000000000      0.285862000000000
C      -0.185179000000000      2.857893000000000     -3.228031000000000
H      -1.077088000000000      3.185414000000000     -3.772124000000000
H       0.689627000000000      3.375240000000000     -3.635258000000000
H      -0.057956000000000      1.782964000000000     -3.389505000000000
C      -0.515474000000000      4.685386000000000     -1.542438000000000
H      -0.624643000000000      4.953071000000000     -0.486570000000000
H       0.341463000000000      5.225365000000000     -1.954536000000000
H      -1.398240000000000      5.034033000000000     -2.085468000000000
H      -6.819888000000000     -4.096178000000000      0.263761000000000
H       7.209997000000000     -2.402972000000000     -1.905764000000000
H      -1.047430000000000     -0.249802000000000      5.848424000000000
H       2.557595000000000     -1.271282000000000      5.889075000000000
Rh      0.071168000000000     -2.661027000000000     -0.795462000000000
H      -1.039597000000000     -3.507111000000000     -1.414679000000000
C       0.268665000000000     -1.952914000000000     -2.552282000000000
O       0.337893000000000     -1.564981000000000     -3.631386000000000
C       4.235037000000000      4.932555000000000      0.730753000000000
C       5.660479000000000      3.143055000000000     -0.017964000000000
C       6.632683000000000      5.190667000000000      0.811445000000000
C       6.780713000000000      3.908887000000000      0.286760000000000
C       5.355374000000000      5.700046000000000      1.031983000000000
H       3.241690000000000      5.324312000000000      0.931677000000000
H       5.230113000000000      6.694574000000000      1.448814000000000
H       7.507140000000000      5.788831000000000      1.046904000000000
H       7.772315000000000      3.506649000000000      0.104060000000000
H       5.781886000000000      2.153990000000000     -0.451605000000000
C      -6.364198000000000      1.806197000000000     -0.792836000000000
C      -5.478956000000000      3.897866000000000      0.003238000000000
C      -7.864859000000000      3.600732000000000     -0.199065000000000
C      -6.770963000000000      4.396558000000000      0.132224000000000
C      -7.656455000000000      2.303235000000000     -0.660551000000000
H      -6.206367000000000      0.801822000000000     -1.175875000000000
H      -8.502530999999999      1.677542000000000     -0.927049000000000
H      -8.873281000000000      3.988838000000000     -0.097153000000000
H      -6.923849000000000      5.405648000000000      0.502267000000000
H      -4.631500000000000      4.513391000000000      0.292025000000000
C       0.248270000000000     -4.299911000000000      0.625362000000000
C       0.922753000000000     -4.628508000000000     -0.573613000000000
C       2.418585000000000     -4.730147000000000     -0.627377000000000
O       2.864581000000000     -6.035970000000000     -0.187674000000000
C       2.775713000000000     -7.020024000000000     -1.094760000000000
C       3.238346000000000     -8.332025000000000     -0.511132000000000
O       2.376559000000000     -6.867223000000000     -2.223426000000000
H       0.830349000000000     -4.045479000000000      1.510331000000000
H      -0.725114000000000     -4.737803000000000      0.834298000000000
H       0.431791000000000     -5.288086000000000     -1.284428000000000
H       2.900808000000000     -4.040296000000000      0.067010000000000
H       2.806860000000000     -4.555284000000000     -1.633607000000000
H       2.577465000000000     -8.616483000000001      0.311942000000000
H       4.246586000000000     -8.225053000000001     -0.104147000000000
H       3.220380000000000     -9.098015000000000     -1.284882000000000
