113

H      -0.850144000000000      4.649921000000000      1.334407000000000
H      -1.584551000000000      2.310301000000000      1.614259000000000
H      -3.145412000000000      1.959569000000000     -0.849561000000000
H      -5.589511000000000      2.145624000000000     -0.660612000000000
H      -5.676667000000000     -1.442253000000000      1.705663000000000
H      -3.258002000000000     -1.674190000000000      1.454752000000000
H       5.084294000000000     -0.528767000000000      1.509764000000000
H       6.791567000000000     -0.946744000000000      3.243485000000000
H       3.795736000000000     -2.699791000000000      5.773457000000000
H       2.086064000000000     -2.287513000000000      4.028211000000000
H       2.322087000000000      3.790794000000000      1.763438000000000
H       1.701256000000000      1.498085000000000      2.412625000000000
C      -0.572891000000000      3.907262000000000      0.592289000000000
C      -0.975564000000000      2.585721000000000      0.755540000000000
C      -3.018238000000000      0.131306000000000      0.293208000000000
C      -3.697179000000000      1.208776000000000     -0.291175000000000
C      -5.076869000000000      1.318643000000000     -0.177556000000000
C      -5.820224000000000      0.363315000000000      0.529184000000000
C      -5.140721000000000     -0.714451000000000      1.105263000000000
C      -3.759995000000000     -0.834772000000000      0.980723000000000
C       3.467619000000000     -1.392016000000000      2.649068000000000
C       4.801002000000000     -1.012458000000000      2.441304000000000
C       5.762448000000000     -1.245300000000000      3.417608000000000
C       5.403699000000000     -1.855004000000000      4.619957000000000
C       4.082593000000000     -2.229384000000000      4.838108000000000
C       3.118207000000000     -1.998598000000000      3.856962000000000
C       2.718293000000000      0.566112000000000      0.761297000000000
C       3.440874000000000      3.190954000000000      0.023175000000000
C       2.681916000000000      2.951830000000000      1.175233000000000
C       2.319404000000000      1.661798000000000      1.533637000000000
H       0.401059000000000      1.250695000000000     -2.052771000000000
H       1.125314000000000      3.592138000000000     -2.326731000000000
H       3.826804000000000     -0.035979000000000     -0.990489000000000
H       4.458434000000000      2.252049000000000     -1.625308000000000
C      -0.640854000000000      1.615231000000000     -0.199125000000000
C       0.124609000000000      1.988362000000000     -1.305544000000000
C       0.530182000000000      3.312141000000000     -1.462634000000000
C       0.182042000000000      4.274990000000000     -0.520289000000000
C       3.489346000000000      0.797609000000000     -0.380263000000000
C       3.844190000000000      2.093453000000000     -0.743161000000000
H      -3.270779000000000     -0.866104000000000     -1.978269000000000
H      -0.911045000000000     -3.044155000000000     -4.813071000000000
H      -3.094122000000000     -2.198310000000000     -4.043577000000000
H       3.542060000000000     -4.561734000000000     -2.997701000000000
H       4.293057000000000     -3.319931000000000      1.040488000000000
H       4.750805000000000     -4.826454000000000     -0.868926000000000
C      -2.297606000000000     -1.206151000000000     -2.315531000000000
C      -1.157209000000000     -0.907121000000000     -1.562939000000000
C       0.063774000000000     -1.380922000000000     -2.044747000000000
C       0.198939000000000     -2.147190000000000     -3.202626000000000
C      -0.963198000000000     -2.440606000000000     -3.912981000000000
C      -2.198210000000000     -1.965473000000000     -3.477795000000000
C       2.131381000000000     -2.064874000000000     -1.227491000000000
C       2.372787000000000     -2.881657000000000     -2.328047000000000
C       3.326708000000000     -3.888470000000000     -2.174562000000000
C       4.011127000000000     -4.039133000000000     -0.970365000000000
C       3.756579000000000     -3.190153000000000      0.105668000000000
C       2.795112000000000     -2.184451000000000     -0.006528000000000
C       1.613404000000000     -2.553420000000000     -3.610422000000000
O       1.185250000000000     -1.066940000000000     -1.313629000000000
P      -1.205103000000000     -0.106213000000000      0.100956000000000
P       2.195403000000000     -1.098390000000000      1.347551000000000
C       2.294653000000000     -1.331087000000000     -4.267683000000000
H       2.314162000000000     -0.478910000000000     -3.580364000000000
H       3.325903000000000     -1.577939000000000     -4.541111000000000
H       1.749745000000000     -1.036079000000000     -5.170467000000000
C       1.616090000000000     -3.720394000000000     -4.596128000000000
H       2.640608000000000     -3.977188000000000     -4.880004000000000
H       1.137294000000000     -4.607171000000000     -4.169119000000000
H       1.091484000000000     -3.446481000000000     -5.515854000000000
C       3.753657000000000      4.578121000000000     -0.394315000000000
H       0.512048000000000      5.302067000000000     -0.646757000000000
H       6.154037000000000     -2.032504000000000      5.384249000000000
C      -7.290339000000000      0.498209000000000      0.668396000000000
Rh     -0.119804000000000     -1.484348000000000      1.878205000000000
H       0.405860000000000     -2.456627000000000      2.963136000000000
C      -0.612925000000000     -3.076973000000000      0.969097000000000
O      -0.858822000000000     -4.070752000000000      0.449937000000000
C       3.769991000000000      4.930679000000000     -1.749842000000000
C       4.011306000000000      5.574878000000000      0.554793000000000
C       4.281693000000000      7.221293000000000     -1.189552000000000
C       4.272629000000000      6.883224000000000      0.161733000000000
C       4.031238000000000      6.238888000000000     -2.144447000000000
H       3.555905000000000      4.173763000000000     -2.499263000000000
H       4.031463000000000      6.492761000000000     -3.199983000000000
H       4.483920000000000      8.242564000000000     -1.496169000000000
H       4.477159000000000      7.639580000000000      0.913151000000000
H       4.029222000000000      5.314037000000000      1.608960000000000
C      -8.117348000000000     -0.631061000000000      0.642081000000000
C      -7.881758000000000      1.756623000000000      0.830433000000000
C     -10.073314999999999      0.752572000000000      0.930910000000000
C      -9.260755000000000      1.883331000000000      0.960460000000000
C      -9.496309000000000     -0.505162000000000      0.771839000000000
H      -7.674200000000000     -1.611955000000000      0.497096000000000
H     -10.122355000000001     -1.391533000000000      0.741955000000000
H     -11.149499000000000      0.850772000000000      1.032432000000000
H      -9.700737999999999      2.866801000000000      1.093843000000000
H      -7.250755000000000      2.639343000000000      0.881312000000000
C      -0.327105000000000     -0.042828000000000      3.516537000000000
C      -1.485981000000000     -0.840967000000000      3.420237000000000
C      -1.795570000000000     -1.936689000000000      4.403613000000000
O      -2.753415000000000     -1.483659000000000      5.389966000000000
C      -4.033068000000000     -1.497937000000000      4.995425000000000
C      -4.942532000000000     -0.974964000000000      6.077649000000000
O      -4.401940000000000     -1.880559000000000      3.908699000000000
H       0.402590000000000     -0.235962000000000      4.300911000000000
H      -0.351567000000000      0.984943000000000      3.162993000000000
H      -2.374234000000000     -0.402506000000000      2.971820000000000
H      -0.907166000000000     -2.211656000000000      4.976533000000000
H      -2.207857000000000     -2.821753000000000      3.915787000000000
H      -4.694974000000000      0.069176000000000      6.286224000000000
H      -4.789393000000000     -1.541411000000000      6.999196000000000
H      -5.977965000000000     -1.054002000000000      5.750047000000000
