93

H       2.533100000000000      3.257714000000000      2.583033000000000
H       2.349737000000000      0.823063000000000      2.222360000000000
H       2.617748000000000     -2.975192000000000     -1.868003000000000
H       4.729222000000000     -3.405012000000000     -3.044104000000000
H       6.274894000000000      0.366995000000000     -1.675538000000000
H       4.144653000000000      0.819029000000000     -0.507149000000000
H      -4.498912000000000      1.006588000000000      0.097643000000000
H      -6.824923000000000      0.722999000000000     -0.688911000000000
H      -5.820176000000000     -3.124308000000000     -2.301917000000000
H      -3.482944000000000     -2.838877000000000     -1.527236000000000
H      -1.186662000000000      3.840528000000000      1.826843000000000
H      -1.451593000000000      1.389920000000000      2.046503000000000
C       2.211679000000000      2.870855000000000      1.622468000000000
C       2.099198000000000      1.499897000000000      1.411245000000000
C       3.226042000000000     -1.046510000000000     -1.097345000000000
C       3.415795000000000     -2.239368000000000     -1.805003000000000
C       4.613206000000000     -2.495478000000000     -2.467313000000000
C       5.628667000000000     -1.548676000000000     -2.408943000000000
C       5.469482000000000     -0.358027000000000     -1.706723000000000
C       4.266405000000000     -0.111450000000000     -1.053462000000000
C      -3.818895000000000     -0.895446000000000     -0.667649000000000
C      -4.776212000000000      0.100551000000000     -0.433724000000000
C      -6.087686000000000     -0.051148000000000     -0.868843000000000
C      -6.448607000000000     -1.215798000000000     -1.540571000000000
C      -5.522245000000000     -2.222902000000000     -1.778637000000000
C      -4.210255000000000     -2.055170000000000     -1.340736000000000
C      -1.910256000000000      1.081395000000000     -0.040453000000000
C      -1.641915000000000      3.843796000000000     -0.271830000000000
C      -1.446307000000000      3.238399000000000      0.962877000000000
C      -1.587952000000000      1.855592000000000      1.075224000000000
H       1.064037000000000      1.528693000000000     -1.821884000000000
H       1.273570000000000      3.970671000000000     -1.455922000000000
H      -2.324671000000000      1.124623000000000     -2.158132000000000
H      -2.100548000000000      3.582181000000000     -2.357354000000000
C       1.698625000000000      0.997499000000000      0.170441000000000
C       1.390753000000000      1.899873000000000     -0.853671000000000
C       1.510455000000000      3.272555000000000     -0.660072000000000
C       1.928717000000000      3.745378000000000      0.580253000000000
C      -2.075506000000000      1.715094000000000     -1.279719000000000
C      -1.954491000000000      3.092582000000000     -1.400972000000000
H       3.972733000000000     -2.358574000000000      0.994233000000000
H       2.437598000000000     -3.220477000000000      4.906157000000000
H       4.209061000000000     -3.432494000000000      3.210295000000000
H      -2.568129000000000     -2.637845000000000      5.354173000000000
H      -4.485367000000000     -1.622546000000000      1.660863000000000
H      -4.592610000000000     -2.511231000000000      3.956686000000000
C       3.182473000000000     -2.260781000000000      1.731972000000000
C       2.024704000000000     -1.546867000000000      1.419711000000000
C       1.041672000000000     -1.449736000000000      2.402899000000000
C       1.151082000000000     -2.015022000000000      3.670420000000000
C       2.309427000000000     -2.744532000000000      3.939654000000000
C       3.313377000000000     -2.865209000000000      2.980840000000000
C      -1.264813000000000     -1.219160000000000      2.587398000000000
C      -1.281700000000000     -1.742250000000000      3.879014000000000
C      -2.503363000000000     -2.213264000000000      4.357961000000000
C      -3.648117000000000     -2.146473000000000      3.566934000000000
C      -3.590120000000000     -1.634767000000000      2.273407000000000
C      -2.379384000000000     -1.170370000000000      1.749520000000000
C       0.028831000000000     -1.717578000000000      4.662157000000000
O      -0.084813000000000     -0.732504000000000      2.070305000000000
P       1.632911000000000     -0.800287000000000     -0.213168000000000
P      -2.097601000000000     -0.746796000000000     -0.023642000000000
C       0.241158000000000     -0.285087000000000      5.203343000000000
H       0.258712000000000      0.443010000000000      4.385713000000000
H      -0.570239000000000     -0.016932000000000      5.887713000000000
H       1.192825000000000     -0.223526000000000      5.741372000000000
C       0.019022000000000     -2.700845000000000      5.831376000000000
H      -0.131009000000000     -3.729598000000000      5.489371000000000
H       0.962301000000000     -2.648082000000000      6.382161000000000
H      -0.774776000000000     -2.446723000000000      6.539284000000000
Br     -1.458291000000000      5.717654000000000     -0.440124000000000
Br      2.128415000000000      5.603665000000000      0.862291000000000
Br     -8.231114000000000     -1.428292000000000     -2.135037000000000
Br      7.257696000000000     -1.875372000000000     -3.315648000000000
Rh     -0.373907000000000     -1.950144000000000     -1.188896000000000
H      -1.495828000000000     -2.828292000000000     -1.782672000000000
C       0.040401000000000     -3.520422000000000     -0.187191000000000
O       0.209239000000000     -4.496443000000000      0.390723000000000
C      -0.532204000000000     -0.876515000000000     -3.084862000000000
C       0.381781000000000     -1.944895000000000     -3.205154000000000
C       0.049727000000000     -3.210281000000000     -3.949449000000000
O       0.621251000000000     -3.187471000000000     -5.277650000000000
C       1.921893000000000     -3.499026000000000     -5.348177000000000
C       2.426888000000000     -3.417174000000000     -6.765133000000000
O       2.595406000000000     -3.802436000000000     -4.389586000000000
H      -1.532035000000000     -0.975972000000000     -3.504726000000000
H      -0.167439000000000      0.145448000000000     -3.024277000000000
H       1.443818000000000     -1.711614000000000     -3.204445000000000
H      -1.027411000000000     -3.301535000000000     -4.105175000000000
H       0.424459000000000     -4.097821000000000     -3.436151000000000
H       2.342826000000000     -2.386817000000000     -7.120646000000000
H       1.812327000000000     -4.042864000000000     -7.416462000000000
H       3.466619000000000     -3.738710000000000     -6.798711000000000
