109

H       1.457462000000000      4.549173000000000     -1.187209000000000
H       1.628705000000000      2.205890000000000     -1.787748000000000
H       4.268055000000000      1.483925000000000     -0.038954000000000
H       6.570046000000000      1.237052000000000     -0.854403000000000
H       5.465677000000000     -2.365974000000000     -2.910647000000000
H       3.147131000000000     -2.120674000000000     -2.095017000000000
H      -4.265984000000000      0.858319000000000      0.390918000000000
H      -6.427261000000000      1.416329000000000     -0.622651000000000
H      -5.184311000000000     -0.421388000000000     -4.299063000000000
H      -3.006200000000000     -0.989728000000000     -3.276657000000000
H      -1.456671000000000      1.017008000000000      4.096936000000000
H      -1.661290000000000     -0.731240000000000      2.388798000000000
C       1.516609000000000      3.813061000000000     -0.391351000000000
C       1.617845000000000      2.475998000000000     -0.734942000000000
C       3.546126000000000     -0.306869000000000     -1.003029000000000
C       4.524301000000000      0.636120000000000     -0.668512000000000
C       5.824485000000000      0.500600000000000     -1.138646000000000
C       6.186071000000000     -0.576687000000000     -1.957072000000000
C       5.204765000000000     -1.523018000000000     -2.276078000000000
C       3.901006000000000     -1.387351000000000     -1.816035000000000
C      -3.480018000000000     -0.110502000000000     -1.372408000000000
C      -4.460351000000000      0.575113000000000     -0.639735000000000
C      -5.680274000000000      0.899148000000000     -1.217052000000000
C      -5.960928000000000      0.556225000000000     -2.547432000000000
C      -4.985893000000000     -0.143327000000000     -3.267300000000000
C      -3.760620000000000     -0.468838000000000     -2.693550000000000
C      -1.720755000000000      0.653286000000000      0.729023000000000
C      -1.502930000000000      2.655724000000000      2.709292000000000
C      -1.521560000000000      1.302232000000000      3.049747000000000
C      -1.629509000000000      0.308831000000000      2.077681000000000
H       1.760003000000000      1.108985000000000      2.377202000000000
H       1.591711000000000      3.492935000000000      2.984141000000000
H      -1.765793000000000      2.309261000000000     -0.664621000000000
H      -1.569623000000000      4.038200000000000      1.044432000000000
C       1.713552000000000      1.481428000000000      0.251331000000000
C       1.708266000000000      1.858420000000000      1.592965000000000
C       1.615386000000000      3.206863000000000      1.935399000000000
C       1.503785000000000      4.199718000000000      0.957535000000000
C      -1.684065000000000      2.013259000000000      0.378786000000000
C      -1.586799000000000      2.995619000000000      1.349348000000000
H       3.758754000000000     -0.427097000000000      1.902601000000000
H       2.133553000000000     -3.674441000000000      4.187502000000000
H       3.833217000000000     -1.919061000000000      3.877141000000000
H      -2.713914000000000     -4.755297000000000      3.131866000000000
H      -4.423173000000000     -1.904354000000000      0.419309000000000
H      -4.686489000000000     -3.672740000000000      2.132635000000000
C       2.992947000000000     -1.186135000000000      2.042078000000000
C       1.962449000000000     -1.300849000000000      1.101286000000000
C       1.033832000000000     -2.320461000000000      1.300078000000000
C       1.058422000000000     -3.202153000000000      2.385106000000000
C       2.073813000000000     -3.024733000000000      3.320238000000000
C       3.037669000000000     -2.027994000000000      3.147522000000000
C      -1.195260000000000     -2.788434000000000      0.855755000000000
C      -1.294426000000000     -3.727816000000000      1.880212000000000
C      -2.577212000000000     -4.031801000000000      2.334625000000000
C      -3.695521000000000     -3.409988000000000      1.777485000000000
C      -3.550862000000000     -2.426143000000000      0.801784000000000
C      -2.279143000000000     -2.079490000000000      0.341753000000000
C       0.014865000000000     -4.323013000000000      2.396878000000000
O       0.042842000000000     -2.463383000000000      0.364185000000000
P       1.811765000000000     -0.227648000000000     -0.395128000000000
P      -1.860184000000000     -0.575138000000000     -0.638740000000000
C      -0.149204000000000     -4.937621000000000      3.786113000000000
H       0.794012000000000     -5.375635000000000      4.124417000000000
H      -0.473695000000000     -4.193304000000000      4.520387000000000
H      -0.883261000000000     -5.747922000000000      3.760928000000000
C       0.476635000000000     -5.417178000000000      1.407943000000000
H      -0.264950000000000     -6.221597000000000      1.366935000000000
H       0.599532000000000     -5.008687000000000      0.400795000000000
H       1.435020000000000     -5.835059000000000      1.732689000000000
C      -1.380247000000000      3.659974000000000      3.778399000000000
C       1.348465000000000      5.604932000000000      1.371105000000000
C      -7.230142000000000      0.907829000000000     -3.208265000000000
C       7.548251000000000     -0.746716000000000     -2.492443000000000
Rh      0.116550000000000     -0.734857000000000     -2.082468000000000
H      -0.924206000000000     -1.109772000000000     -3.213722000000000
C       1.191340000000000     -0.564646000000000     -3.547247000000000
O       1.802312000000000     -0.381990000000000     -4.508595000000000
C      -1.192253000000000      4.971768000000000      3.617635000000000
H      -1.439655000000000      3.260325000000000      4.790215000000000
H      -1.104918000000000      5.435697000000000      2.639735000000000
H      -1.112528000000000      5.629385000000000      4.476980000000000
C       0.893688000000000      6.599174000000000      0.604745000000000
H       1.607315000000000      5.815569000000000      2.408419000000000
H       0.590988000000000      6.441867000000000     -0.426507000000000
H       0.807568000000000      7.609081000000000      0.991046000000000
C      -8.131265000000001      1.785225000000000     -2.764876000000000
H      -7.412473000000000      0.401091000000000     -4.154563000000000
H      -7.994442000000000      2.346056000000000     -1.845028000000000
H      -9.040101000000000      1.981550000000000     -3.322816000000000
C       8.511675000000000      0.175357000000000     -2.508073000000000
H       7.753043000000000     -1.724566000000000     -2.925983000000000
H       8.363011000000000      1.179114000000000     -2.121234000000000
H       9.487584999999999     -0.044412000000000     -2.926746000000000
C      -3.309978000000000      3.521498000000000     -2.866667000000000
C      -2.005765000000000      3.521486000000000     -3.131427000000000
C      -1.238953000000000      2.255115000000000     -3.359619000000000
O      -0.510498000000000      2.264444000000000     -4.598227000000000
C       0.653436000000000      2.927277000000000     -4.592437000000000
C       1.384467000000000      2.759212000000000     -5.896254000000000
O       1.057278000000000      3.560869000000000     -3.642560000000000
H      -3.882512000000000      2.595095000000000     -2.852824000000000
H      -3.850798000000000      4.437905000000000     -2.651588000000000
H      -1.430508000000000      4.445244000000000     -3.142311000000000
H      -1.908587000000000      1.396225000000000     -3.428823000000000
H      -0.526894000000000      2.073973000000000     -2.546125000000000
H       0.699885000000000      2.895360000000000     -6.735646000000000
H       1.777247000000000      1.739322000000000     -5.941539000000000
H       2.205259000000000      3.473215000000000     -5.945905000000000
