101

H       2.238958000000000      4.790323000000000     -0.786207000000000
H       2.238112000000000      2.474070000000000     -1.667401000000000
H       4.380061000000000      1.324387000000000     -0.026916000000000
H       6.619780000000000      1.089831000000000     -1.092418000000000
H       5.054234000000000     -1.925487000000000     -3.715963000000000
H       2.843691000000000     -1.730863000000000     -2.650314000000000
H      -2.988260000000000     -0.735490000000000     -3.220396000000000
H      -5.217918000000000     -0.416359000000000     -4.277053000000000
H      -6.734933000000000      1.227133000000000     -0.622385000000000
H      -4.500772000000000      0.922725000000000      0.443919000000000
H      -1.080146000000000      4.663301000000000     -0.387820000000000
H      -1.262156000000000      2.411343000000000     -1.455191000000000
C       2.044200000000000      3.952989000000000     -0.119975000000000
C       2.031785000000000      2.653517000000000     -0.614440000000000
C       3.456845000000000     -0.184188000000000     -1.272215000000000
C       4.528326000000000      0.611664000000000     -0.832663000000000
C       5.778711000000000      0.485603000000000     -1.418271000000000
C       5.972482000000000     -0.433932000000000     -2.454388000000000
C       4.918280000000000     -1.231211000000000     -2.891582000000000
C       3.664391000000000     -1.113501000000000     -2.295683000000000
C      -3.599708000000000      0.061358000000000     -1.320992000000000
C      -3.807164000000000     -0.309070000000000     -2.650335000000000
C      -5.057519000000000     -0.129152000000000     -3.240420000000000
C      -6.103514000000000      0.420284000000000     -2.505351000000000
C      -5.903665000000000      0.797769000000000     -1.172985000000000
C      -4.659903000000000      0.622870000000000     -0.588725000000000
C      -1.818751000000000      1.419149000000000      0.373956000000000
C      -1.607429000000000      3.938399000000000      1.557243000000000
C      -1.361763000000000      3.788011000000000      0.189538000000000
C      -1.463174000000000      2.537157000000000     -0.394581000000000
H       1.360270000000000      0.986626000000000      2.278842000000000
H       1.380720000000000      3.318461000000000      3.142729000000000
H      -2.347951000000000      0.718320000000000      2.346670000000000
H      -2.150456000000000      2.957010000000000      3.392613000000000
C       1.799449000000000      1.570800000000000      0.246039000000000
C       1.547754000000000      1.813181000000000      1.601286000000000
C       1.559659000000000      3.112064000000000      2.091540000000000
C       1.815026000000000      4.185043000000000      1.236669000000000
C      -2.066972000000000      1.574942000000000      1.740419000000000
C      -1.962115000000000      2.833552000000000      2.328322000000000
H       4.164334000000000     -1.685121000000000      0.590017000000000
H       2.371869000000000     -3.925920000000000      3.767877000000000
H       4.328760000000000     -3.368625000000000      2.378776000000000
H      -2.666194000000000     -4.125158000000000      3.532004000000000
H      -4.340801000000000     -1.948495000000000      0.237875000000000
H      -4.526046000000000     -3.694323000000000      1.978010000000000
C       3.297071000000000     -1.898568000000000      1.205155000000000
C       2.089191000000000     -1.235551000000000      0.964737000000000
C       1.010003000000000     -1.559263000000000      1.788435000000000
C       1.066237000000000     -2.512730000000000      2.804702000000000
C       2.281205000000000     -3.167081000000000      2.997950000000000
C       3.387920000000000     -2.855275000000000      2.211762000000000
C      -1.314067000000000     -1.639374000000000      1.703434000000000
C      -1.385779000000000     -2.606006000000000      2.701770000000000
C      -2.563699000000000     -3.349789000000000      2.780187000000000
C      -3.616975000000000     -3.107367000000000      1.900798000000000
C      -3.515688000000000     -2.120726000000000      0.921732000000000
C      -2.344731000000000     -1.369531000000000      0.803213000000000
C      -0.192105000000000     -2.715217000000000      3.646332000000000
O      -0.168554000000000     -0.885963000000000      1.562697000000000
P       1.796414000000000     -0.119382000000000     -0.475406000000000
P      -1.946159000000000     -0.179734000000000     -0.535646000000000
C      -0.281163000000000     -1.555054000000000      4.664321000000000
H      -1.193178000000000     -1.649614000000000      5.262709000000000
H       0.584802000000000     -1.573682000000000      5.333848000000000
H      -0.302377000000000     -0.586849000000000      4.153314000000000
C      -0.173990000000000     -4.044416000000000      4.399201000000000
H       0.673364000000000     -4.082486000000000      5.089359000000000
H      -1.078744000000000     -4.152181000000000      5.003898000000000
H      -0.106978000000000     -4.894101000000000      3.712616000000000
C      -1.449460000000000      5.275529000000000      2.177415000000000
C       1.849382000000000      5.563882000000000      1.789396000000000
C      -7.434697000000000      0.608387000000000     -3.135239000000000
C       7.306546000000000     -0.555221000000000     -3.094045000000000
Rh     -0.103625000000000     -0.871353000000000     -1.908711000000000
H      -1.169693000000000     -1.491691000000000     -2.843858000000000
C       0.242767000000000     -2.682682000000000     -1.435728000000000
O       0.383091000000000     -3.787615000000000     -1.162853000000000
O      -1.081840000000000      6.252635000000000      1.566284000000000
H      -1.681672000000000      5.333407000000000      3.260009000000000
O       1.712031000000000      5.810733000000000      2.964306000000000
H       2.016842000000000      6.370934000000000      1.048508000000000
O      -8.392438000000000      1.069270000000000     -2.561865000000000
H      -7.502212000000000      0.289755000000000     -4.196212000000000
O       8.271421000000000      0.096265000000000     -2.770975000000000
H       7.368593000000000     -1.302872000000000     -3.911420000000000
C      -0.083592000000000      0.797074000000000     -3.329405000000000
C       0.814380000000000     -0.206428000000000     -3.747015000000000
C       0.521819000000000     -1.127408000000000     -4.900252000000000
O       1.177852000000000     -0.666924000000000     -6.104079000000000
C       2.480715000000000     -0.961418000000000     -6.198718000000000
C       3.069697000000000     -0.421586000000000     -7.476039000000000
O       3.095526000000000     -1.580203000000000     -5.359639000000000
H      -1.047621000000000      0.904740000000000     -3.823360000000000
H       0.303737000000000      1.712453000000000     -2.889007000000000
H       1.876972000000000     -0.035919000000000     -3.593617000000000
H      -0.543444000000000     -1.128082000000000     -5.141441000000000
H       0.854799000000000     -2.148378000000000     -4.703460000000000
H       2.990343000000000      0.668647000000000     -7.480893000000000
H       2.506002000000000     -0.797366000000000     -8.333102000000000
H       4.114248000000000     -0.720164000000000     -7.549150000000000
