97

H       4.507399000000000     -3.968279000000000      2.837525000000000
H       2.404899000000000     -3.056903000000000      1.895647000000000
H       2.384275000000000      1.473372000000000      2.299263000000000
H       2.749161000000000      3.902422000000000      2.031058000000000
H       1.988074000000000      3.557458000000000     -2.182467000000000
H       1.638400000000000      1.119410000000000     -1.928056000000000
H      -2.097711000000000      1.229643000000000     -2.312459000000000
H      -1.596364000000000      3.542589000000000     -3.016403000000000
H      -0.550747000000000      4.561300000000000      1.022919000000000
H      -1.020817000000000      2.231406000000000      1.730065000000000
H      -5.523048000000000     -0.595946000000000      3.879165000000000
H      -3.310741000000000     -1.055790000000000      2.860939000000000
C       4.492486000000000     -2.984497000000000      2.381068000000000
C       3.319073000000000     -2.470364000000000      1.846897000000000
C       1.997355000000000      1.123864000000000      0.200278000000000
C       2.290414000000000      1.924379000000000      1.314131000000000
C       2.502024000000000      3.287616000000000      1.172130000000000
C       2.400737000000000      3.872946000000000     -0.095285000000000
C       2.077505000000000      3.090242000000000     -1.207113000000000
C       1.877798000000000      1.721548000000000     -1.056951000000000
C      -1.596127000000000      1.568571000000000     -0.238671000000000
C      -1.748535000000000      1.947114000000000     -1.576084000000000
C      -1.474746000000000      3.248773000000000     -1.979036000000000
C      -1.049883000000000      4.191666000000000     -1.039498000000000
C      -0.889379000000000      3.824784000000000      0.301451000000000
C      -1.153771000000000      2.518713000000000      0.690533000000000
C      -3.630526000000000      0.235648000000000      1.169367000000000
C      -6.127137000000000      0.754419000000000      2.316516000000000
C      -5.240578000000000     -0.121277000000000      2.945785000000000
C      -3.999003000000000     -0.375609000000000      2.370186000000000
H       4.482584000000000      0.529945000000000      0.740849000000000
H       6.566725000000000     -0.365453000000000      1.720399000000000
H      -4.257362000000000      1.602533000000000     -0.382105000000000
H      -6.466166000000000      2.054795000000000      0.632004000000000
C       3.295935000000000     -1.198680000000000      1.260240000000000
C       4.474581000000000     -0.448182000000000      1.210828000000000
C       5.652941000000000     -0.948761000000000      1.754076000000000
C       5.662432000000000     -2.217937000000000      2.339635000000000
C      -4.530205000000000      1.115385000000000      0.549912000000000
C      -5.771057000000000      1.374989000000000      1.112713000000000
H       3.931522000000000     -2.211405000000000     -0.883898000000000
H       2.010894000000000     -3.508228000000000     -4.478676000000000
H       3.972854000000000     -3.474539000000000     -2.988384000000000
H      -3.044355000000000     -3.116448000000000     -4.342651000000000
H      -4.570960000000000     -1.371825000000000     -0.732783000000000
H      -4.900937000000000     -2.726709000000000     -2.775769000000000
C       3.065420000000000     -2.184850000000000     -1.535185000000000
C       1.928276000000000     -1.456085000000000     -1.165896000000000
C       0.857395000000000     -1.458923000000000     -2.061035000000000
C       0.839915000000000     -2.182930000000000     -3.253804000000000
C       1.979072000000000     -2.920330000000000     -3.567614000000000
C       3.087351000000000     -2.906811000000000     -2.723829000000000
C      -1.459033000000000     -1.242323000000000     -2.038329000000000
C      -1.610185000000000     -1.979081000000000     -3.207623000000000
C      -2.873384000000000     -2.520071000000000     -3.452729000000000
C      -3.926098000000000     -2.299418000000000     -2.566401000000000
C      -3.742777000000000     -1.534375000000000     -1.415593000000000
C      -2.487131000000000     -0.996330000000000     -1.130089000000000
C      -0.401408000000000     -2.059873000000000     -4.135786000000000
O      -0.233206000000000     -0.694685000000000     -1.724425000000000
P       1.706708000000000     -0.664296000000000      0.491429000000000
P      -1.987741000000000     -0.121510000000000      0.401080000000000
C      -0.517483000000000     -3.213449000000000     -5.130881000000000
H       0.342620000000000     -3.226873000000000     -5.805864000000000
H      -0.579628000000000     -4.179511000000000     -4.620452000000000
H      -1.406062000000000     -3.088929000000000     -5.755831000000000
C      -0.307959000000000     -0.725326000000000     -4.910968000000000
H       0.572117000000000     -0.728258000000000     -5.562035000000000
H      -1.202448000000000     -0.584671000000000     -5.526345000000000
H      -0.225151000000000      0.122235000000000     -4.222335000000000
C      -7.412931000000000      1.022445000000000      2.906055000000000
C       6.882794000000000     -2.738753000000000      2.897924000000000
C      -0.757483000000000      5.534197000000000     -1.466871000000000
C       2.623980000000000      5.287124000000000     -0.240718000000000
Rh     -0.390227000000000     -1.348783000000000      1.696353000000000
H      -1.627097000000000     -1.967143000000000      2.374481000000000
C      -0.223641000000000     -3.090631000000000      0.974629000000000
O      -0.193001000000000     -4.141140000000000      0.513553000000000
N      -8.447329000000000      1.237427000000000      3.377115000000000
N       7.865187000000000     -3.156505000000000      3.343352000000000
N      -0.522227000000000      6.607402000000000     -1.829713000000000
N       2.812489000000000      6.424264000000000     -0.339418000000000
C      -0.403090000000000      0.129504000000000      3.341668000000000
C       0.138244000000000     -1.068671000000000      3.830349000000000
C       1.587327000000000     -1.153866000000000      4.209491000000000
O       1.792623000000000     -0.656763000000000      5.549356000000000
C       1.474710000000000     -1.511303000000000      6.538871000000000
C       1.724954000000000     -0.890648000000000      7.888696000000000
O       1.047717000000000     -2.623619000000000      6.349912000000000
H       0.262237000000000      0.971011000000000      3.152141000000000
H      -1.429886000000000      0.405240000000000      3.567594000000000
H      -0.495656000000000     -1.745293000000000      4.395825000000000
H       2.206657000000000     -0.505016000000000      3.585773000000000
H       1.967284000000000     -2.176185000000000      4.162514000000000
H       1.100550000000000     -0.000901000000000      8.003671000000001
H       2.768177000000000     -0.574770000000000      7.964791000000000
H       1.491652000000000     -1.614913000000000      8.667408999999999
