101

H      -0.519713000000000     -4.470230000000000      2.161693000000000
H      -0.861407000000000     -3.121293000000000      0.128797000000000
H      -3.064492000000000     -0.296205000000000     -3.012839000000000
H      -5.209157000000000     -1.029368000000000     -3.918854000000000
H      -6.287628000000000     -2.644196000000000     -0.078370000000000
H      -4.112168000000000     -1.932223000000000      0.826398000000000
H       2.961721000000000     -0.267004000000000     -3.343042000000000
H       5.204304000000000     -0.641222000000000     -4.293126000000000
H       6.813156000000000     -1.013755000000000     -0.327344000000000
H       4.571279000000000     -0.646896000000000      0.614068000000000
H       2.573966000000000     -4.620160000000000      1.285292000000000
H       2.441410000000000     -2.925966000000000     -0.496508000000000
C      -0.923306000000000     -3.464104000000000      2.235975000000000
C      -1.113665000000000     -2.699944000000000      1.098693000000000
C      -3.422468000000000     -1.056149000000000     -1.019857000000000
C      -3.767917000000000     -0.800701000000000     -2.354260000000000
C      -4.992223000000000     -1.200393000000000     -2.868695000000000
C      -5.918198000000000     -1.867380000000000     -2.055253000000000
C      -5.581981000000000     -2.119369000000000     -0.717423000000000
C      -4.352468000000000     -1.721224000000000     -0.212004000000000
C       3.592619000000000     -0.422493000000000     -1.295911000000000
C       3.803514000000000     -0.426847000000000     -2.676746000000000
C       5.068436000000000     -0.633720000000000     -3.214792000000000
C       6.171314000000000     -0.844113000000000     -2.379876000000000
C       5.968755000000000     -0.842875000000000     -0.990273000000000
C       4.703148000000000     -0.639499000000000     -0.465335000000000
C       1.997730000000000     -1.286907000000000      0.832026000000000
C       2.148973000000000     -3.225810000000000      2.873147000000000
C       2.358131000000000     -3.584739000000000      1.538119000000000
C       2.271172000000000     -2.628931000000000      0.536135000000000
H      -2.332170000000000      0.120981000000000      2.532874000000000
H      -1.939326000000000     -1.208739000000000      4.562571000000000
H       1.580471000000000      0.092623000000000      2.438611000000000
H       1.683143000000000     -1.605226000000000      4.208531000000000
C      -1.613681000000000     -1.393512000000000      1.175464000000000
C      -1.927449000000000     -0.882946000000000      2.437300000000000
C      -1.714869000000000     -1.634763000000000      3.587519000000000
C      -1.184651000000000     -2.927060000000000      3.505419000000000
C       1.795281000000000     -0.936405000000000      2.168302000000000
C       1.869938000000000     -1.892149000000000      3.176130000000000
H      -4.295069000000000      1.289446000000000     -0.429354000000000
H      -2.809971000000000      4.891769000000000      1.370929000000000
H      -4.634068000000000      3.635174000000000      0.295105000000000
H       2.218632000000000      5.236474000000000      1.439918000000000
H       4.173256000000000      1.939486000000000     -0.478776000000000
H       4.199110000000000      4.268081000000000      0.339947000000000
C      -3.486531000000000      1.835394000000000      0.047095000000000
C      -2.250422000000000      1.213670000000000      0.226625000000000
C      -1.242437000000000      1.954043000000000      0.842655000000000
C      -1.400327000000000      3.266496000000000      1.281015000000000
C      -2.641390000000000      3.865138000000000      1.062684000000000
C      -3.673900000000000      3.155341000000000      0.453837000000000
C       1.077809000000000      2.117536000000000      0.848822000000000
C       1.049362000000000      3.433616000000000      1.307671000000000
C       2.195073000000000      4.203029000000000      1.110262000000000
C       3.314364000000000      3.656980000000000      0.486303000000000
C       3.304494000000000      2.340082000000000      0.033001000000000
C       2.170376000000000      1.539986000000000      0.199735000000000
C      -0.220757000000000      3.896663000000000      2.017079000000000
O      -0.032218000000000      1.321382000000000      1.015603000000000
P      -1.811849000000000     -0.465742000000000     -0.385712000000000
P       1.926849000000000     -0.114099000000000     -0.585498000000000
C      -0.203118000000000      3.333100000000000      3.456512000000000
H       0.660294000000000      3.724994000000000      4.004437000000000
H      -1.118454000000000      3.621799000000000      3.983935000000000
H      -0.141709000000000      2.239964000000000      3.446135000000000
C      -0.324499000000000      5.419585000000000      2.075526000000000
H      -1.234248000000000      5.720335000000000      2.602919000000000
H       0.518527000000000      5.840007000000000      2.631336000000000
H      -0.338496000000000      5.858820000000000      1.073092000000000
N       2.127091000000000     -4.206967000000000      3.887777000000000
N      -0.925321000000000     -3.690127000000000      4.641620000000000
N       7.428812000000000     -1.108392000000000     -2.910265000000000
N      -7.120416000000000     -2.327984000000000     -2.582518000000000
Rh      0.036440000000000     -0.247463000000000     -2.073700000000000
H       1.035055000000000      0.025739000000000     -3.224034000000000
C      -0.555820000000000      1.510253000000000     -2.467626000000000
O      -0.841554000000000      2.587330000000000     -2.746496000000000
H       2.464735000000000     -3.853036000000000      4.777132000000000
H       2.649424000000000     -5.040010000000000      3.637337000000000
H      -0.901070000000000     -3.151249000000000      5.498420000000000
H      -0.092269000000000     -4.265764000000000      4.541807000000000
H       7.577514000000000     -0.768190000000000     -3.851031000000000
H       8.206640000000000     -0.892329000000000     -2.301141000000000
H      -7.863218000000000     -2.457326000000000     -1.908486000000000
H      -7.437435000000000     -1.837938000000000     -3.408481000000000
C       0.320307000000000     -2.353517000000000     -2.608458000000000
C      -0.727477000000000     -1.793028000000000     -3.368748000000000
C      -0.567628000000000     -1.449744000000000     -4.823945000000000
O      -1.107740000000000     -2.502121000000000     -5.660914000000000
C      -2.433440000000000     -2.473369000000000     -5.841808000000000
C      -2.893228000000000     -3.646418000000000     -6.670233000000000
O      -3.163008000000000     -1.619832000000000     -5.391843000000000
H       1.297320000000000     -2.503141000000000     -3.065583000000000
H       0.097054000000000     -3.031481000000000     -1.789736000000000
H      -1.750477000000000     -2.035051000000000     -3.089818000000000
H       0.487793000000000     -1.385543000000000     -5.097519000000000
H      -1.073985000000000     -0.518690000000000     -5.084973000000000
H      -2.734846000000000     -4.568751000000000     -6.104706000000000
H      -2.303444000000000     -3.713955000000000     -7.586997000000000
H      -3.951087000000000     -3.533870000000000     -6.902785000000000
