97

H      -2.050222000000000     -4.847523000000000      1.506465000000000
H      -2.300408000000000     -3.139001000000000     -0.278598000000000
H      -2.920618000000000      0.141870000000000     -3.060551000000000
H      -5.131076000000000     -0.179357000000000     -4.059008000000000
H      -6.637527000000000     -1.646559000000000     -0.314429000000000
H      -4.387342000000000     -1.361391000000000      0.695772000000000
H       4.537119000000000     -0.911444000000000      0.690398000000000
H       6.737771000000000     -1.568377000000000     -0.203795000000000
H       5.185170000000000     -1.400505000000000     -4.196297000000000
H       2.962545000000000     -0.730900000000000     -3.297860000000000
H       2.278968000000000     -1.230173000000000      4.359588000000000
H       2.483700000000000      0.263025000000000      2.387439000000000
C      -1.882431000000000     -3.796019000000000      1.714793000000000
C      -2.005395000000000     -2.832635000000000      0.722898000000000
C      -3.482877000000000     -0.592179000000000     -1.108275000000000
C      -3.726063000000000     -0.243660000000000     -2.440955000000000
C      -4.984628000000000     -0.409353000000000     -3.007277000000000
C      -6.027824000000000     -0.917263000000000     -2.235371000000000
C      -5.810223000000000     -1.255186000000000     -0.896592000000000
C      -4.547973000000000     -1.094669000000000     -0.345099000000000
C       3.588000000000000     -0.761424000000000     -1.241468000000000
C       4.668086000000000     -1.007604000000000     -0.384446000000000
C       5.909456000000000     -1.379012000000000     -0.882954000000000
C       6.090800000000000     -1.517952000000000     -2.261329000000000
C       5.026496000000000     -1.281971000000000     -3.129953000000000
C       3.789872000000000     -0.908500000000000     -2.618036000000000
C       1.890929000000000     -1.247133000000000      0.963919000000000
C       1.684701000000000     -2.926164000000000      3.195851000000000
C       2.083643000000000     -1.601748000000000      3.358906000000000
C       2.183174000000000     -0.771924000000000      2.246173000000000
H      -1.250756000000000     -0.066314000000000      2.543278000000000
H      -0.997266000000000     -1.769985000000000      4.297070000000000
H       1.297108000000000     -2.978446000000000     -0.168853000000000
H       1.131265000000000     -4.466209000000000      1.795625000000000
C      -1.773717000000000     -1.475597000000000      0.994063000000000
C      -1.431337000000000     -1.107405000000000      2.295982000000000
C      -1.302728000000000     -2.065112000000000      3.295609000000000
C      -1.497976000000000     -3.410650000000000      2.998950000000000
C       1.528403000000000     -2.590343000000000      0.819602000000000
C       1.444057000000000     -3.431702000000000      1.918607000000000
H      -4.177611000000000      1.577358000000000     -0.069648000000000
H      -2.358260000000000      5.004858000000000      1.745959000000000
H      -4.335498000000000      3.880172000000000      0.798844000000000
H       2.663762000000000      5.116372000000000      1.297366000000000
H       4.309252000000000      1.713547000000000     -0.733634000000000
H       4.498762000000000      4.056152000000000      0.043942000000000
C      -3.303731000000000      2.048170000000000      0.367913000000000
C      -2.091180000000000      1.352854000000000      0.412133000000000
C      -0.999001000000000      2.014695000000000      0.975299000000000
C      -1.050079000000000      3.319067000000000      1.467642000000000
C      -2.271899000000000      3.984285000000000      1.388050000000000
C      -3.390014000000000      3.350635000000000      0.850986000000000
C       1.321025000000000      2.066077000000000      0.793874000000000
C       1.396458000000000      3.375461000000000      1.259740000000000
C       2.560965000000000      4.087319000000000      0.969226000000000
C       3.599786000000000      3.488315000000000      0.260162000000000
C       3.496465000000000      2.168347000000000     -0.175850000000000
C       2.338159000000000      1.432587000000000      0.079840000000000
C       0.223782000000000      3.880405000000000      2.095271000000000
O       0.187344000000000      1.320933000000000      1.033512000000000
P      -1.821836000000000     -0.285110000000000     -0.398882000000000
P       1.956284000000000     -0.241823000000000     -0.573728000000000
C       0.361218000000000      3.287200000000000      3.516320000000000
H       1.285029000000000      3.643139000000000      3.984329000000000
H      -0.489419000000000      3.590590000000000      4.135474000000000
H       0.391750000000000      2.193200000000000      3.481023000000000
C       0.197005000000000      5.404958000000000      2.188331000000000
H       1.113724000000000      5.774633000000000      2.656355000000000
H       0.096896000000000      5.865297000000000      1.200424000000000
H      -0.634956000000000      5.736378000000000      2.816084000000000
O       1.492476000000000     -3.683574000000000      4.314938000000000
O      -1.279128000000000     -4.393715000000000      3.922837000000000
O       7.278995000000000     -1.883807000000000     -2.807400000000000
O      -7.275909000000000     -1.111347000000000     -2.733124000000000
Rh      0.049334000000000     -0.244708000000000     -2.057708000000000
H       1.086560000000000     -0.116359000000000     -3.199989000000000
C      -0.321057000000000      1.574760000000000     -2.450360000000000
O      -0.482539000000000      2.682076000000000     -2.707290000000000
H       1.107926000000000     -4.531694000000000      4.041726000000000
H      -0.989134000000000     -3.973243000000000      4.747559000000000
H       7.925836000000000     -2.023762000000000     -2.101261000000000
H      -7.285361000000000     -0.853596000000000     -3.666331000000000
C       0.038046000000000     -2.380632000000000     -2.537679000000000
C      -0.886028000000000     -1.694291000000000     -3.353618000000000
C      -0.627015000000000     -1.413667000000000     -4.807933000000000
O      -1.279355000000000     -2.399239000000000     -5.646044000000000
C      -2.584504000000000     -2.203313000000000     -5.862313000000000
C      -3.164958000000000     -3.307112000000000     -6.709799000000000
O      -3.212507000000000     -1.263848000000000     -5.428833000000000
H       0.997826000000000     -2.693314000000000     -2.945516000000000
H      -0.326036000000000     -2.988317000000000     -1.712668000000000
H      -1.942936000000000     -1.786170000000000     -3.115488000000000
H       0.435693000000000     -1.504656000000000     -5.042313000000000
H      -0.987157000000000     -0.427228000000000     -5.106298000000000
H      -3.102180000000000     -4.252623000000000     -6.164499000000000
H      -2.585191000000000     -3.416791000000000     -7.629056000000000
H      -4.204604000000000     -3.079972000000000     -6.940786000000000
