109

H      -2.027470000000000      4.393299000000000      2.113949000000000
H      -2.166198000000000      1.922091000000000      2.292424000000000
H      -2.860767000000000     -2.367931000000000      2.067937000000000
H      -5.013043000000000     -2.790520000000000      3.113050000000000
H      -6.534663000000000      0.896900000000000      1.505150000000000
H      -4.327923000000000      1.341478000000000      0.459500000000000
H       4.565881000000000      0.814720000000000     -0.210143000000000
H       6.799739000000000      0.692960000000000      0.865612000000000
H       5.198856000000000     -1.914476000000000      3.878663000000000
H       2.993598000000000     -1.801684000000000      2.804119000000000
H       1.353368000000000      4.290674000000000      1.584716000000000
H       1.357802000000000      1.870082000000000      1.974118000000000
C      -1.851659000000000      3.761235000000000      1.249628000000000
C      -1.916973000000000      2.381325000000000      1.338033000000000
C      -3.422348000000000     -0.479229000000000      1.194730000000000
C      -3.659734000000000     -1.644752000000000      1.925262000000000
C      -4.896691000000000     -1.896778000000000      2.514196000000000
C      -5.926236000000000     -0.967988000000000      2.366103000000000
C      -5.714980000000000      0.194260000000000      1.611534000000000
C      -4.478652000000000      0.433490000000000      1.036593000000000
C       3.614547000000000     -0.500801000000000      1.217201000000000
C       4.704651000000000      0.208000000000000      0.681349000000000
C       5.952813000000000      0.150194000000000      1.271737000000000
C       6.147091000000000     -0.616645000000000      2.429845000000000
C       5.077591000000000     -1.319631000000000      2.981297000000000
C       3.823833000000000     -1.253967000000000      2.369254000000000
C       1.899396000000000      1.346647000000000     -0.037668000000000
C       1.891325000000000      4.114361000000000     -0.505490000000000
C       1.601682000000000      3.623066000000000      0.768206000000000
C       1.597978000000000      2.248381000000000      0.983727000000000
H      -1.230415000000000      1.599621000000000     -1.892503000000000
H      -1.086835000000000      4.029420000000000     -2.059584000000000
H       2.425104000000000      1.183459000000000     -2.127870000000000
H       2.396661000000000      3.630833000000000     -2.527041000000000
C      -1.709712000000000      1.572871000000000      0.207793000000000
C      -1.408359000000000      2.193747000000000     -1.001745000000000
C      -1.334115000000000      3.582666000000000     -1.103925000000000
C      -1.560151000000000      4.370131000000000      0.023377000000000
C       2.183339000000000      1.857369000000000     -1.310170000000000
C       2.176351000000000      3.224933000000000     -1.544961000000000
H      -4.200534000000000     -1.352459000000000     -1.018929000000000
H      -2.503847000000000     -2.675588000000000     -4.724758000000000
H      -4.436734000000000     -2.456129000000000     -3.212592000000000
H       2.521716000000000     -3.140295000000000     -4.590225000000000
H       4.268203000000000     -2.023620000000000     -0.832920000000000
H       4.390619000000000     -3.231478000000000     -2.989816000000000
C      -3.346542000000000     -1.414441000000000     -1.685086000000000
C      -2.114270000000000     -0.890038000000000     -1.282597000000000
C      -1.050954000000000     -1.008737000000000     -2.177588000000000
C      -1.143718000000000     -1.638523000000000     -3.418834000000000
C      -2.383576000000000     -2.165407000000000     -3.774768000000000
C      -3.476586000000000     -2.044630000000000     -2.919490000000000
C       1.266226000000000     -1.202613000000000     -2.135433000000000
C       1.302133000000000     -1.857839000000000     -3.362661000000000
C       2.448214000000000     -2.599138000000000     -3.652658000000000
C       3.506046000000000     -2.651699000000000     -2.747426000000000
C       3.440675000000000     -1.969462000000000     -1.533477000000000
C       2.301853000000000     -1.233306000000000     -1.202267000000000
C       0.109256000000000     -1.650341000000000     -4.291969000000000
O       0.152589000000000     -0.471595000000000     -1.785261000000000
P      -1.780194000000000     -0.245640000000000      0.416219000000000
P       1.961548000000000     -0.434054000000000      0.417472000000000
C       0.252131000000000     -0.257593000000000     -4.947507000000000
H      -0.611093000000000     -0.052615000000000     -5.589282000000000
H       0.312399000000000      0.527367000000000     -4.186522000000000
H       1.162387000000000     -0.219715000000000     -5.555087000000000
C       0.039417000000000     -2.715177000000000     -5.385056000000000
H      -0.066177000000000     -3.718628000000000     -4.960973000000000
H      -0.806244000000000     -2.525098000000000     -6.052075000000000
H       0.942075000000000     -2.688180000000000     -6.002006000000000
O       1.902969000000000      5.436155000000000     -0.829946000000000
O      -1.511618000000000      5.729403000000000      0.031574000000000
O       7.404454000000000     -0.606545000000000      2.936763000000000
O      -7.155851000000000     -1.098833000000000      2.920985000000000
Rh      0.092177000000000     -1.428063000000000      1.563706000000000
H       1.142454000000000     -2.306836000000000      2.290255000000000
C      -0.313923000000000     -3.027941000000000      0.627653000000000
O      -0.493805000000000     -4.013963000000000      0.067338000000000
C       1.743451000000000      6.363519000000000      0.226000000000000
H       1.850372000000000      7.351404000000000     -0.223652000000000
H       0.752395000000000      6.275884000000000      0.686465000000000
H       2.518352000000000      6.225053000000000      0.989226000000000
C      -1.280152000000000      6.376601000000000     -1.204343000000000
H      -1.306907000000000      7.446004000000000     -0.992626000000000
H      -0.300106000000000      6.106124000000000     -1.614876000000000
H      -2.064871000000000      6.129451000000000     -1.929240000000000
C       7.641609000000000     -1.360911000000000      4.104830000000000
H       7.026755000000000     -1.004851000000000      4.940073000000000
H       7.441152000000000     -2.426074000000000      3.938268000000000
H       8.695467000000001     -1.223351000000000      4.345492000000000
C      -7.376847000000000     -2.229436000000000      3.737871000000000
H      -8.392630000000000     -2.131825000000000      4.120366000000000
H      -7.290550000000000     -3.158634000000000      3.162384000000000
H      -6.667402000000000     -2.259429000000000      4.573413000000000
C       0.136886000000000     -0.185257000000000      3.364857000000000
C      -0.799307000000000     -1.230109000000000      3.519366000000000
C      -0.540735000000000     -2.422673000000000      4.396929000000000
O      -1.142619000000000     -2.239772000000000      5.703112000000000
C      -2.452493000000000     -2.498283000000000      5.781945000000000
C      -2.976052000000000     -2.223848000000000      7.169358000000000
O      -3.125806000000000     -2.895771000000000      4.858385000000000
H       1.106272000000000     -0.245203000000000      3.856747000000000
H      -0.216299000000000      0.826448000000000      3.180899000000000
H      -1.854941000000000     -0.986481000000000      3.428085000000000
H       0.526655000000000     -2.541613000000000      4.594597000000000
H      -0.941058000000000     -3.343232000000000      3.967651000000000
H      -2.878579000000000     -1.157128000000000      7.388108000000000
H      -2.383146000000000     -2.768281000000000      7.907785000000000
H      -4.022203000000000     -2.520846000000000      7.228079000000000
