109

H       1.150439000000000      4.015753000000000     -1.942403000000000
H       1.069777000000000      1.568294000000000     -2.020385000000000
H       4.135275000000000      1.187740000000000     -0.787048000000000
H       6.206387000000000      0.710601000000000     -2.025287000000000
H       4.920181000000000     -3.363531000000000     -2.581399000000000
H       2.857183000000000     -2.874980000000000     -1.392380000000000
H      -3.143618000000000     -2.785978000000000     -1.886516000000000
H      -5.374903000000000     -3.173158000000000     -2.819973000000000
H      -6.764581000000000      0.456875000000000     -0.967204000000000
H      -4.519887000000000      0.833718000000000     -0.038745000000000
H      -2.168653000000000      3.499026000000000     -2.698431000000000
H      -2.251786000000000      1.059015000000000     -2.392361000000000
C       1.423385000000000      3.448903000000000     -1.058588000000000
C       1.366336000000000      2.059188000000000     -1.096810000000000
C       3.339521000000000     -0.810013000000000     -0.997864000000000
C       4.306747000000000      0.187134000000000     -1.173444000000000
C       5.479717000000000     -0.081365000000000     -1.867062000000000
C       5.718760000000000     -1.357432000000000     -2.393209000000000
C       4.779692000000000     -2.368313000000000     -2.180243000000000
C       3.601047000000000     -2.088413000000000     -1.500104000000000
C      -3.662504000000000     -0.955814000000000     -0.893800000000000
C      -3.935766000000000     -2.073201000000000     -1.679396000000000
C      -5.207540000000000     -2.292451000000000     -2.210618000000000
C      -6.236288000000000     -1.385379000000000     -1.960546000000000
C      -5.970692000000000     -0.257068000000000     -1.168319000000000
C      -4.705346000000000     -0.047898000000000     -0.647134000000000
C      -1.893107000000000      1.127895000000000     -0.264362000000000
C      -1.772149000000000      3.917323000000000     -0.618776000000000
C      -2.008580000000000      3.072522000000000     -1.711738000000000
C      -2.054840000000000      1.699677000000000     -1.535630000000000
H       2.308890000000000      1.378785000000000      2.090229000000000
H       2.402387000000000      3.831836000000000      2.170456000000000
H      -1.513954000000000      1.566395000000000      1.812500000000000
H      -1.366425000000000      3.982343000000000      1.502380000000000
C       1.693942000000000      1.288998000000000      0.021752000000000
C       2.045623000000000      1.948686000000000      1.203881000000000
C       2.100148000000000      3.335267000000000      1.252360000000000
C       1.806609000000000      4.099172000000000      0.117194000000000
C      -1.647727000000000      1.973624000000000      0.815448000000000
C      -1.575780000000000      3.356116000000000      0.642062000000000
H       4.117199000000000     -1.768541000000000      1.279774000000000
H       2.443052000000000     -2.455947000000000      5.170839000000000
H       4.321135000000000     -2.637512000000000      3.589588000000000
H      -2.613089000000000     -2.299924000000000      5.298222000000000
H      -4.387175000000000     -1.690115000000000      1.445397000000000
H      -4.553426000000000     -2.445005000000000      3.787843000000000
C       3.284244000000000     -1.680218000000000      1.970255000000000
C       2.091440000000000     -1.095046000000000      1.543473000000000
C       1.052981000000000     -1.001546000000000      2.468091000000000
C       1.134679000000000     -1.462120000000000      3.779480000000000
C       2.331886000000000     -2.065998000000000      4.164428000000000
C       3.395553000000000     -2.170340000000000      3.270138000000000
C      -1.272248000000000     -0.953850000000000      2.512932000000000
C      -1.321442000000000     -1.391201000000000      3.835096000000000
C      -2.525362000000000     -1.936159000000000      4.279856000000000
C      -3.622306000000000     -2.021927000000000      3.425505000000000
C      -3.532539000000000     -1.586482000000000      2.105716000000000
C      -2.337998000000000     -1.048832000000000      1.617243000000000
C      -0.066682000000000     -1.197251000000000      4.683877000000000
O      -0.105840000000000     -0.408023000000000      2.024981000000000
P       1.728497000000000     -0.534028000000000     -0.169014000000000
P      -1.994146000000000     -0.703872000000000     -0.162292000000000
C      -0.009049000000000      0.282016000000000      5.129054000000000
H      -0.881919000000000      0.524700000000000      5.743950000000000
H       0.898341000000000      0.463434000000000      5.714544000000000
H       0.000666000000000      0.950428000000000      4.261926000000000
C      -0.064750000000000     -2.094718000000000      5.920153000000000
H      -0.918657000000000     -1.863193000000000      6.563035000000000
H      -0.107533000000000     -3.153649000000000      5.646835000000000
H       0.835946000000000     -1.922218000000000      6.516006000000000
S      -1.720743000000000      5.654049000000000     -0.954603000000000
S       1.945639000000000      5.856818000000000      0.279825000000000
S      -7.885097000000000     -1.544171000000000     -2.578638000000000
S       7.200792000000000     -1.592558000000000     -3.330498000000000
Rh     -0.151039000000000     -1.901396000000000     -1.122875000000000
H      -1.178758000000000     -2.913723000000000     -1.676443000000000
C       0.298365000000000     -3.328721000000000      0.051903000000000
O       0.486465000000000     -4.222446000000000      0.747276000000000
C      -1.723973000000000      6.377046000000000      0.703640000000000
H      -1.800993000000000      7.456444000000000      0.560312000000000
H      -2.588483000000000      6.029337000000000      1.273602000000000
H      -0.793319000000000      6.158229000000000      1.230874000000000
C       1.934632000000000      6.412841000000000     -1.442518000000000
H       2.703065000000000      5.891857000000000     -2.018029000000000
H       0.950469000000000      6.275032000000000     -1.894601000000000
H       2.170196000000000      7.478382000000000     -1.415903000000000
C      -7.805769000000000     -3.087640000000000     -3.516994000000000
H      -7.095037000000000     -3.014958000000000     -4.343008000000000
H      -7.551320000000000     -3.932367000000000     -2.873208000000000
H      -8.806298999999999     -3.242329000000000     -3.924250000000000
C       6.889712000000000     -3.194499000000000     -4.118895000000000
H       7.663302000000000     -3.312635000000000     -4.879632000000000
H       6.967542000000000     -4.016576000000000     -3.404505000000000
H       5.904414000000000     -3.207442000000000     -4.591904000000000
C      -0.294107000000000     -1.002807000000000     -3.108154000000000
C       0.715631000000000     -1.989548000000000     -3.098346000000000
C       0.536517000000000     -3.323023000000000     -3.766726000000000
O       1.028082000000000     -3.282742000000000     -5.130503000000000
C       2.346118000000000     -3.436552000000000     -5.291446000000000
C       2.734908000000000     -3.293411000000000     -6.741274000000000
O       3.123561000000000     -3.650805000000000     -4.388419000000000
H      -1.258831000000000     -1.224440000000000     -3.562354000000000
H      -0.025733000000000      0.050032000000000     -3.115980000000000
H       1.752874000000000     -1.663446000000000     -3.063629000000000
H      -0.520752000000000     -3.577720000000000     -3.861676000000000
H       1.063687000000000     -4.120605000000000     -3.238829000000000
H       2.614896000000000     -2.248479000000000     -7.040984000000000
H       2.078291000000000     -3.897071000000000     -7.370969000000000
H       3.773635000000000     -3.594251000000000     -6.871749000000000
