93

H       7.418723000000000     10.101948000000000      3.548102000000000
H       7.281201000000000      7.659760000000000      3.876595000000000
H       8.710105000000000      3.632785000000000      4.398719000000000
H      10.886303000000000      2.910900000000000      3.521109000000000
H      12.730629000000000      6.426577000000000      5.176949000000000
H      10.549476000000000      7.135167000000000      6.095772000000000
H       2.820408000000000      3.634255000000000      5.307179000000000
H       0.520722000000000      3.038919000000000      4.621468000000000
H      -0.554983000000000      7.197443000000000      4.639970000000000
H       1.731016000000000      7.789694000000000      5.348282000000000
H       4.226604000000000      9.821222000000001      2.754954000000000
H       4.085110000000000      7.460021000000000      3.468235000000000
C       7.674366000000000      9.674851000000000      4.512655000000000
C       7.596296000000000      8.298843000000000      4.698528000000000
C       9.478125000000000      5.430741000000000      5.315134000000000
C       9.585292000000001      4.249561000000000      4.575687000000000
C      10.820726000000001      3.843684000000000      4.071383000000000
C      11.951724000000000      4.624251000000000      4.285641000000000
C      11.850894000000000      5.812388000000000      5.011404000000000
C      10.622825000000001      6.211746000000000      5.526700000000000
C       2.441289000000000      5.751656000000000      5.363159000000000
C       2.080354000000000      4.415439000000000      5.160481000000000
C       0.784203000000000      4.080662000000000      4.775343000000000
C      -0.166166000000000      5.079897000000000      4.581317000000000
C       0.181969000000000      6.413596000000000      4.784761000000000
C       1.475101000000000      6.748015000000000      5.179354000000000
C       4.284984000000000      7.906349000000000      5.570752000000000
C       4.481751000000000     10.577620000000000      4.758379000000000
C       4.298702000000000      9.571842000000000      3.809288000000000
C       4.218356000000000      8.244077000000001      4.211759000000000
H       8.552061000000000      8.143943000000000      7.958456000000000
H       8.657769999999999     10.585991999999999      7.632697000000000
H       4.539043000000000      8.673916000000000      7.570661000000000
H       4.745160000000000     11.022296000000001      6.847070000000000
C       7.917934000000000      7.731959000000000      5.936381000000000
C       8.296856000000000      8.566990000000001      6.990785000000000
C       8.362121999999999      9.946980000000000      6.806140000000000
C       8.056505000000000     10.501996000000000      5.566995000000000
C       4.479000000000000      8.916160000000000      6.513698000000000
C       4.586050000000000     10.245606000000000      6.105252000000000
H      10.082170000000000      4.608752000000000      7.735036000000000
H       8.354938000000001      4.865667000000000     11.656164000000000
H      10.175190000000001      4.139944000000000     10.165079000000000
H       3.382765000000000      5.608411000000000     11.655836000000001
H       1.680112000000000      5.668292000000000      7.726063000000000
H       1.437630000000000      5.378863000000000     10.159046999999999
C       9.274184999999999      4.934063000000000      8.383450000000000
C       8.175670000000000      5.602955000000000      7.840169000000000
C       7.159090000000000      5.989380000000000      8.712740000000000
C       7.185614000000000      5.762638000000000     10.086166000000000
C       8.292133000000000      5.080882000000000     10.594583999999999
C       9.323544000000000      4.669718000000000      9.751590000000000
C       4.854726000000000      6.276002000000000      8.693559000000000
C       4.758121000000000      6.099558000000000     10.074076000000000
C       3.507004000000000      5.764706000000000     10.589468999999999
C       2.408052000000000      5.630161000000000      9.743912999999999
C       2.543699000000000      5.802012000000000      8.368660999999999
C       3.787127000000000      6.116192000000000      7.808702000000000
C       6.023543000000000      6.326502000000000     10.898789000000001
O       6.071811000000000      6.613239000000000      8.144358000000000
H       4.781857000000000      3.799313000000000      4.593939000000000
C       6.308107000000000      5.045187000000000      3.397712000000000
O       6.494121000000000      5.219378000000000      2.274858000000000
P       7.863500000000000      5.899995000000000      6.059472000000000
P       4.133947000000000      6.124849000000000      5.992124000000000
Rh      5.904206000000000      4.684249000000000      5.203100000000000
C       6.237737000000000      7.850213000000000     11.048531000000001
H       5.396306000000000      8.295256000000000     11.589411000000000
H       7.159546000000000      8.046410000000000     11.605886999999999
H       6.315307000000000      8.333703000000000     10.069378000000000
C       5.930536000000000      5.693954000000000     12.286099999999999
H       6.846573000000000      5.883596000000000     12.852632000000000
H       5.107951000000000      6.136936000000000     12.854248999999999
H       5.772900000000000      4.612478000000000     12.225719000000000
H       4.554910000000000     11.614884000000000      4.445734000000000
H       8.108432000000001     11.577023000000001      5.423567000000000
H      -1.174479000000000      4.821093000000000      4.273561000000000
H      12.913010999999999      4.311046000000000      3.889932000000000
C       5.773804000000000      3.304417000000000      6.905756000000000
C       6.734048000000000      2.836109000000000      5.989204000000000
C       6.475719000000000      1.671146000000000      5.074302000000000
O       7.035022000000000      0.452558000000000      5.621337000000000
C       8.351417000000000      0.286746000000000      5.436640000000000
C       8.834873000000000     -0.989375000000000      6.074568000000000
O       9.051869999999999      1.070650000000000      4.836137000000000
H       4.789064000000000      2.842696000000000      6.939342000000000
H       6.088022000000000      3.776247000000000      7.834031000000000
H       7.787220000000000      2.973370000000000      6.233742000000000
H       6.904442000000000      1.822729000000000      4.081518000000000
H       5.405051000000000      1.476785000000000      4.984983000000000
H       8.692447000000000     -0.929507000000000      7.156855000000000
H       9.889723000000000     -1.133737000000000      5.846493000000000
H       8.247588000000000     -1.834853000000000      5.709124000000000
