101

C       2.029074000000000      2.311239000000000      0.303982000000000
C       1.421815000000000      1.061562000000000      0.512621000000000
C       0.418120000000000      0.901426000000000      1.470927000000000
C       0.123192000000000      1.999356000000000      2.316120000000000
C       0.752383000000000      3.223539000000000      2.149666000000000
C       1.683805000000000      3.386038000000000      1.117378000000000
H       2.763947000000000      2.431153000000000     -0.482169000000000
H       0.528228000000000      4.084189000000000      2.766830000000000
O       2.207769000000000      4.627161000000000      1.000256000000000
C      -0.391414000000000     -0.342727000000000      1.626421000000000
C      -0.186413000000000     -1.136081000000000      2.778462000000000
C      -1.366176000000000     -0.748866000000000      0.706188000000000
C      -0.898695000000000     -2.308710000000000      2.982035000000000
C      -2.088519000000000     -1.932714000000000      0.904694000000000
C      -1.841507000000000     -2.712190000000000      2.031667000000000
H      -0.744397000000000     -2.944311000000000      3.844534000000000
H      -2.848857000000000     -2.229859000000000      0.197204000000000
O      -2.476638000000000     -3.875749000000000      2.300917000000000
P       1.777290000000000     -0.294259000000000     -0.684114000000000
P      -1.594037000000000      0.215853000000000     -0.861898000000000
C      -3.221073000000000     -0.344068000000000     -1.522716000000000
C      -4.348179000000000      0.478140000000000     -1.560481000000000
C      -3.280400000000000     -1.617288000000000     -2.104277000000000
C      -5.514705000000000      0.009776000000000     -2.160347000000000
H      -4.336641000000000      1.477000000000000     -1.140801000000000
C      -4.463724000000000     -2.058695000000000     -2.674911000000000
H      -2.401508000000000     -2.254481000000000     -2.125529000000000
C      -5.599143000000000     -1.257525000000000     -2.717100000000000
Cl     -6.912769000000000      1.046835000000000     -2.208404000000000
Cl     -4.515609000000000     -3.639203000000000     -3.398987000000000
H      -6.509718000000000     -1.602149000000000     -3.191629000000000
C      -1.989714000000000      1.874333000000000     -0.160565000000000
C      -1.363457000000000      3.005350000000000     -0.679341000000000
C      -2.867460000000000      1.994313000000000      0.922291000000000
C      -1.604443000000000      4.246677000000000     -0.099598000000000
H      -0.666590000000000      2.924831000000000     -1.505154000000000
C      -3.112695000000000      3.251197000000000      1.457498000000000
H      -3.343349000000000      1.118819000000000      1.354406000000000
C      -2.480912000000000      4.392473000000000      0.968291000000000
Cl     -0.759822000000000      5.642207000000000     -0.701419000000000
Cl     -4.227087000000000      3.409814000000000      2.787181000000000
H      -2.667075000000000      5.365072000000000      1.409087000000000
C       1.939001000000000     -1.780426000000000      0.402623000000000
C       2.784614000000000     -1.762777000000000      1.514835000000000
C       1.182730000000000     -2.917689000000000      0.121177000000000
C       2.864087000000000     -2.887530000000000      2.324556000000000
H       3.361084000000000     -0.882640000000000      1.775424000000000
C       1.257706000000000     -4.013142000000000      0.973105000000000
H       0.515251000000000     -2.934755000000000     -0.733256000000000
C       2.098374000000000     -4.023434000000000      2.079583000000000
Cl      3.944097000000000     -2.876003000000000      3.693366000000000
Cl      0.246375000000000     -5.395822000000000      0.666626000000000
H       2.155184000000000     -4.887510000000000      2.731270000000000
C       3.536689000000000     -0.013764000000000     -1.171831000000000
C       4.520093000000000      0.495762000000000     -0.316583000000000
C       3.873720000000000     -0.379222000000000     -2.476507000000000
C       5.822529000000000      0.627775000000000     -0.781017000000000
H       4.279700000000000      0.821639000000000      0.689913000000000
C       5.190774000000000     -0.247497000000000     -2.906953000000000
H       3.107363000000000     -0.754757000000000     -3.149523000000000
C       6.181183000000000      0.256501000000000     -2.073727000000000
Cl      7.040793000000000      1.285292000000000      0.274084000000000
Cl      5.607206000000000     -0.705029000000000     -4.532155000000000
H       7.201477000000000      0.366783000000000     -2.421487000000000
H      -0.234872000000000     -1.659858000000000     -2.045764000000000
O      -0.824843000000000      1.773673000000000      3.254472000000000
O       0.765080000000000     -0.687025000000000      3.629873000000000
Rh      0.158918000000000     -0.173387000000000     -2.394536000000000
C       0.825729000000000      1.582940000000000     -2.947066000000000
O       1.328855000000000      2.558559000000000     -3.272402000000000
C      -1.064049000000000      2.796309000000000      4.198198000000000
H      -0.150957000000000      3.032475000000000      4.757212000000000
H      -1.439992000000000      3.705506000000000      3.713827000000000
H      -1.826268000000000      2.410110000000000      4.874026000000000
C       0.934721000000000     -1.387587000000000      4.843823000000000
H       1.246327000000000     -2.423492000000000      4.665207000000000
H       1.723083000000000     -0.865831000000000      5.385556000000000
H       0.008949000000000     -1.381061000000000      5.431218000000000
C      -3.349564000000000     -4.385306000000000      1.313138000000000
H      -3.694292000000000     -5.349586000000000      1.684985000000000
H      -4.210782000000000     -3.723781000000000      1.161843000000000
H      -2.825505000000000     -4.524833000000000      0.359883000000000
C       3.058078000000000      4.872387000000000     -0.101419000000000
H       3.972381000000000      4.269327000000000     -0.040300000000000
H       2.544392000000000      4.662739000000000     -1.047390000000000
H       3.317283000000000      5.929321000000000     -0.052099000000000
C       0.600728000000000     -0.989382000000000     -4.362180000000000
C      -0.773882000000000     -0.669994000000000     -4.259311000000000
C      -1.378561000000000      0.512063000000000     -4.964618000000000
O      -1.909800000000000      0.135140000000000     -6.252687000000000
C      -3.112180000000000     -0.462011000000000     -6.231714000000000
C      -3.552412000000000     -0.841029000000000     -7.621796000000000
O      -3.745108000000000     -0.663696000000000     -5.222704000000000
H       1.254822000000000     -0.347011000000000     -4.950510000000000
H       0.924202000000000     -2.023017000000000     -4.293460000000000
H      -1.484753000000000     -1.477024000000000     -4.095528000000000
H      -0.622160000000000      1.268337000000000     -5.190962000000000
H      -2.187074000000000      0.958489000000000     -4.378412000000000
H      -2.845638000000000     -1.560273000000000     -8.043685999999999
H      -3.550831000000000      0.041174000000000     -8.266282000000000
H      -4.548791000000000     -1.277887000000000     -7.578320000000000
