55

P      -3.928743000000000     -1.910325000000000      0.190848000000000
Rh     -1.889594000000000     -0.994837000000000     -0.406337000000000
C      -2.407332000000000      0.809417000000000     -1.110831000000000
H      -1.351436000000000     -2.368642000000000      0.107475000000000
P      -1.053340000000000     -0.255641000000000      1.561971000000000
O      -2.638393000000000      1.861106000000000     -1.479199000000000
Cl     -3.779407000000000     -3.597341000000000      1.396929000000000
Cl     -5.038840000000000     -2.799525000000000     -1.361888000000000
Cl     -0.898105000000000      1.855674000000000      1.739022000000000
Cl     -2.286574000000000     -0.534007000000000      3.233627000000000
N       0.381657000000000     -0.806662000000000      2.174277000000000
N      -5.053525000000000     -1.030395000000000      1.031020000000000
C      -6.282512000000000     -1.608511000000000      1.590728000000000
H      -7.133805000000000     -1.018262000000000      1.230300000000000
H      -6.413295000000000     -2.618733000000000      1.194062000000000
C      -5.012968000000000      0.435623000000000      0.967193000000000
H      -5.493070000000000      0.807307000000000      1.878576000000000
H      -3.971215000000000      0.765139000000000      1.019918000000000
C       1.372562000000000     -1.374029000000000      1.246666000000000
H       0.862782000000000     -2.076632000000000      0.583934000000000
H       2.068536000000000     -1.958883000000000      1.856838000000000
C       0.901181000000000     -0.408478000000000      3.490745000000000
H       1.896926000000000      0.028185000000000      3.344652000000000
H       0.269145000000000      0.383646000000000      3.899829000000000
C      -5.701737000000000      0.996077000000000     -0.273630000000000
H      -5.656001000000000      2.089139000000000     -0.278527000000000
H      -5.219647000000000      0.626528000000000     -1.185195000000000
H      -6.753003000000000      0.695049000000000     -0.311141000000000
C      -6.244657000000000     -1.636008000000000      3.114716000000000
H      -6.100030000000000     -0.632388000000000      3.526139000000000
H      -7.184498000000000     -2.032841000000000      3.509760000000000
H      -5.421957000000000     -2.267174000000000      3.459104000000000
C       2.116072000000000     -0.312930000000000      0.442782000000000
H       2.595433000000000      0.418430000000000      1.101038000000000
H       2.889772000000000     -0.774357000000000     -0.178641000000000
H       1.420123000000000      0.222543000000000     -0.211667000000000
C       0.957962000000000     -1.589045000000000      4.452874000000000
H       1.579520000000000     -2.396739000000000      4.054733000000000
H       1.382594000000000     -1.275792000000000      5.411095000000000
H      -0.046948000000000     -1.982263000000000      4.624285000000000
C      -0.340399000000000     -1.246722000000000     -1.950882000000000
C      -1.521753000000000     -1.869983000000000     -2.379420000000000
C      -2.370482000000000     -1.269364000000000     -3.468507000000000
O      -1.951135000000000     -1.737744000000000     -4.764466000000000
C      -2.361224000000000     -2.976995000000000     -5.096267000000000
C      -1.870609000000000     -3.354168000000000     -6.470181000000000
O      -3.029230000000000     -3.674966000000000     -4.375632000000000
H      -0.049435000000000     -0.290264000000000     -2.380951000000000
H       0.478367000000000     -1.835832000000000     -1.551476000000000
H      -1.627716000000000     -2.947024000000000     -2.275612000000000
H      -2.234870000000000     -0.185905000000000     -3.520090000000000
H      -3.428024000000000     -1.509579000000000     -3.332896000000000
H      -0.777700000000000     -3.344644000000000     -6.483953000000000
H      -2.216792000000000     -2.620804000000000     -7.202461000000000
H      -2.240020000000000     -4.346243000000000     -6.724541000000000
