91

P      -3.746289000000000     -1.996050000000000      0.924275000000000
C      -4.199987000000000     -2.261579000000000      2.694524000000000
C      -3.858412000000000     -3.723669000000000      0.231290000000000
C      -5.290032000000000     -1.281163000000000      0.235823000000000
C      -3.348663000000000     -1.766971000000000      3.685315000000000
C      -3.655975000000000     -1.926533000000000      5.035641000000000
C      -4.824513000000000     -2.582522000000000      5.406170000000000
C      -5.688101000000000     -3.069504000000000      4.424167000000000
C      -5.384588000000000     -2.908234000000000      3.076569000000000
C      -2.771355000000000     -4.325149000000000     -0.401934000000000
C      -2.929447000000000     -5.617036000000000     -0.898614000000000
C      -4.154167000000000     -6.251207000000000     -0.752091000000000
C      -5.195116000000000     -5.571382000000000     -0.110234000000000
C      -6.082642000000000     -0.414098000000000      0.993761000000000
C      -7.167338000000000      0.235744000000000      0.408715000000000
C      -7.466623000000000      0.028672000000000     -0.935690000000000
C      -6.673125000000000     -0.826093000000000     -1.697999000000000
C      -5.589596000000000     -1.476349000000000     -1.115837000000000
H      -2.443701000000000     -1.239104000000000      3.399825000000000
H      -2.980921000000000     -1.527908000000000      5.787313000000000
H      -5.070199000000000     -2.708309000000000      6.456383000000000
H      -6.607088000000000     -3.571843000000000      4.711028000000000
H      -6.057901000000000     -3.280956000000000      2.311892000000000
H      -1.837118000000000     -3.786464000000000     -0.507854000000000
H      -2.105084000000000     -6.116300000000000     -1.398966000000000
H      -4.315152000000000     -7.255464000000000     -1.130667000000000
H      -5.856936000000000     -0.247545000000000      2.043937000000000
H      -7.777779000000000      0.905186000000000      1.007080000000000
H      -8.309982000000000      0.539448000000000     -1.390125000000000
H      -6.873035000000000     -0.971404000000000     -2.754464000000000
H      -4.955590000000000     -2.108686000000000     -1.732257000000000
Rh     -1.852079000000000     -0.677687000000000      0.468168000000000
C      -2.608754000000000      0.900613000000000      1.349859000000000
H      -1.205254000000000     -1.940940000000000     -0.220447000000000
P      -0.053103000000000     -1.007333000000000      1.895634000000000
C       1.510599000000000     -0.585215000000000      0.994842000000000
C       0.335706000000000     -2.689023000000000      2.524599000000000
C       0.022435000000000      0.011092000000000      3.428940000000000
C       2.829029000000000      1.109372000000000      0.159657000000000
C       3.609355000000000      0.201148000000000     -0.558507000000000
C       3.299409000000000     -1.152256000000000     -0.486311000000000
C       2.232198000000000     -1.563083000000000      0.302921000000000
C      -0.609429000000000     -3.706977000000000      2.402099000000000
C      -0.342120000000000     -4.988020000000000      2.884906000000000
C       0.876862000000000     -5.257834000000000      3.496545000000000
C       1.829139000000000     -4.245366000000000      3.629385000000000
C       1.560046000000000     -2.969407000000000      3.148495000000000
C      -0.046242000000000     -0.564414000000000      4.703080000000000
C      -0.121090000000000      0.240348000000000      5.839118000000000
C      -0.124767000000000      1.626091000000000      5.717843000000000
C      -0.064142000000000      2.206497000000000      4.452391000000000
C      -0.003353000000000      1.408353000000000      3.315200000000000
H       4.435075000000000      0.555609000000000     -1.166527000000000
H       3.884314000000000     -1.880968000000000     -1.039820000000000
H       1.960466000000000     -2.610328000000000      0.381383000000000
H      -1.559223000000000     -3.494660000000000      1.922825000000000
H      -1.089811000000000     -5.767989000000000      2.778878000000000
H       1.089221000000000     -6.253942000000000      3.872562000000000
H       2.780803000000000     -4.452609000000000      4.108868000000000
H       2.301644000000000     -2.181214000000000      3.257005000000000
H      -0.049519000000000     -1.644482000000000      4.816144000000000
H      -0.174272000000000     -0.222596000000000      6.820067000000000
H      -0.182651000000000      2.251665000000000      6.603115000000000
H      -0.075685000000000      3.287011000000000      4.347697000000000
H       0.035341000000000      1.864364000000000      2.331725000000000
O      -3.042833000000000      1.805103000000000      1.898738000000000
N      -5.040492000000000     -4.334478000000000      0.366135000000000
N       1.797690000000000      0.714434000000000      0.914421000000000
C      -6.553527000000000     -6.191155000000000      0.078691000000000
H      -6.603173000000000     -7.194148000000000     -0.351013000000000
H      -6.792603000000000     -6.252336000000000      1.144618000000000
H      -7.317202000000000     -5.565367000000000     -0.391603000000000
C       3.086566000000000      2.591167000000000      0.113055000000000
H       3.990715000000000      2.826080000000000     -0.452987000000000
H       2.238812000000000      3.102159000000000     -0.354276000000000
H       3.188158000000000      2.986396000000000      1.127464000000000
C      -0.860847000000000      0.386211000000000     -1.151740000000000
C      -2.144209000000000      0.009795000000000     -1.592894000000000
C      -3.233866000000000      1.032696000000000     -1.748621000000000
O      -3.268161000000000      1.562424000000000     -3.097916000000000
C      -3.837080000000000      0.778961000000000     -4.021158000000000
C      -3.809729000000000      1.437978000000000     -5.377934000000000
O      -4.306552000000000     -0.311973000000000     -3.794212000000000
H      -0.665481000000000      1.422995000000000     -0.882672000000000
H       0.017850000000000     -0.176134000000000     -1.455441000000000
H      -2.256079000000000     -0.864169000000000     -2.229781000000000
H      -3.035212000000000      1.908589000000000     -1.125547000000000
H      -4.223144000000000      0.631706000000000     -1.517419000000000
H      -2.772877000000000      1.603731000000000     -5.681683000000000
H      -4.298780000000000      2.413731000000000     -5.327136000000000
H      -4.313664000000000      0.798837000000000     -6.101357000000000
