73

H       4.841959000000000      4.131062000000000      3.740797000000000
Rh      6.231318000000000      4.594461000000000      4.329665000000000
C       7.924415000000000      5.214496000000000      5.097327000000000
O       8.868512000000001      5.614173000000000      5.605188000000000
P       5.462897000000000      6.644791000000000      3.580847000000000
P       5.454938000000000      4.033896000000000      6.464650000000000
C       4.920165000000000      6.624986000000000      1.823155000000000
C       3.991033000000000      7.417932000000000      4.372390000000000
C       6.699120000000000      7.997660000000000      3.607215000000000
H       4.630972000000000      7.623808000000000      1.481871000000000
H       5.713022000000000      6.222982000000000      1.184852000000000
C       3.045668000000000      6.580239000000000      4.972321000000000
C       3.753587000000000      8.796536000000000      4.343714000000000
C       7.044936000000000      8.577063000000001      4.835350000000000
C       7.391516000000000      8.385624999999999      2.456210000000000
C       1.887298000000000      7.106781000000000      5.539755000000000
H       3.225150000000000      5.507920000000000      4.998291000000000
C       2.599773000000000      9.324051000000001      4.917270000000000
H       4.477134000000000      9.460682000000000      3.878188000000000
C       8.048316000000000      9.535463000000000      4.908928000000000
H       6.516423000000000      8.274456000000001      5.737933000000000
C       8.406012000000000      9.340254000000000      2.534118000000000
H       7.155903000000000      7.936935000000000      1.494608000000000
C       1.665738000000000      8.481214000000000      5.517178000000000
H       1.166112000000000      6.440971000000000      6.004335000000000
H       2.429485000000000     10.396134999999999      4.895212000000000
C       8.733542000000000      9.918723000000000      3.755697000000000
H       8.301240000000000      9.980223000000001      5.866395000000000
H       8.937894000000000      9.630637000000000      1.633336000000000
H       0.768552000000000      8.896229999999999      5.965953000000000
H       9.521962000000000     10.662518000000000      3.813122000000000
C       5.226879000000000      5.452613000000000      7.621869000000000
C       3.871442000000000      3.122255000000000      6.713748000000000
C       6.613022000000000      2.950210000000000      7.396187000000000
H       4.447043000000000      6.097190000000000      7.206561000000000
H       4.940786000000000      5.146333000000000      8.632462000000000
C       3.486987000000000      2.726190000000000      8.001454000000001
C       3.041963000000000      2.812487000000000      5.635210000000000
C       7.281125000000000      3.348306000000000      8.555560000000000
C       6.868654000000000      1.676286000000000      6.870167000000000
C       2.288357000000000      2.053708000000000      8.206113000000000
H       4.140435000000000      2.928859000000000      8.847092999999999
C       1.837286000000000      2.138844000000000      5.839779000000000
H       3.349320000000000      3.096041000000000      4.632545000000000
C       8.187227999999999      2.488904000000000      9.179383000000000
H       7.106691000000000      4.331237000000000      8.982316000000001
C       7.760260000000000      0.816643000000000      7.498719000000000
H       6.363219000000000      1.367093000000000      5.957674000000000
C       1.457869000000000      1.762652000000000      7.123415000000000
H       2.002769000000000      1.750485000000000      9.208655000000000
H       1.200869000000000      1.905486000000000      4.991783000000000
C       8.425724000000001      1.223606000000000      8.656034000000000
H       8.703598000000000      2.813570000000000     10.077552000000001
H       7.943610000000000     -0.169386000000000      7.083141000000000
H       0.521763000000000      1.236521000000000      7.283100000000000
H       9.129331000000001      0.555856000000000      9.143131000000000
H       6.156452000000000      6.029346000000000      7.662419000000000
H       4.056549000000000      5.956660000000000      1.761877000000000
C       7.005843000000000      2.779002000000000      3.381460000000000
C       7.025021000000000      3.853148000000000      2.465155000000000
C       8.308329000000001      4.541072000000000      2.085240000000000
O       8.803193000000000      4.067711000000000      0.811059000000000
C       8.261468000000001      4.640269000000000     -0.269105000000000
C       8.825576000000000      4.053318000000000     -1.537132000000000
O       7.424854000000000      5.514638000000000     -0.227913000000000
H       7.933163000000000      2.450350000000000      3.846855000000000
H       6.232389000000000      2.020665000000000      3.313134000000000
H       6.249062000000000      3.911668000000000      1.704037000000000
H       9.101953999999999      4.301371000000000      2.797897000000000
H       8.197307000000000      5.626616000000000      2.017299000000000
H       8.559214000000001      2.994637000000000     -1.595304000000000
H       9.915950000000000      4.119101000000000     -1.525141000000000
H       8.420980999999999      4.587226000000000     -2.395481000000000
