91

P      -4.426253000000000     -1.257680000000000      1.424202000000000
C      -5.148001000000000     -2.335114000000000      0.104584000000000
C      -5.176737000000000     -2.082032000000000      2.903376000000000
C      -5.563034000000000     -1.865617000000000     -1.145985000000000
C      -5.958196000000000     -2.747984000000000     -2.150411000000000
C      -5.934400000000000     -4.120384000000000     -1.929281000000000
C      -5.515698000000000     -4.604607000000000     -0.691733000000000
C      -5.129674000000000     -3.723206000000000      0.312234000000000
C      -4.359244000000000     -2.342015000000000      4.004982000000000
C      -4.865400000000000     -2.959010000000000      5.148549000000000
C      -6.201918000000000     -3.339193000000000      5.195848000000000
C      -7.022946000000000     -3.117909000000000      4.089820000000000
C      -6.514136000000000     -2.501944000000000      2.951375000000000
H      -5.580183000000000     -0.803559000000000     -1.355510000000000
H      -6.281477000000000     -2.354653000000000     -3.109328000000000
H      -6.237346000000000     -4.807446000000000     -2.712926000000000
H      -5.488851000000000     -5.673456000000000     -0.503710000000000
H      -4.810024000000000     -4.122315000000000      1.270889000000000
H      -3.308287000000000     -2.077475000000000      3.946788000000000
H      -4.208716000000000     -3.151380000000000      5.991861000000000
H      -6.601779000000000     -3.823514000000000      6.081328000000000
H      -8.060449000000000     -3.437030000000000      4.110458000000000
H      -7.152807000000000     -2.374011000000000      2.082454000000000
Rh     -2.065771000000000     -1.230085000000000      1.191374000000000
C      -1.973145000000000     -3.159616000000000      1.362257000000000
H      -2.212625000000000      0.342358000000000      1.131664000000000
P      -0.432788000000000     -0.537211000000000      2.736463000000000
C      -0.913794000000000      0.685679000000000      4.040964000000000
C       0.889174000000000      0.449759000000000      1.892533000000000
C      -2.195687000000000      0.620825000000000      4.591011000000000
C      -2.587448000000000      1.490210000000000      5.607204000000000
C      -1.697462000000000      2.448158000000000      6.082090000000000
C      -0.417472000000000      2.530573000000000      5.536255000000000
C      -0.027819000000000      1.657469000000000      4.524917000000000
C       2.255530000000000      0.157995000000000      1.857446000000000
C       3.151228000000000      0.991207000000000      1.186569000000000
C       2.700002000000000      2.133232000000000      0.542269000000000
C       1.341195000000000      2.440307000000000      0.567312000000000
C       0.449776000000000      1.607911000000000      1.230381000000000
H      -2.901523000000000     -0.104264000000000      4.199776000000000
H      -3.592074000000000      1.423203000000000      6.014495000000000
H      -1.999792000000000      3.133366000000000      6.868043000000000
H       0.280626000000000      3.279910000000000      5.896695000000000
H       0.971207000000000      1.735753000000000      4.105364000000000
H       2.652067000000000     -0.716630000000000      2.355354000000000
H       4.205614000000000      0.733527000000000      1.168989000000000
H       3.395983000000000      2.775816000000000      0.012871000000000
H       0.971681000000000      3.327094000000000      0.061533000000000
H      -0.609384000000000      1.853742000000000      1.236675000000000
O      -1.992180000000000     -4.300732000000000      1.486621000000000
C      -5.336178000000000      0.409875000000000      1.355259000000000
C      -4.977296000000000      1.142305000000000      2.656274000000000
C      -4.822405000000000      1.277832000000000      0.195075000000000
C      -6.860318000000000      0.274565000000000      1.260536000000000
H      -5.259619000000000      0.565696000000000      3.544565000000000
H      -3.905495000000000      1.357224000000000      2.702577000000000
H      -5.518394000000000      2.095839000000000      2.687860000000000
H      -5.162506000000000      0.937046000000000     -0.785178000000000
H      -5.209297000000000      2.295367000000000      0.330920000000000
H      -3.730690000000000      1.326598000000000      0.186715000000000
H      -7.282172000000000     -0.139051000000000      2.180094000000000
H      -7.296024000000000      1.271258000000000      1.118799000000000
H      -7.174588000000000     -0.351902000000000      0.419538000000000
C       0.437339000000000     -1.853186000000000      3.796250000000000
C      -0.658452000000000     -2.576773000000000      4.595094000000000
C       1.116462000000000     -2.898420000000000      2.897867000000000
C       1.431740000000000     -1.265837000000000      4.808686000000000
H      -1.235227000000000     -1.880660000000000      5.214990000000000
H      -1.346223000000000     -3.119658000000000      3.940510000000000
H      -0.185902000000000     -3.306120000000000      5.264468000000000
H       1.492370000000000     -3.715311000000000      3.526280000000000
H       0.410295000000000     -3.330297000000000      2.183747000000000
H       1.960606000000000     -2.504507000000000      2.329165000000000
H       1.956420000000000     -2.088107000000000      5.310819000000000
H       2.182736000000000     -0.615163000000000      4.355213000000000
H       0.909708000000000     -0.685097000000000      5.574572000000000
C      -2.194307000000000     -1.221156000000000     -1.030939000000000
C      -0.872246000000000     -0.965103000000000     -0.662710000000000
C       0.201032000000000     -2.007011000000000     -0.794366000000000
O       0.793451000000000     -1.999363000000000     -2.114395000000000
C       1.642554000000000     -0.992064000000000     -2.367776000000000
C       2.175841000000000     -1.080583000000000     -3.776135000000000
O       1.931746000000000     -0.133792000000000     -1.569860000000000
H      -2.492266000000000     -2.208249000000000     -1.380945000000000
H      -2.845144000000000     -0.408399000000000     -1.340789000000000
H      -0.504923000000000      0.057693000000000     -0.666872000000000
H      -0.210131000000000     -3.014481000000000     -0.693816000000000
H       0.999114000000000     -1.853241000000000     -0.061848000000000
H       1.348320000000000     -0.993387000000000     -4.485067000000000
H       2.646556000000000     -2.053545000000000     -3.936445000000000
H       2.895236000000000     -0.279868000000000     -3.941089000000000
