81

P      -5.152221000000000      0.740989000000000      1.364466000000000
C      -4.377958000000000      2.344865000000000      1.702747000000000
C      -6.453645000000000      1.001257000000000      0.149956000000000
C      -4.355800000000000      3.394380000000000      0.780532000000000
C      -3.646771000000000      4.556010000000000      1.067548000000000
C      -2.957302000000000      4.699980000000000      2.275331000000000
C      -3.022536000000000      3.661120000000000      3.207456000000000
C      -3.724311000000000      2.493740000000000      2.928203000000000
C      -6.155695000000000      1.243257000000000     -1.194556000000000
C      -7.182863000000000      1.496090000000000     -2.096341000000000
C      -8.517671000000000      1.486893000000000     -1.678360000000000
C      -8.802287000000000      1.226618000000000     -0.334865000000000
C      -7.781715000000000      0.986248000000000      0.579013000000000
H      -4.901232000000000      3.311749000000000     -0.156039000000000
H      -3.629879000000000      5.366882000000000      0.343723000000000
H      -2.511644000000000      3.767597000000000      4.161114000000000
H      -3.778775000000000      1.691829000000000      3.658143000000000
H      -5.126521000000000      1.240845000000000     -1.550255000000000
H      -6.931470000000000      1.705633000000000     -3.131778000000000
H      -9.836848000000000      1.213324000000000     -0.001933000000000
H      -8.003629000000000      0.776614000000000      1.621677000000000
Rh     -2.272368000000000      0.132085000000000     -0.296516000000000
C      -1.355336000000000      1.747392000000000      0.548572000000000
H      -2.919124000000000     -1.120415000000000     -0.993545000000000
P       0.597631000000000     -1.469451000000000      0.307407000000000
C      -0.651289000000000     -1.169869000000000      1.585022000000000
C       1.734142000000000     -2.674632000000000      1.041177000000000
C      -0.300698000000000     -0.348075000000000      2.669230000000000
C      -1.188533000000000     -0.159614000000000      3.716133000000000
C      -2.451583000000000     -0.772185000000000      3.719128000000000
C      -2.807131000000000     -1.567371000000000      2.629247000000000
C      -1.912604000000000     -1.784316000000000      1.572790000000000
C       3.102833000000000     -2.463717000000000      0.883775000000000
C       4.012054000000000     -3.371409000000000      1.422383000000000
C       3.573823000000000     -4.496671000000000      2.120863000000000
C       2.195965000000000     -4.697657000000000      2.272233000000000
C       1.282549000000000     -3.797016000000000      1.742492000000000
H       0.670323000000000      0.141183000000000      2.675333000000000
H      -0.904557000000000      0.471586000000000      4.554516000000000
H      -3.794688000000000     -2.020396000000000      2.604978000000000
H      -2.184023000000000     -2.464599000000000      0.769274000000000
H       3.440111000000000     -1.583808000000000      0.343450000000000
H       5.078514000000000     -3.203004000000000      1.298487000000000
H       1.841473000000000     -5.569194000000000      2.816851000000000
H       0.216311000000000     -3.963185000000000      1.882616000000000
O      -0.791092000000000      2.620746000000000      1.009999000000000
O      -5.560501000000000      0.015387000000000      2.608817000000000
O       1.315159000000000     -0.257650000000000     -0.196379000000000
H      -4.175869000000000      0.049419000000000      0.580522000000000
H      -0.134797000000000     -2.214554000000000     -0.642641000000000
C      -3.396895000000000     -0.610865000000000      4.880029000000000
H      -3.407724000000000     -1.520984000000000      5.490207000000000
H      -3.091473000000000      0.216028000000000      5.528243000000000
H      -4.413008000000000     -0.432321000000000      4.515535000000000
C       4.552993000000000     -5.472816000000000      2.720433000000000
H       4.556533000000000     -5.399618000000000      3.813331000000000
H       4.290022000000000     -6.503363000000000      2.463156000000000
H       5.569699000000000     -5.282104000000000      2.368499000000000
C      -9.627793000000000      1.724275000000000     -2.669415000000000
H     -10.535341000000001      2.078892000000000     -2.173854000000000
H      -9.333924000000000      2.461962000000000     -3.421097000000000
H      -9.878401999999999      0.798176000000000     -3.198688000000000
C      -2.137165000000000      5.932114000000000      2.551969000000000
H      -1.104735000000000      5.782608000000000      2.216168000000000
H      -2.534986000000000      6.803006000000000      2.024507000000000
H      -2.107850000000000      6.159471000000000      3.620887000000000
C      -1.196889000000000      0.231777000000000     -2.105730000000000
C      -2.416777000000000      0.930134000000000     -2.239864000000000
C      -2.450492000000000      2.434027000000000     -2.290607000000000
O      -2.471119000000000      2.904623000000000     -3.654916000000000
C      -3.655474000000000      2.835859000000000     -4.275577000000000
C      -3.555003000000000      3.322018000000000     -5.697290000000000
O      -4.666811000000000      2.429756000000000     -3.749980000000000
H      -0.259759000000000      0.765668000000000     -1.965638000000000
H      -1.093061000000000     -0.761336000000000     -2.533691000000000
H      -3.243569000000000      0.453623000000000     -2.763128000000000
H      -1.540042000000000      2.862245000000000     -1.864793000000000
H      -3.323324000000000      2.843171000000000     -1.775212000000000
H      -2.892368000000000      2.659083000000000     -6.259915000000000
H      -3.117626000000000      4.322723000000000     -5.719452000000000
H      -4.545686000000000      3.328942000000000     -6.148928000000000
