137

P      -4.027449000000000     -0.807899000000000      0.103512000000000
C      -5.561677000000000      0.238931000000000      0.067812000000000
C      -6.573315000000000     -0.003767000000000      1.009703000000000
C      -7.689319000000000      0.819864000000000      1.124580000000000
C      -7.810076000000000      1.933891000000000      0.303679000000000
C      -6.817580000000000      2.194222000000000     -0.632960000000000
C      -5.700354000000000      1.364651000000000     -0.779144000000000
H      -6.492648000000000     -0.842557000000000      1.691458000000000
H      -8.448395000000000      0.594891000000000      1.867444000000000
H      -8.658609000000000      2.603812000000000      0.397280000000000
H      -6.883339000000000      3.081014000000000     -1.256324000000000
Rh     -2.325574000000000      0.474805000000000      1.898695000000000
C      -3.184602000000000     -0.446571000000000      3.377620000000000
H      -1.523704000000000      1.290288000000000      0.802144000000000
P      -0.136606000000000     -0.424192000000000      2.054945000000000
C       0.944175000000000      0.884856000000000      2.856347000000000
C       2.121480000000000      1.530316000000000      2.430138000000000
C       2.735954000000000      2.464927000000000      3.286259000000000
C       2.233475000000000      2.771758000000000      4.539281000000000
C       1.068523000000000      2.140799000000000      4.966482000000000
C       0.448204000000000      1.226886000000000      4.130871000000000
H       3.642969000000000      2.949871000000000      2.935027000000000
H       2.740486000000000      3.494360000000000      5.170678000000000
H       0.638424000000000      2.363799000000000      5.937868000000000
H      -0.479336000000000      0.769313000000000      4.465669000000000
O      -3.634961000000000     -0.938284000000000      4.312831000000000
C       0.333244000000000     -1.782744000000000      3.288177000000000
C      -0.626295000000000     -2.975008000000000      3.394301000000000
C       1.793292000000000     -2.241579000000000      3.161285000000000
H       0.252557000000000     -1.257213000000000      4.249761000000000
C      -0.217792000000000     -3.898603000000000      4.547190000000000
H      -0.638654000000000     -3.557443000000000      2.464994000000000
H      -1.647876000000000     -2.616904000000000      3.556519000000000
C       2.181168000000000     -3.178791000000000      4.309854000000000
H       1.942914000000000     -2.766213000000000      2.207607000000000
H       2.453720000000000     -1.366183000000000      3.154120000000000
C       1.228311000000000     -4.372196000000000      4.395327000000000
H      -0.902275000000000     -4.753304000000000      4.594193000000000
H      -0.322140000000000     -3.355107000000000      5.496714000000000
H       3.214486000000000     -3.519435000000000      4.180565000000000
H       2.145685000000000     -2.620020000000000      5.255188000000000
H       1.507217000000000     -5.025091000000000      5.229422000000000
H       1.316971000000000     -4.971184000000000      3.477699000000000
C       0.681601000000000     -0.951285000000000      0.469362000000000
C       0.225468000000000     -2.344980000000000      0.005573000000000
C       0.418244000000000      0.038677000000000     -0.672834000000000
H       1.760966000000000     -0.996782000000000      0.654955000000000
C       1.034507000000000     -2.775091000000000     -1.224846000000000
H      -0.847493000000000     -2.312245000000000     -0.238471000000000
H       0.350713000000000     -3.093579000000000      0.792280000000000
C       1.225428000000000     -0.349118000000000     -1.914181000000000
H      -0.655930000000000      0.039022000000000     -0.891642000000000
H       0.658419000000000      1.059565000000000     -0.372522000000000
C       0.907351000000000     -1.774344000000000     -2.375062000000000
H       0.715968000000000     -3.771727000000000     -1.551057000000000
H       2.090932000000000     -2.858369000000000     -0.931291000000000
H       1.027907000000000      0.363968000000000     -2.723632000000000
H       2.293941000000000     -0.271181000000000     -1.675473000000000
H       1.569916000000000     -2.063294000000000     -3.198750000000000
H      -0.115515000000000     -1.812948000000000     -2.769129000000000
C      -4.562956000000000     -2.323257000000000      1.081139000000000
C      -5.729393000000000     -3.185073000000000      0.575487000000000
C      -3.338939000000000     -3.225728000000000      1.300527000000000
H      -4.834798000000000     -1.932211000000000      2.071203000000000
C      -6.061999000000000     -4.275183000000000      1.602723000000000
H      -5.441739000000000     -3.666149000000000     -0.370000000000000
H      -6.617950000000000     -2.581064000000000      0.366514000000000
C      -3.642741000000000     -4.316461000000000      2.329808000000000
H      -3.053719000000000     -3.702814000000000      0.350741000000000
H      -2.486354000000000     -2.619315000000000      1.615095000000000
C      -4.846113000000000     -5.157592000000000      1.896551000000000
H      -6.896253000000000     -4.886839000000000      1.241754000000000
H      -6.398040000000000     -3.797650000000000      2.534203000000000
H      -2.762268000000000     -4.954372000000000      2.475020000000000
H      -3.855013000000000     -3.842007000000000      3.299169000000000
H      -5.090512000000000     -5.901194000000000      2.662802000000000
H      -4.581850000000000     -5.713320000000000      0.985934000000000
C      -3.956471000000000     -1.611043000000000     -1.609569000000000
C      -5.290090000000000     -1.658541000000000     -2.368586000000000
C      -2.855645000000000     -1.087840000000000     -2.537302000000000
H      -3.679907000000000     -2.647190000000000     -1.358256000000000
C      -5.172387000000000     -2.547978000000000     -3.611100000000000
H      -5.542684000000000     -0.642069000000000     -2.685133000000000
H      -6.107697000000000     -1.999520000000000     -1.728006000000000
C      -2.719375000000000     -1.986459000000000     -3.769605000000000
H      -3.094594000000000     -0.074078000000000     -2.869649000000000
H      -1.907878000000000     -1.031462000000000     -1.996142000000000
C      -4.045907000000000     -2.066095000000000     -4.528043000000000
H      -6.126005000000000     -2.559721000000000     -4.151210000000000
H      -4.970787000000000     -3.583206000000000     -3.299062000000000
H      -1.929082000000000     -1.602352000000000     -4.425251000000000
H      -2.413308000000000     -2.996656000000000     -3.458279000000000
H      -3.954273000000000     -2.721300000000000     -5.401316000000000
H      -4.296125000000000     -1.062279000000000     -4.901172000000000
C       2.847071000000000      1.378142000000000      1.125769000000000
C       2.676176000000000      2.350911000000000      0.123273000000000
C       3.831089000000000      0.399021000000000      0.974074000000000
C       3.485549000000000      2.293804000000000     -1.012990000000000
C       4.634597000000000      0.356557000000000     -0.163221000000000
H       3.976691000000000     -0.328872000000000      1.768180000000000
C       4.463515000000000      1.312822000000000     -1.158771000000000
H       3.350148000000000      3.039642000000000     -1.792045000000000
H       5.394495000000000     -0.412140000000000     -0.262240000000000
H       5.084891000000000      1.295169000000000     -2.048759000000000
C      -4.703735000000000      1.746210000000000     -1.827911000000000
C      -3.390156000000000      2.044083000000000     -1.451073000000000
C      -5.067597000000000      1.851026000000000     -3.185470000000000
C      -2.432156000000000      2.425299000000000     -2.383684000000000
H      -3.113585000000000      1.955325000000000     -0.409419000000000
C      -4.086205000000000      2.214886000000000     -4.114126000000000
C      -2.780773000000000      2.504506000000000     -3.728375000000000
H      -1.419865000000000      2.644170000000000     -2.054238000000000
H      -4.361166000000000      2.274341000000000     -5.164696000000000
H      -2.044787000000000      2.786546000000000     -4.475141000000000
C      -6.469657000000000      1.587435000000000     -3.685367000000000
H      -7.027852000000000      0.919340000000000     -3.025902000000000
H      -7.040705000000000      2.520202000000000     -3.759006000000000
H      -6.439621000000000      1.143063000000000     -4.685129000000000
C       1.644487000000000      3.441743000000000      0.276899000000000
H       1.946920000000000      4.165895000000000      1.041578000000000
H       1.504726000000000      3.979642000000000     -0.664489000000000
H       0.674935000000000      3.037864000000000      0.592366000000000
C      -2.219250000000000      2.317200000000000      2.972446000000000
C      -3.354056000000000      2.414277000000000      2.144862000000000
C      -4.737419000000000      2.400476000000000      2.723148000000000
O      -5.105746000000000      3.707955000000000      3.233362000000000
C      -5.461245000000000      4.614556000000000      2.313441000000000
C      -5.809770000000000      5.931406000000000      2.962660000000000
O      -5.491252000000000      4.402198000000000      1.124653000000000
H      -2.355907000000000      2.172444000000000      4.044194000000000
H      -1.295294000000000      2.823511000000000      2.707715000000000
H      -3.276337000000000      2.995440000000000      1.230494000000000
H      -4.801332000000000      1.748860000000000      3.598963000000000
H      -5.485397000000000      2.107548000000000      1.985827000000000
H      -4.924689000000000      6.335491000000000      3.461164000000000
H      -6.578392000000000      5.781699000000000      3.724513000000000
H      -6.158706000000000      6.628402000000000      2.202181000000000
