51

P      -2.452143000000000     -1.264532000000000      0.300636000000000
Rh     -0.410122000000000     -1.740411000000000      1.243097000000000
C       0.685882000000000     -1.660208000000000     -0.434342000000000
H      -1.221111000000000     -1.807358000000000      2.585932000000000
P       0.661755000000000     -0.005388000000000      2.239162000000000
O       1.329054000000000     -1.583140000000000     -1.368698000000000
Cl     -0.463940000000000      1.232079000000000      3.485345000000000
Cl      1.401228000000000      1.422177000000000      0.899639000000000
Cl     -2.408660000000000     -1.210032000000000     -1.787271000000000
Cl     -3.846878000000000     -2.771584000000000      0.589506000000000
C       2.171530000000000     -0.245935000000000      3.326670000000000
C       3.172130000000000     -1.054010000000000      2.488643000000000
C       2.813594000000000      1.059062000000000      3.799393000000000
C       1.709373000000000     -1.072658000000000      4.534893000000000
H       4.057434000000000     -1.257323000000000      3.101248000000000
H       2.749533000000000     -2.011482000000000      2.170550000000000
H       3.496953000000000     -0.500103000000000      1.601729000000000
H       3.202415000000000      1.645702000000000      2.963617000000000
H       2.110006000000000      1.676424000000000      4.363900000000000
H       3.652409000000000      0.811561000000000      4.460017000000000
H       1.054198000000000     -0.492323000000000      5.190532000000000
H       1.180205000000000     -1.979861000000000      4.229490000000000
H       2.591789000000000     -1.370562000000000      5.112050000000000
C      -3.489581000000000      0.247136000000000      0.669786000000000
C      -2.613820000000000      1.461498000000000      0.332590000000000
C      -4.795319000000000      0.302450000000000     -0.124575000000000
C      -3.788423000000000      0.203472000000000      2.175338000000000
H      -2.391492000000000      1.513155000000000     -0.737805000000000
H      -3.157441000000000      2.371154000000000      0.610984000000000
H      -1.670063000000000      1.455738000000000      0.885115000000000
H      -5.432254000000000     -0.561510000000000      0.081670000000000
H      -5.340641000000000      1.205446000000000      0.172702000000000
H      -4.613295000000000      0.355639000000000     -1.200992000000000
H      -4.275156000000000      1.143192000000000      2.459643000000000
H      -4.465297000000000     -0.619616000000000      2.422822000000000
H      -2.878001000000000      0.103067000000000      2.773089000000000
C       0.526832000000000     -3.642732000000000      1.933973000000000
C      -0.661898000000000     -3.934279000000000      1.262157000000000
C      -0.661588000000000     -4.540874000000000     -0.116234000000000
O      -0.585739000000000     -5.976992000000000     -0.044837000000000
C      -1.732221000000000     -6.607812000000000      0.273807000000000
C      -1.531130000000000     -8.100569999999999      0.307974000000000
O      -2.769194000000000     -6.035761000000000      0.498598000000000
H       1.480217000000000     -3.811263000000000      1.437038000000000
H       0.557673000000000     -3.649075000000000      3.017626000000000
H      -1.564566000000000     -4.128085000000000      1.836225000000000
H       0.232043000000000     -4.252608000000000     -0.675393000000000
H      -1.558187000000000     -4.264436000000000     -0.678770000000000
H      -0.780675000000000     -8.352021000000001      1.061810000000000
H      -1.157608000000000     -8.446657999999999     -0.658795000000000
H      -2.476758000000000     -8.585986000000000      0.543638000000000
