63

P       0.486079000000000     -1.040436000000000      1.882853000000000
C       2.036793000000000     -0.083415000000000      1.761610000000000
C       2.127652000000000      1.274126000000000      2.076968000000000
C       3.342781000000000      1.941664000000000      1.935033000000000
C       4.470394000000000      1.257907000000000      1.488273000000000
C       4.386064000000000     -0.098503000000000      1.177901000000000
C       3.172142000000000     -0.764724000000000      1.308323000000000
H       1.248357000000000      1.799219000000000      2.434710000000000
H       3.408792000000000      2.997994000000000      2.176931000000000
H       5.415092000000000      1.781452000000000      1.378992000000000
H       5.263034000000000     -0.633812000000000      0.828069000000000
H       3.099502000000000     -1.821836000000000      1.057268000000000
P      -2.150207000000000     -1.305977000000000     -0.996494000000000
C      -2.032191000000000     -1.138419000000000     -2.808998000000000
C      -1.094033000000000     -0.242635000000000     -3.334313000000000
C      -0.933225000000000     -0.118403000000000     -4.710574000000000
C      -1.695094000000000     -0.906340000000000     -5.571392000000000
C      -2.615493000000000     -1.813539000000000     -5.052945000000000
C      -2.790606000000000     -1.930850000000000     -3.675540000000000
H      -0.473340000000000      0.353250000000000     -2.667697000000000
H      -0.208043000000000      0.583745000000000     -5.109678000000000
H      -1.563293000000000     -0.818994000000000     -6.645468000000000
H      -3.200050000000000     -2.437469000000000     -5.721866000000000
H      -3.494851000000000     -2.647397000000000     -3.267641000000000
Rh     -0.325631000000000     -2.113992000000000      0.085118000000000
C       1.057114000000000     -1.544956000000000     -1.179576000000000
O       1.886937000000000     -1.191207000000000     -1.882345000000000
H      -1.395754000000000     -2.527904000000000      1.168161000000000
O       0.783397000000000     -2.047956000000000      3.145831000000000
O      -2.813657000000000      0.133221000000000     -0.524322000000000
O      -3.517060000000000     -2.185786000000000     -0.962481000000000
O      -0.411767000000000      0.139073000000000      2.602690000000000
C      -1.789771000000000     -0.123089000000000      2.841241000000000
H      -2.190233000000000      0.754241000000000      3.352149000000000
H      -2.324868000000000     -0.281236000000000      1.898996000000000
H      -1.912999000000000     -1.005093000000000      3.479893000000000
C       1.311172000000000     -1.522134000000000      4.360997000000000
H       2.346415000000000     -1.194022000000000      4.221131000000000
H       0.710175000000000     -0.678613000000000      4.714702000000000
H       1.278305000000000     -2.330948000000000      5.091666000000000
C      -1.981157000000000      1.252739000000000     -0.268499000000000
H      -1.037050000000000      0.951702000000000      0.203221000000000
H      -1.771738000000000      1.791468000000000     -1.199090000000000
H      -2.527674000000000      1.913322000000000      0.408166000000000
C      -4.029581000000000     -2.666192000000000      0.270314000000000
H      -3.356688000000000     -3.408556000000000      0.709531000000000
H      -4.180106000000000     -1.842900000000000      0.977034000000000
H      -4.990719000000000     -3.128552000000000      0.043819000000000
C       0.446292000000000     -4.177422000000000      0.345800000000000
C      -0.537155000000000     -4.189530000000000     -0.652155000000000
C      -0.184099000000000     -4.321380000000000     -2.109340000000000
O      -0.335898000000000     -5.685686000000000     -2.557769000000000
C      -1.595075000000000     -6.061456000000000     -2.831084000000000
C      -1.642179000000000     -7.496964000000000     -3.288759000000000
O      -2.554996000000000     -5.336887000000000     -2.718476000000000
H       1.495609000000000     -4.237374000000000      0.064842000000000
H       0.219573000000000     -4.484620000000000      1.360687000000000
H      -1.545803000000000     -4.513330000000000     -0.407914000000000
H       0.871743000000000     -4.090051000000000     -2.274633000000000
H      -0.803324000000000     -3.685821000000000     -2.747096000000000
H      -1.271582000000000     -8.146177000000000     -2.491259000000000
H      -0.989652000000000     -7.632418000000000     -4.154577000000000
H      -2.667440000000000     -7.762576000000000     -3.541572000000000
