123

P      -3.599928000000000     -1.814448000000000     -0.054697000000000
Rh     -1.478865000000000     -1.023836000000000     -0.693045000000000
C      -1.852047000000000      0.775421000000000     -1.342221000000000
H      -1.041363000000000     -2.453501000000000     -0.181234000000000
P      -0.161481000000000     -0.365209000000000      1.106350000000000
O      -1.990008000000000      1.848400000000000     -1.718334000000000
C      -0.371778000000000      1.374472000000000      1.681890000000000
C       0.680469000000000      2.155336000000000      2.105128000000000
C      -1.687260000000000      1.919824000000000      1.700013000000000
C       0.474933000000000      3.481160000000000      2.571254000000000
H       1.695460000000000      1.763480000000000      2.094679000000000
C      -1.917026000000000      3.191004000000000      2.156317000000000
H      -2.512927000000000      1.322404000000000      1.320725000000000
C      -0.845898000000000      4.007253000000000      2.606444000000000
C       1.553437000000000      4.293360000000000      3.011667000000000
H      -2.925268000000000      3.596734000000000      2.162478000000000
C      -1.048212000000000      5.330147000000000      3.078794000000000
C       1.327970000000000      5.567071000000000      3.466096000000000
H       2.559968000000000      3.884763000000000      2.980732000000000
C       0.012084000000000      6.091398000000000      3.499352000000000
H      -2.059106000000000      5.728287000000000      3.099812000000000
H       2.157811000000000      6.180974000000000      3.801448000000000
H      -0.152315000000000      7.101989000000000      3.859618000000000
C       1.640510000000000     -0.407943000000000      0.751786000000000
C       2.548876000000000     -1.105369000000000      1.510582000000000
C       2.091133000000000      0.307158000000000     -0.396954000000000
C       3.929475000000000     -1.127320000000000      1.166717000000000
H       2.228243000000000     -1.655787000000000      2.391660000000000
C       3.414640000000000      0.315457000000000     -0.741241000000000
H       1.363576000000000      0.845971000000000     -0.999772000000000
C       4.372630000000000     -0.403372000000000      0.026708000000000
C       4.878427000000000     -1.846797000000000      1.937932000000000
H       3.751720000000000      0.866726000000000     -1.615189000000000
C       5.750107000000000     -0.422904000000000     -0.309004000000000
C       6.206005000000000     -1.847134000000000      1.591298000000000
H       4.532071000000000     -2.398485000000000      2.807861000000000
C       6.646568000000000     -1.127485000000000      0.454791000000000
H       6.082690000000000      0.130589000000000     -1.183132000000000
H       6.924644000000000     -2.400958000000000      2.187042000000000
H       7.699094000000000     -1.136185000000000      0.189689000000000
C      -0.267340000000000     -1.306442000000000      2.688340000000000
C      -0.624729000000000     -2.635347000000000      2.658673000000000
C       0.025033000000000     -0.700513000000000      3.943675000000000
C      -0.723664000000000     -3.404627000000000      3.846655000000000
H      -0.868976000000000     -3.108726000000000      1.711428000000000
C      -0.060968000000000     -1.420712000000000      5.106685000000000
H       0.311181000000000      0.345971000000000      3.980139000000000
C      -0.446586000000000     -2.786636000000000      5.096134000000000
C      -1.117648000000000     -4.768691000000000      3.821824000000000
H       0.150453000000000     -0.945001000000000      6.061057000000000
C      -0.568394000000000     -3.551752000000000      6.285255000000000
C      -1.228606000000000     -5.483752000000000      4.986265000000000
H      -1.341479000000000     -5.228340000000000      2.862428000000000
C      -0.947433000000000     -4.868340000000000      6.231670000000000
H      -0.361568000000000     -3.072123000000000      7.238386000000000
H      -1.532000000000000     -6.525723000000000      4.959623000000000
H      -1.039996000000000     -5.445647000000000      7.146461000000000
C      -3.979440000000000     -3.326902000000000     -1.029164000000000
C      -4.916764000000000     -3.341408000000000     -2.035363000000000
C      -3.146384000000000     -4.471843000000000     -0.843379000000000
C      -5.066267000000000     -4.471313000000000     -2.888546000000000
H      -5.556807000000000     -2.481189000000000     -2.216585000000000
C      -3.281062000000000     -5.577739000000000     -1.636739000000000
H      -2.387525000000000     -4.452446000000000     -0.064247000000000
C      -4.239197000000000     -5.608991000000000     -2.688283000000000
C      -6.022233000000000     -4.487010000000000     -3.938187000000000
H      -2.644932000000000     -6.445350000000000     -1.481549000000000
C      -4.392381000000000     -6.732173000000000     -3.541138000000000
C      -6.155345000000000     -5.591004000000000     -4.742579000000000
H      -6.627988000000000     -3.600963000000000     -4.102073000000000
C      -5.331623000000000     -6.725444000000000     -4.542754000000000
H      -3.755363000000000     -7.598747000000000     -3.384776000000000
H      -6.888171000000000     -5.594857000000000     -5.543363000000000
H      -5.444341000000000     -7.590763000000000     -5.188480000000000
C      -3.848848000000000     -2.339182000000000      1.688964000000000
C      -3.554078000000000     -1.412975000000000      2.663383000000000
C      -4.313766000000000     -3.625626000000000      2.079594000000000
C      -3.684572000000000     -1.711398000000000      4.041586000000000
H      -3.181999000000000     -0.428492000000000      2.386319000000000
C      -4.427576000000000     -3.951121000000000      3.407932000000000
H      -4.580673000000000     -4.354704000000000      1.321001000000000
C      -4.108362000000000     -3.013756000000000      4.424509000000000
C      -3.374246000000000     -0.756948000000000      5.046081000000000
H      -4.764957000000000     -4.942389000000000      3.700177000000000
C      -4.194718000000000     -3.329153000000000      5.805177000000000
C      -3.475486000000000     -1.087891000000000      6.372616000000000
H      -3.041076000000000      0.231631000000000      4.739337000000000
C      -3.887020000000000     -2.389019000000000      6.755058000000000
H      -4.503223000000000     -4.330190000000000      6.094729000000000
H      -3.233558000000000     -0.355891000000000      7.136941000000000
H      -3.952926000000000     -2.640447000000000      7.809197000000000
C      -5.096870000000000     -0.778030000000000     -0.341067000000000
C      -6.201009000000000     -0.843068000000000      0.479028000000000
C      -5.121469000000000      0.095899000000000     -1.464324000000000
C      -7.352505000000000     -0.051949000000000      0.228584000000000
H      -6.209686000000000     -1.504462000000000      1.341795000000000
C      -6.226434000000000      0.857813000000000     -1.740422000000000
H      -4.254925000000000      0.154809000000000     -2.115193000000000
C      -7.370137000000000      0.811223000000000     -0.901426000000000
C      -8.491548999999999     -0.103698000000000      1.075536000000000
H      -6.234889000000000      1.512810000000000     -2.607273000000000
C      -8.525745000000001      1.596818000000000     -1.150745000000000
C      -9.594620000000001      0.665540000000000      0.809778000000000
H      -8.470193999999999     -0.765299000000000      1.937387000000000
C      -9.611473999999999      1.525766000000000     -0.316367000000000
H      -8.533198000000001      2.254545000000000     -2.015691000000000
H     -10.461251000000001      0.619509000000000      1.461572000000000
H     -10.491323000000000      2.129461000000000     -0.515375000000000
C      -0.128877000000000     -1.449285000000000     -2.379884000000000
C      -1.376967000000000     -2.044219000000000     -2.622942000000000
C      -2.373802000000000     -1.513482000000000     -3.612211000000000
O      -2.426667000000000     -2.421429000000000     -4.729389000000000
C      -3.626990000000000     -2.582744000000000     -5.310284000000000
C      -3.593428000000000     -3.720626000000000     -6.296025000000000
O      -4.601194000000000     -1.917778000000000     -5.046154000000000
H       0.147333000000000     -0.543104000000000     -2.915807000000000
H       0.704636000000000     -2.038731000000000     -2.012054000000000
H      -1.501633000000000     -3.106136000000000     -2.422126000000000
H      -2.091327000000000     -0.515952000000000     -3.974616000000000
H      -3.380586000000000     -1.462301000000000     -3.197061000000000
H      -3.517456000000000     -4.660302000000000     -5.738097000000000
H      -2.717634000000000     -3.638238000000000     -6.943103000000000
H      -4.511498000000000     -3.721801000000000     -6.882065000000000
