103

P      -3.272871000000000     -2.677834000000000      0.239326000000000
C      -4.755361000000000     -2.154209000000000      1.207260000000000
C      -3.849219000000000     -4.293407000000000     -0.442248000000000
C      -3.278123000000000     -1.576764000000000     -1.232107000000000
C      -5.707476000000000     -1.242040000000000      0.745982000000000
C      -6.786847000000000     -0.887863000000000      1.548887000000000
C      -6.934094000000000     -1.449966000000000      2.816478000000000
C      -5.992662000000000     -2.363662000000000      3.279969000000000
C      -4.902904000000000     -2.706351000000000      2.481781000000000
C      -3.093241000000000     -5.443039000000000     -0.215542000000000
C      -3.522630000000000     -6.699136000000000     -0.644936000000000
C      -4.736405000000000     -6.812013000000000     -1.307670000000000
C      -5.520275000000000     -5.684413000000000     -1.547520000000000
C      -5.081137000000000     -4.430804000000000     -1.119613000000000
C      -3.097110000000000     -0.196657000000000     -1.018953000000000
C      -2.978663000000000      0.681714000000000     -2.097394000000000
C      -3.008622000000000      0.180698000000000     -3.397430000000000
C      -3.168726000000000     -1.180329000000000     -3.626485000000000
C      -3.309530000000000     -2.045701000000000     -2.543643000000000
H      -5.604554000000000     -0.816416000000000     -0.248529000000000
H      -7.517219000000000     -0.171353000000000      1.184229000000000
H      -7.777751000000000     -1.171842000000000      3.440759000000000
H      -6.096745000000000     -2.802635000000000      4.267469000000000
H      -4.150246000000000     -3.400218000000000      2.850515000000000
H      -2.153766000000000     -5.338422000000000      0.318363000000000
H      -2.914407000000000     -7.576569000000000     -0.453000000000000
H      -5.088910000000000     -7.781885000000000     -1.645446000000000
H      -6.465043000000000     -5.788622000000000     -2.067743000000000
H      -2.842337000000000      1.743323000000000     -1.927580000000000
H      -2.903778000000000      0.867118000000000     -4.232116000000000
H      -3.185139000000000     -1.570673000000000     -4.638565000000000
H      -3.435725000000000     -3.110067000000000     -2.722999000000000
Rh     -1.260565000000000     -2.666351000000000      1.486923000000000
C      -1.879122000000000     -1.137529000000000      2.558029000000000
H      -0.824902000000000     -3.915153000000000      0.644831000000000
P       0.411257000000000     -1.599095000000000      0.192054000000000
C       0.641913000000000     -2.068244000000000     -1.568731000000000
C       2.090656000000000     -1.919283000000000      0.902512000000000
C       0.331496000000000      0.245035000000000      0.152145000000000
C       1.713631000000000     -1.579177000000000     -2.344455000000000
C       1.866000000000000     -1.981840000000000     -3.672053000000000
C       0.964398000000000     -2.890326000000000     -4.226136000000000
C      -0.079825000000000     -3.402183000000000     -3.469049000000000
C      -0.227231000000000     -2.989356000000000     -2.145411000000000
C       2.525842000000000     -3.259393000000000      0.951436000000000
C       3.658222000000000     -3.618693000000000      1.682279000000000
C       4.393223000000000     -2.636070000000000      2.344631000000000
C       4.015497000000000     -1.303504000000000      2.258214000000000
C       2.876252000000000     -0.955684000000000      1.532114000000000
C       0.239791000000000      0.983842000000000     -1.030972000000000
C       0.203134000000000      2.377461000000000     -0.996744000000000
C       0.255862000000000      3.054872000000000      0.219095000000000
C       0.302306000000000      2.327878000000000      1.407429000000000
C       0.321854000000000      0.936228000000000      1.371993000000000
H       2.682387000000000     -1.601786000000000     -4.274534000000000
H       1.094158000000000     -3.198123000000000     -5.259389000000000
H      -0.776534000000000     -4.115991000000000     -3.896473000000000
H      -1.024256000000000     -3.399455000000000     -1.532867000000000
H       3.972830000000000     -4.654567000000000      1.733674000000000
H       5.270006000000000     -2.922080000000000      2.918060000000000
H       4.586101000000000     -0.534827000000000      2.767471000000000
H       2.591136000000000      0.088536000000000      1.473778000000000
H       0.198909000000000      0.472576000000000     -1.987939000000000
H       0.140843000000000      2.932894000000000     -1.928275000000000
H       0.243449000000000      4.140281000000000      0.242400000000000
H       0.320593000000000      2.840275000000000      2.364287000000000
H       0.361666000000000      0.381324000000000      2.307353000000000
O      -2.301241000000000     -0.269548000000000      3.173021000000000
O       2.553312000000000     -0.713898000000000     -1.725714000000000
O       1.778680000000000     -4.147715000000000      0.248291000000000
O      -5.778543000000000     -3.290951000000000     -1.332790000000000
O      -3.061398000000000      0.191828000000000      0.278409000000000
C      -7.088630000000000     -3.383376000000000     -1.842719000000000
H      -7.487499000000000     -2.368961000000000     -1.823986000000000
H      -7.091134000000000     -3.757455000000000     -2.873548000000000
H      -7.711549000000000     -4.032563000000000     -1.216651000000000
C      -3.081079000000000      1.574628000000000      0.567360000000000
H      -2.192132000000000      2.072867000000000      0.170040000000000
H      -3.986564000000000      2.039610000000000      0.157045000000000
H      -3.085748000000000      1.650313000000000      1.654291000000000
C       3.612488000000000     -0.156184000000000     -2.467024000000000
H       4.141461000000000      0.503920000000000     -1.780051000000000
H       4.297897000000000     -0.931640000000000     -2.828726000000000
H       3.238335000000000      0.424088000000000     -3.319730000000000
C       2.038335000000000     -5.522480000000000      0.403102000000000
H       3.024297000000000     -5.790006000000000      0.004005000000000
H       1.979657000000000     -5.822326000000000      1.457295000000000
H       1.264257000000000     -6.037615000000000     -0.166295000000000
C      -1.371498000000000     -4.061903000000000      3.157406000000000
C      -0.045155000000000     -3.602260000000000      2.991012000000000
C       0.603915000000000     -2.625711000000000      3.926805000000000
O       1.508242000000000     -3.355879000000000      4.784943000000000
C       2.467480000000000     -2.628166000000000      5.372966000000000
C       3.452589000000000     -3.518632000000000      6.088917000000000
O       2.537048000000000     -1.424223000000000      5.317472000000000
H      -1.964074000000000     -3.681310000000000      3.987978000000000
H      -1.653245000000000     -5.054585000000000      2.819151000000000
H       0.669214000000000     -4.250972000000000      2.490110000000000
H      -0.139024000000000     -2.111514000000000      4.550245000000000
H       1.196580000000000     -1.874041000000000      3.400528000000000
H       4.007571000000000     -4.098742000000000      5.345624000000000
H       2.926385000000000     -4.224268000000000      6.735349000000000
H       4.140887000000000     -2.906602000000000      6.670048000000000
