69

H       4.049897000000000      6.319632000000000      4.850517000000000
Rh      5.195540000000000      5.372342000000000      4.313211000000000
C       6.606445000000000      4.218156000000000      3.624490000000000
O       7.393768000000000      3.518319000000000      3.174977000000000
P       6.241627000000000      7.467663000000000      4.190273000000000
C       6.406481000000000      8.566830000000000      5.687106000000000
C       7.956927000000000      7.579028000000000      3.468688000000000
C       5.264656000000000      8.529472999999999      3.012252000000000
C       5.218346000000000      8.457335000000000      6.648388000000000
H       7.307715000000000      8.269292000000000      6.229553000000000
H       6.567583000000000      9.603450000000000      5.371931000000000
C       9.000724999999999      6.631585000000000      4.083526000000000
H       7.849051000000000      7.311528000000000      2.410819000000000
H       8.321481000000000      8.608924999999999      3.505510000000000
C       5.380260000000000     10.061026000000000      3.047722000000000
H       5.466417000000000      8.156359000000000      2.002681000000000
H       4.216715000000000      8.295818000000001      3.214109000000000
H       5.106600000000000      7.422913000000000      6.985991000000000
H       5.369649000000000      9.074501000000000      7.539259000000000
H       8.668094999999999      5.589289000000000      4.064753000000000
H       9.927495000000000      6.686046000000000      3.503392000000000
H       4.767658000000000     10.469179000000000      2.237069000000000
H       4.967340000000000     10.457376000000000      3.980979000000000
P       4.851745000000000      4.244992000000000      6.321971000000000
C       5.264530000000000      2.422927000000000      6.342759000000000
C       5.763839000000000      4.712422000000000      7.887652000000000
C       3.098959000000000      4.154607000000000      6.948037000000000
C       4.887470000000000      1.620932000000000      5.089974000000000
H       6.351281000000000      2.356251000000000      6.456185000000000
H       4.809268000000000      1.969020000000000      7.231359000000000
C       7.159603000000000      5.286898000000000      7.614060000000000
H       5.182814000000000      5.473808000000000      8.416973000000000
H       5.826225000000000      3.836317000000000      8.543754000000000
C       2.305774000000000      5.469178000000000      6.966037000000000
H       2.572854000000000      3.466735000000000      6.280243000000000
H       3.104663000000000      3.703275000000000      7.947582000000000
H       5.360842000000000      2.051067000000000      4.202951000000000
H       5.255385000000000      0.594577000000000      5.188224000000000
H       7.075059000000000      6.215349000000000      7.042668000000000
H       7.684212000000000      5.524016000000000      8.544411000000000
H       2.346416000000000      5.960792000000000      5.987926000000000
H       1.254793000000000      5.261307000000000      7.190133000000000
C       9.327394000000000      6.955531000000000      5.476479000000000
C       6.743896000000000     10.575474000000000      2.888355000000000
C       3.945956000000000      8.840674000000000      6.025840000000000
C       7.999685000000000      4.383524000000000      6.818614000000000
C       2.800183000000000      6.415895000000000      7.971096000000000
C       3.441525000000000      1.562696000000000      4.848933000000000
N       2.299057000000000      1.537692000000000      4.674450000000000
N       7.828198000000000     10.962455000000000      2.783226000000000
N       2.964193000000000      9.132455000000000      5.488575000000000
N       9.549231000000001      7.211898000000000      6.582060000000000
N       8.618575999999999      3.654971000000000      6.167383000000000
N       3.224740000000000      7.137157000000000      8.769242000000000
C       3.584476000000000      4.414893000000000      3.124980000000000
C       4.102978000000000      5.499289000000000      2.403608000000000
C       4.970599000000000      5.279319000000000      1.193098000000000
O       4.190890000000000      5.325858000000000     -0.018018000000000
C       3.890519000000000      6.553612000000000     -0.468430000000000
C       3.043718000000000      6.485727000000000     -1.710765000000000
O       4.258921000000000      7.573018000000000      0.068331000000000
H       3.840119000000000      3.401683000000000      2.822101000000000
H       2.642471000000000      4.500240000000000      3.657503000000000
H       3.552104000000000      6.435773000000000      2.395635000000000
H       5.405977000000000      4.276954000000000      1.202586000000000
H       5.770338000000000      6.020828000000000      1.109077000000000
H       2.090519000000000      6.006025000000000     -1.473536000000000
H       3.541615000000000      5.874949000000000     -2.467367000000000
H       2.871763000000000      7.492652000000000     -2.087304000000000
