76

Rh     -2.222037000000000      5.342351000000000     -0.209996000000000
H      -3.696423000000000      5.133123000000000     -0.675883000000000
C      -1.987525000000000      3.488548000000000     -0.658510000000000
O      -1.967987000000000      2.385684000000000     -0.971196000000000
P       0.090744000000000      5.786704000000000      0.393707000000000
P      -2.992936000000000      5.331732000000000      2.033114000000000
O      -0.490041000000000      3.143247000000000      1.788080000000000
C       0.667717000000000      5.301232000000000      2.091836000000000
C      -2.163012000000000      4.205146000000000      3.277359000000000
C       0.649209000000000      3.782813000000000      2.317635000000000
C      -1.572198000000000      2.933066000000000      2.665956000000000
C       1.376470000000000      5.081216000000000     -0.708420000000000
C       0.502498000000000      7.577583000000000      0.397340000000000
C      -2.977116000000000      6.950174000000000      2.912979000000000
C      -4.746971000000000      4.814286000000000      2.290556000000000
C       2.729437000000000      5.055086000000000     -0.343904000000000
C      -0.032174000000000      8.392156000000000      1.405619000000000
C      -3.525853000000000      8.027659999999999      2.203961000000000
C      -5.324619000000000      3.901760000000000      1.402710000000000
C       1.008261000000000      4.636818000000000     -1.981583000000000
C       1.219814000000000      8.173049000000001     -0.644007000000000
C      -2.424142000000000      7.175012000000000      4.177225000000000
C      -5.486479000000000      5.292876000000000      3.376617000000000
C       3.689178000000000      4.577039000000000     -1.228858000000000
C       0.160911000000000      9.768962999999999      1.381107000000000
C      -3.499934000000000      9.326045000000001      2.730693000000000
C      -6.642927000000000      3.449450000000000      1.592252000000000
C       1.974069000000000      4.179797000000000     -2.877187000000000
C       1.406987000000000      9.554760000000000     -0.669386000000000
C      -2.388943000000000      8.471662000000000      4.724804000000000
C      -6.814109000000000      4.875776000000000      3.584417000000000
C       3.311598000000000      4.140475000000000     -2.499058000000000
C       0.881866000000000     10.354142000000000      0.341130000000000
C      -2.926980000000000      9.478614000000000      3.968676000000000
C      -7.287385000000000      3.982282000000000      2.670672000000000
H       1.678700000000000      5.682526000000000      2.271939000000000
H       0.009971000000000      5.831221000000000      2.788937000000000
H      -1.363211000000000      4.748888000000000      3.785539000000000
H      -2.893069000000000      3.929680000000000      4.047074000000000
H       0.759503000000000      3.557617000000000      3.389949000000000
H       1.505426000000000      3.343737000000000      1.795356000000000
H      -2.325053000000000      2.402275000000000      2.073345000000000
H      -1.258020000000000      2.266048000000000      3.484361000000000
H       3.042612000000000      5.425098000000000      0.628892000000000
H      -0.626334000000000      7.959863000000000      2.207220000000000
H      -3.950516000000000      7.856107000000000      1.216709000000000
H      -4.758925000000000      3.550087000000000      0.542164000000000
H      -0.031116000000000      4.669738000000000     -2.292820000000000
H       1.634227000000000      7.558855000000000     -1.438934000000000
H      -2.024611000000000      6.356618000000000      4.770608000000000
H      -5.050057000000000      6.012162000000000      4.067992000000000
H       4.733416000000000      4.555137000000000     -0.932685000000000
H      -0.266301000000000     10.379915000000000      2.170813000000000
H      -3.904951000000000     10.153468000000000      2.152343000000000
H      -7.090484000000000      2.738261000000000      0.903434000000000
H       1.667645000000000      3.869332000000000     -3.870449000000000
H       1.965102000000000     10.003964000000000     -1.485032000000000
H      -1.965506000000000      8.629861000000000      5.714352000000000
H      -7.392147000000000      5.266678000000000      4.417765000000000
H       4.064197000000000      3.779319000000000     -3.193201000000000
H       1.027673000000000     11.429535000000000      0.316833000000000
C      -2.572365000000000      7.353476000000000     -0.965925000000000
C      -1.962712000000000      6.551378000000000     -1.959025000000000
C      -2.717336000000000      6.019150000000000     -3.146222000000000
O      -2.485209000000000      6.837203000000000     -4.317375000000000
C      -1.320317000000000      6.625815000000000     -4.942424000000000
C      -1.161730000000000      7.550334000000000     -6.122523000000000
O      -0.504599000000000      5.801772000000000     -4.596438000000000
H      -3.636288000000000      7.566471000000000     -1.050414000000000
H      -1.991985000000000      8.111235000000001     -0.444117000000000
H      -0.903110000000000      6.707172000000000     -2.163909000000000
H      -3.794782000000000      6.063411000000000     -2.975257000000000
H      -2.427121000000000      4.995055000000000     -3.392369000000000
H      -1.123501000000000      8.584256000000000     -5.769245000000000
H      -2.024585000000000      7.459911000000000     -6.786319000000000
H      -0.244301000000000      7.304443000000000     -6.655041000000000
