69

H       7.200782000000000      6.041697000000000      6.321751000000000
Rh      7.250718000000000      5.100041000000000      5.063658000000000
C       7.352970000000000      4.012324000000000      3.410446000000000
O       7.407903000000000      3.422218000000000      2.435359000000000
P       6.211460000000000      6.926648000000000      4.132421000000000
C       4.645500000000000      7.375569000000000      4.940486000000000
C       7.094164000000000      8.507452000000001      4.111435000000000
C       5.666695000000000      6.880420000000000      2.397622000000000
O       4.435441000000000      6.832324000000000      6.168923000000000
C       3.523052000000000      8.032686000000000      4.531687000000000
O       6.419111000000000      9.657914000000000      3.819540000000000
C       8.409414000000000      8.789104000000000      4.329011000000000
O       5.167474000000000      5.693267000000000      1.956827000000000
C       5.668232000000000      7.785563000000000      1.376187000000000
C       3.172897000000000      7.131084000000000      6.537494000000000
C       2.559331000000000      7.872701000000000      5.576335000000000
H       3.405340000000000      8.548947000000000      3.589526000000000
C       7.317219000000000     10.668063000000000      3.854838000000000
C       8.556001000000000     10.202074000000000      4.159039000000000
H       9.168208999999999      8.062576999999999      4.578536000000000
C       4.848126000000000      5.846507000000000      0.653412000000000
C       5.131546000000000      7.107411000000000      0.235838000000000
H       6.009271000000000      8.808403999999999      1.437435000000000
H       2.867489000000000      6.751497000000000      7.501020000000000
H       1.548638000000000      8.251846000000000      5.604374000000000
H       6.923812000000000     11.652436000000000      3.652498000000000
H       9.457526000000000     10.787822000000000      4.257650000000000
H       4.441871000000000      4.973931000000000      0.165934000000000
H       4.984591000000000      7.505471000000000     -0.756994000000000
P       5.572605000000000      3.888162000000000      6.124064000000000
C       5.919731000000000      2.110145000000000      6.230815000000000
C       5.250512000000000      4.224594000000000      7.872161000000000
C       3.887418000000000      3.887624000000000      5.438766000000000
O       6.089318000000000      1.476370000000000      5.035603000000000
C       6.249925000000000      1.272140000000000      7.252238000000000
O       4.329498000000000      3.460165000000000      8.530915000000000
C       5.745508000000000      5.173586000000000      8.715309000000000
O       3.693736000000000      4.696138000000000      4.361917000000000
C       2.713775000000000      3.271395000000000      5.764038000000000
C       6.519756000000000      0.220365000000000      5.305470000000000
C       6.642157000000000      0.036031000000000      6.644552000000000
H       6.245760000000000      1.515064000000000      8.304121000000000
C       4.246817000000000      3.931713000000000      9.794542000000000
C       5.089582000000000      4.981885000000000      9.972443999999999
H       6.481149000000000      5.919300000000000      8.452840000000000
C       2.398069000000000      4.603504000000000      4.009499000000000
C       1.739625000000000      3.739818000000000      4.829168000000000
H       2.576568000000000      2.573115000000000      6.576850000000000
H       6.684022000000000     -0.411980000000000      4.447050000000000
H       6.974184000000000     -0.861309000000000      7.144557000000000
H       3.554194000000000      3.417382000000000     10.442931000000000
H       5.231040000000000      5.547188000000000     10.881268000000000
H       2.101039000000000      5.206938000000000      3.165415000000000
H       0.694976000000000      3.471655000000000      4.776444000000000
C       9.411645000000000      5.330460000000000      5.301127000000000
C       8.972282999999999      4.216812000000000      6.045969000000000
C       9.271376000000000      2.810676000000000      5.604306000000000
O      10.501048000000001      2.330781000000000      6.196059000000000
C      10.405918000000000      1.896267000000000      7.461250000000000
C      11.746819000000000      1.429926000000000      7.970928000000000
O       9.381095000000000      1.885846000000000      8.100130999999999
H       9.944834000000000      5.175436000000000      4.365344000000000
H       9.640494000000000      6.259336000000000      5.813072000000000
H       8.838336999999999      4.318831000000000      7.120739000000000
H       9.454425000000001      2.769184000000000      4.527362000000000
H       8.474682000000000      2.113855000000000      5.874416000000000
H      12.448684999999999      2.267941000000000      7.968891000000000
H      12.150086000000000      0.660347000000000      7.308436000000000
H      11.634031000000000      1.039644000000000      8.981227000000001
