79

P       2.014339000000000     -0.457329000000000      1.271040000000000
C       2.720581000000000     -0.132437000000000     -0.400425000000000
C       2.238232000000000     -2.276528000000000      1.399932000000000
C       2.096032000000000      0.794990000000000     -1.233582000000000
C       2.625708000000000      1.098153000000000     -2.487718000000000
C       3.791998000000000      0.473021000000000     -2.915373000000000
C       4.427384000000000     -0.455139000000000     -2.088693000000000
C       3.895833000000000     -0.756460000000000     -0.839756000000000
C       1.856083000000000     -3.098816000000000      0.332889000000000
C       1.910147000000000     -4.483622000000000      0.450205000000000
C       2.344192000000000     -5.068915000000000      1.638251000000000
C       2.721542000000000     -4.260819000000000      2.706621000000000
C       2.666707000000000     -2.873227000000000      2.589750000000000
H       1.183236000000000      1.274538000000000     -0.895138000000000
H       2.119986000000000      1.816581000000000     -3.126179000000000
H       4.207422000000000      0.702691000000000     -3.891790000000000
H       5.336355000000000     -0.946633000000000     -2.421813000000000
H       4.386191000000000     -1.492666000000000     -0.206991000000000
H       1.519013000000000     -2.649405000000000     -0.598843000000000
H       1.611356000000000     -5.106661000000000     -0.387028000000000
H       2.385425000000000     -6.149543000000000      1.730488000000000
H       3.059446000000000     -4.708774000000000      3.636061000000000
H       2.955566000000000     -2.257193000000000      3.436750000000000
P      -1.372471000000000      1.786105000000000      0.822652000000000
C      -3.059363000000000      1.919248000000000      1.537825000000000
C      -1.749979000000000      1.644585000000000     -0.976084000000000
C      -4.120660000000000      1.173907000000000      1.010289000000000
C      -5.331607000000000      1.086807000000000      1.691549000000000
C      -5.502592000000000      1.747597000000000      2.905824000000000
C      -4.459212000000000      2.507212000000000      3.429469000000000
C      -3.245489000000000      2.591125000000000      2.751015000000000
C      -1.252412000000000      0.565048000000000     -1.708268000000000
C      -1.513895000000000      0.450492000000000     -3.073855000000000
C      -2.280726000000000      1.415774000000000     -3.717135000000000
C      -2.794115000000000      2.492796000000000     -2.993277000000000
C      -2.532936000000000      2.604023000000000     -1.632537000000000
H      -3.991021000000000      0.637046000000000      0.073916000000000
H      -6.135990000000000      0.482837000000000      1.284587000000000
H      -6.439730000000000      1.657673000000000      3.445885000000000
H      -4.582997000000000      3.027941000000000      4.374528000000000
H      -2.430818000000000      3.160642000000000      3.190412000000000
H      -0.646918000000000     -0.184768000000000     -1.204975000000000
H      -1.116454000000000     -0.393100000000000     -3.629474000000000
H      -2.485431000000000      1.329645000000000     -4.779785000000000
H      -3.402141000000000      3.242224000000000     -3.490453000000000
H      -2.956225000000000      3.433471000000000     -1.071057000000000
Rh     -0.123578000000000      0.175360000000000      1.957857000000000
C      -1.005476000000000     -1.414370000000000      1.215611000000000
O      -1.489824000000000     -2.335616000000000      0.741521000000000
H       0.605633000000000      1.456905000000000      2.523790000000000
C      -0.773365000000000      3.538038000000000      0.937355000000000
H      -0.621089000000000      3.739812000000000      2.002443000000000
H      -1.556618000000000      4.214931000000000      0.578573000000000
C       0.532979000000000      3.760113000000000      0.179748000000000
H       0.405391000000000      3.567823000000000     -0.891277000000000
H       0.874315000000000      4.792671000000000      0.297295000000000
H       1.317302000000000      3.095752000000000      0.556167000000000
C       3.395966000000000      0.183126000000000      2.331527000000000
H       3.115730000000000     -0.008943000000000      3.372627000000000
H       4.302659000000000     -0.393469000000000      2.112918000000000
C       3.639618000000000      1.676887000000000      2.127998000000000
H       3.907094000000000      1.895731000000000      1.089167000000000
H       2.743319000000000      2.250998000000000      2.381067000000000
H       4.457019000000000      2.021108000000000      2.768138000000000
C       0.032217000000000     -0.551267000000000      4.017643000000000
C      -1.176178000000000      0.156003000000000      3.872922000000000
C      -2.502360000000000     -0.548035000000000      3.823456000000000
O      -3.143613000000000     -0.362848000000000      5.103871000000000
C      -4.435785000000000     -0.714808000000000      5.156939000000000
C      -5.040654000000000     -0.346369000000000      6.488999000000000
O      -5.032126000000000     -1.237072000000000      4.246886000000000
H       0.017084000000000     -1.638600000000000      4.065131000000000
H       0.880675000000000     -0.080717000000000      4.505161000000000
H      -1.234924000000000      1.177536000000000      4.242280000000000
H      -2.373569000000000     -1.622828000000000      3.643583000000000
H      -3.174059000000000     -0.152250000000000      3.059529000000000
H      -5.117891000000000      0.743201000000000      6.554437000000000
H      -4.398346000000000     -0.682666000000000      7.305405000000000
H      -6.031758000000000     -0.789982000000000      6.572568000000000
