123

P      -4.073845000000000     -2.169554000000000     -0.311524000000000
C      -4.612122000000000     -0.564549000000000     -1.014654000000000
C      -5.602496000000000     -2.755978000000000      0.536101000000000
C      -3.962171000000000     -3.267225000000000     -1.777879000000000
C      -5.725395000000000     -0.472418000000000     -1.858393000000000
C      -6.116731000000000      0.767345000000000     -2.347656000000000
C      -5.412213000000000      1.917273000000000     -1.994236000000000
C      -4.303178000000000      1.843923000000000     -1.148822000000000
C      -3.911527000000000      0.588048000000000     -0.668919000000000
C      -6.592851000000000     -3.507642000000000     -0.104903000000000
C      -7.729931000000000     -3.915051000000000      0.589410000000000
C      -7.894954000000000     -3.571022000000000      1.928154000000000
C      -6.920069000000000     -2.811220000000000      2.570810000000000
C      -5.780581000000000     -2.408708000000000      1.880406000000000
C      -3.673624000000000     -2.773605000000000     -3.052367000000000
C      -3.431924000000000     -3.654232000000000     -4.106512000000000
C      -3.475476000000000     -5.029716000000000     -3.898788000000000
C      -3.759806000000000     -5.529455000000000     -2.628326000000000
C      -3.996235000000000     -4.652675000000000     -1.576121000000000
H      -6.280951000000000     -1.367246000000000     -2.128857000000000
H      -6.980560000000000      0.844069000000000     -3.000856000000000
H      -5.726322000000000      2.883654000000000     -2.374495000000000
H      -3.065477000000000      0.506574000000000      0.004905000000000
H      -6.471656000000000     -3.793239000000000     -1.145557000000000
H      -8.485458000000000     -4.506009000000000      0.080983000000000
H      -8.779125000000001     -3.894447000000000      2.468785000000000
H      -7.043230000000000     -2.536191000000000      3.614160000000000
H      -5.010591000000000     -1.824748000000000      2.377261000000000
H      -3.633489000000000     -1.701680000000000     -3.224166000000000
H      -3.208196000000000     -3.259191000000000     -5.092854000000000
H      -3.286098000000000     -5.710328000000000     -4.723216000000000
H      -3.800740000000000     -6.597672000000000     -2.439991000000000
H      -4.217666000000000     -5.064140000000000     -0.594920000000000
Rh     -2.168829000000000     -2.095113000000000      0.999725000000000
C      -1.128309000000000     -3.250920000000000     -0.097330000000000
H      -3.034900000000000     -0.976106000000000      1.832287000000000
P      -0.521182000000000     -1.351388000000000      2.403086000000000
C      -0.159150000000000      0.438027000000000      2.244102000000000
C       1.143236000000000     -2.122380000000000      2.242514000000000
C      -0.836115000000000     -1.540403000000000      4.211503000000000
C      -0.425620000000000      1.061271000000000      1.020666000000000
C      -0.153040000000000      2.412548000000000      0.841296000000000
C       0.391653000000000      3.173873000000000      1.883571000000000
C       0.671479000000000      2.542638000000000      3.100663000000000
C       0.396280000000000      1.191232000000000      3.282424000000000
C       2.330539000000000     -1.396501000000000      2.125805000000000
C       3.551428000000000     -2.061479000000000      2.007931000000000
C       3.598115000000000     -3.451633000000000      2.015944000000000
C       2.417095000000000     -4.183801000000000      2.134546000000000
C       1.199916000000000     -3.521638000000000      2.238084000000000
C      -2.133341000000000     -1.316030000000000      4.689718000000000
C      -2.415592000000000     -1.425729000000000      6.047689000000000
C      -1.408294000000000     -1.771431000000000      6.946492000000000
C      -0.117367000000000     -2.001516000000000      6.480317000000000
C       0.169310000000000     -1.885804000000000      5.120948000000000
H      -0.863255000000000      0.477695000000000      0.213900000000000
H      -0.391088000000000      2.893149000000000     -0.102737000000000
H       1.089221000000000      3.123048000000000      3.916522000000000
H       0.609928000000000      0.724028000000000      4.240346000000000
H       2.306679000000000     -0.310972000000000      2.122845000000000
H       4.467210000000000     -1.486643000000000      1.909825000000000
H       4.549799000000000     -3.965638000000000      1.923774000000000
H       2.444102000000000     -5.269026000000000      2.133969000000000
H       0.275371000000000     -4.091109000000000      2.313491000000000
H      -2.918739000000000     -1.069955000000000      3.980277000000000
H      -3.426639000000000     -1.251206000000000      6.403456000000000
H      -1.630461000000000     -1.866097000000000      8.004923000000000
H       0.672294000000000     -2.273689000000000      7.173922000000000
H       1.181072000000000     -2.066542000000000      4.769473000000000
O      -0.503933000000000     -3.921416000000000     -0.789600000000000
C      -3.565591000000000      3.068985000000000     -0.740771000000000
C      -3.288261000000000      3.325594000000000      0.614976000000000
C      -3.117778000000000      4.002132000000000     -1.692600000000000
C      -2.634118000000000      4.496287000000000      1.008758000000000
C      -2.427283000000000      5.156541000000000     -1.310660000000000
C      -2.203080000000000      5.393152000000000      0.041187000000000
H      -2.416862000000000      4.678230000000000      2.053978000000000
H      -2.073329000000000      5.866478000000000     -2.047226000000000
H      -1.663812000000000      6.286038000000000      0.346848000000000
C       0.604821000000000      4.634339000000000      1.714169000000000
C       1.269589000000000      5.147003000000000      0.586963000000000
C       0.070915000000000      5.549979000000000      2.637342000000000
C       1.402558000000000      6.524831000000000      0.388470000000000
C       0.199492000000000      6.929332000000000      2.451470000000000
C       0.867766000000000      7.398395000000000      1.326563000000000
H       1.919053000000000      6.915616000000000     -0.478652000000000
H      -0.215880000000000      7.630761000000000      3.163419000000000
H       0.971984000000000      8.468520000000000      1.177787000000000
O      -3.381870000000000      3.694355000000000     -2.992576000000000
O      -3.688199000000000      2.377818000000000      1.496676000000000
O       1.766355000000000      4.224298000000000     -0.274424000000000
O      -0.611021000000000      5.007693000000000      3.685141000000000
C       2.331634000000000      4.681662000000000     -1.481538000000000
H       1.607176000000000      5.267676000000000     -2.060353000000000
H       3.227506000000000      5.287802000000000     -1.301505000000000
H       2.606909000000000      3.787697000000000     -2.040561000000000
C      -1.289106000000000      5.884454000000000      4.557824000000000
H      -0.590914000000000      6.541032000000000      5.089956000000000
H      -2.020609000000000      6.496012000000000      4.015143000000000
H      -1.806675000000000      5.249233000000000      5.276692000000000
C      -2.874905000000000      4.551762000000000     -3.987132000000000
H      -3.303846000000000      5.558257000000000     -3.908492000000000
H      -1.781444000000000      4.622762000000000     -3.933472000000000
H      -3.162744000000000      4.109478000000000     -4.940920000000000
C      -3.226505000000000      2.472882000000000      2.829585000000000
H      -2.138597000000000      2.599338000000000      2.868575000000000
H      -3.708964000000000      3.306960000000000      3.356018000000000
H      -3.502272000000000      1.531091000000000      3.304844000000000
C      -3.094476000000000     -4.306069000000000      3.149253000000000
C      -3.382044000000000     -5.145599000000000      2.155859000000000
C      -2.341047000000000     -5.993154000000000      1.490051000000000
O      -2.585517000000000     -7.399280000000000      1.697229000000000
C      -3.511396000000000     -7.958816000000000      0.907895000000000
C      -3.672581000000000     -9.424239999999999      1.217645000000000
O      -4.130770000000000     -7.356039000000000      0.062638000000000
H      -2.084977000000000     -4.210675000000000      3.545492000000000
H      -3.854903000000000     -3.674984000000000      3.599336000000000
H      -4.399410000000000     -5.221710000000000      1.772678000000000
H      -1.357401000000000     -5.813466000000000      1.929331000000000
H      -2.295724000000000     -5.804649000000000      0.412272000000000
H      -3.997610000000000     -9.544089000000000      2.254257000000000
H      -2.711598000000000     -9.933198000000001      1.111394000000000
H      -4.407773000000000     -9.857841000000001      0.541757000000000
