111

P      -4.424230000000000     -0.682334000000000      0.398107000000000
C      -4.661791000000000      0.996805000000000     -0.331293000000000
C      -3.538950000000000      1.799909000000000     -0.550156000000000
C      -3.622426000000000      3.085039000000000     -1.069898000000000
C      -4.868832000000000      3.639842000000000     -1.428468000000000
C      -6.010307000000000      2.847590000000000     -1.190876000000000
C      -5.897821000000000      1.574361000000000     -0.659773000000000
H      -2.561068000000000      1.410695000000000     -0.286951000000000
H      -2.703267000000000      3.651864000000000     -1.204984000000000
H      -7.001175000000000      3.226376000000000     -1.418299000000000
H      -6.818341000000000      1.033308000000000     -0.489050000000000
Rh     -1.942964000000000     -1.501905000000000      0.350732000000000
C      -1.608573000000000     -0.629491000000000     -1.345310000000000
H      -2.323787000000000     -2.261371000000000      1.696359000000000
P      -0.088202000000000     -0.446000000000000      1.736285000000000
C       1.513164000000000     -0.896465000000000      0.892111000000000
C       1.585019000000000     -0.682198000000000     -0.490837000000000
C       2.680117000000000     -1.037429000000000     -1.260740000000000
C       3.796843000000000     -1.671011000000000     -0.681509000000000
C       3.729940000000000     -1.929784000000000      0.697804000000000
C       2.622407000000000     -1.543097000000000      1.453198000000000
H       0.742877000000000     -0.234747000000000     -1.009613000000000
H       2.640538000000000     -0.837201000000000     -2.326020000000000
H       4.544925000000000     -2.440454000000000      1.205885000000000
H       2.655587000000000     -1.784118000000000      2.508122000000000
O      -1.445974000000000     -0.138457000000000     -2.377932000000000
C       0.097624000000000     -1.195976000000000      3.493131000000000
C      -1.165729000000000     -0.896150000000000      4.319374000000000
C       0.117008000000000     -2.741133000000000      3.335352000000000
C       1.325497000000000     -0.744613000000000      4.333680000000000
H      -1.067014000000000     -1.389898000000000      5.295542000000000
H      -1.307569000000000      0.171659000000000      4.512664000000000
H      -2.058700000000000     -1.301425000000000      3.836089000000000
H       0.153062000000000     -3.180955000000000      4.309831000000000
H      -0.804979000000000     -3.078630000000000      2.845069000000000
H       0.968875000000000     -3.112328000000000      2.754164000000000
H       2.069457000000000      0.075703000000000      3.767014000000000
H       1.176327000000000      0.051582000000000      5.240618000000000
H       1.729043000000000     -1.401783000000000      4.756502000000000
C       0.111330000000000      1.455942000000000      1.852849000000000
C       0.320064000000000      2.002199000000000      0.428058000000000
C      -1.182488000000000      2.084303000000000      2.380234000000000
C       1.286251000000000      1.932497000000000      2.712231000000000
H      -0.404053000000000      1.592354000000000     -0.288463000000000
H       0.187116000000000      3.091977000000000      0.452648000000000
H       1.325432000000000      1.797357000000000      0.054485000000000
H      -1.443060000000000      1.761874000000000      3.390044000000000
H      -1.055679000000000      3.174740000000000      2.404973000000000
H      -2.026215000000000      1.852202000000000      1.728037000000000
H       1.108749000000000      1.750615000000000      3.778348000000000
H       2.230695000000000      1.456825000000000      2.416177000000000
H       1.411240000000000      3.018218000000000      2.575139000000000
C      -5.573835000000000     -1.824890000000000     -0.595754000000000
C      -7.089967000000000     -1.720336000000000     -0.359711000000000
C      -5.299011000000000     -1.596685000000000     -2.097474000000000
C      -5.238419000000000     -3.302997000000000     -0.258837000000000
H      -7.364936000000000     -2.069714000000000      0.641503000000000
H      -7.508452000000000     -0.722574000000000     -0.504369000000000
H      -7.591408000000000     -2.380905000000000     -1.082220000000000
H      -5.698080000000000     -2.605167000000000     -2.252922000000000
H      -5.863399000000000     -0.809062000000000     -2.624367000000000
H      -4.221420000000000     -1.444359000000000     -2.183616000000000
H      -5.342691000000000     -3.516387000000000      0.808050000000000
H      -5.951653000000000     -3.938333000000000     -0.800647000000000
H      -4.251658000000000     -3.631229000000000     -0.559761000000000
C      -5.152997000000000     -0.430636000000000      2.143368000000000
C      -5.192556000000000     -1.776903000000000      2.879985000000000
C      -4.165278000000000      0.503055000000000      2.855429000000000
C      -6.534803000000000      0.239721000000000      2.224882000000000
H      -6.010781000000000     -2.414689000000000      2.519379000000000
H      -4.249284000000000     -2.330586000000000      2.774613000000000
H      -5.370111000000000     -1.595247000000000      3.948713000000000
H      -3.143441000000000      0.124119000000000      2.786744000000000
H      -4.188398000000000      1.507728000000000      2.415940000000000
H      -4.437901000000000      0.591101000000000      3.916778000000000
H      -6.805838000000000      0.335479000000000      3.288165000000000
H      -6.517289000000000      1.245185000000000      1.798763000000000
H      -7.094137000000000     -0.175896000000000      1.868966000000000
N       4.901921000000000     -2.021841000000000     -1.444334000000000
N      -4.975074000000000      4.898083000000000     -1.984545000000000
C       5.872534000000000     -2.930069000000000     -0.865234000000000
H       6.348979000000000     -2.461678000000000      0.012775000000000
H       5.431070000000000     -3.891794000000000     -0.561248000000000
H       6.659945000000000     -3.117655000000000     -1.600001000000000
C       4.763592000000000     -2.024614000000000     -2.894631000000000
H       4.558587000000000     -1.003985000000000     -3.271052000000000
H       5.708683000000000     -2.341788000000000     -3.347497000000000
H       3.957861000000000     -2.694366000000000     -3.248450000000000
C      -3.809925000000000      5.756784000000000     -2.015873000000000
H      -3.403094000000000      5.956976000000000     -1.012965000000000
H      -3.012063000000000      5.304099000000000     -2.619579000000000
H      -4.073063000000000      6.709250000000000     -2.478018000000000
C      -6.286328000000000      5.495374000000000     -2.126191000000000
H      -6.177251000000000      6.487981000000000     -2.569198000000000
H      -6.916817000000000      4.898922000000000     -2.793938000000000
H      -6.808619000000000      5.597158000000000     -1.163196000000000
C      -0.505303000000000     -3.132572000000000     -0.097114000000000
C      -1.763340000000000     -3.557110000000000     -0.505991000000000
C      -2.194665000000000     -3.476135000000000     -1.965353000000000
O      -2.426532000000000     -4.740847000000000     -2.613199000000000
C      -3.334269000000000     -4.760699000000000     -3.607209000000000
C      -3.474775000000000     -6.030912000000000     -4.073434000000000
O      -3.948649000000000     -3.788469000000000     -4.003364000000000
H       0.215576000000000     -2.774302000000000     -0.830019000000000
H      -0.070570000000000     -3.534366000000000      0.812078000000000
H      -2.322691000000000     -4.245177000000000      0.117280000000000
H      -1.378347000000000     -2.954612000000000     -2.483401000000000
H      -3.131857000000000     -2.908735000000000     -2.005240000000000
H      -3.848264000000000     -6.687075000000000     -3.282416000000000
H      -2.498333000000000     -6.416742000000000     -4.398113000000000
H      -4.168949000000000     -6.026608000000000     -4.925597000000000
