101

Rh      5.976596000000000      6.095663000000000      4.498443000000000
H       4.892609000000000      5.653242000000000      3.543828000000000
C       6.658330000000000      4.336896000000000      4.117543000000000
O       7.007661000000000      3.430132000000000      3.498124000000000
H       9.370298000000000      8.646585999999999      8.497311000000000
H       7.553173000000000      7.259006000000000     12.081697000000000
H       9.165316000000001      8.737309000000000     10.916641000000000
H       3.157868000000000      5.261959000000000     11.731169000000000
H       1.380900000000000      5.304316000000000      7.859862000000000
H       1.146759000000000      5.178991000000000     10.288515000000000
C       8.613746000000001      8.036562000000000      8.965503999999999
C       7.781190000000000      7.232442000000000      8.172705000000001
C       6.801872000000000      6.498469000000000      8.861895000000001
C       6.750059000000000      6.442079000000000     10.263363999999999
C       7.597202000000000      7.263417000000000     10.998544000000001
C       8.509504000000000      8.085768000000000     10.348200000000000
C       4.635302000000000      5.604616000000000      8.696635000000001
C       4.526244000000000      5.475536000000000     10.089373000000000
C       3.262784000000000      5.341988000000000     10.654835000000000
C       2.131583000000000      5.293641000000000      9.847647000000000
C       2.270659000000000      5.373450000000000      8.469566000000000
C       3.519640000000000      5.542863000000000      7.850653000000000
C       5.817942000000000      5.413762000000000     10.883542000000000
O       5.881776000000000      5.777260000000000      8.131671000000001
P       8.082782999999999      6.955287000000000      6.353257000000000
P       3.709263000000000      5.619950000000000      6.006976000000000
C       5.602098000000000      5.642431000000000     12.379085000000000
H       4.946952000000000      4.871080000000000     12.792980000000000
H       6.552115000000000      5.567787000000000     12.915238000000000
H       5.160197000000000      6.623907000000000     12.580710000000000
C       6.437538000000000      4.010003000000000     10.685517000000001
H       6.570007000000000      3.785442000000000      9.622693999999999
H       7.414434000000000      3.954722000000000     11.177517000000000
H       5.779586000000000      3.247293000000000     11.115841000000000
C       3.107260000000000      3.856507000000000      5.553917000000000
C       1.676799000000000      3.462307000000000      5.971283000000000
C       4.095863000000000      2.926011000000000      6.289620000000000
C       3.233231000000000      3.599402000000000      4.040418000000000
H       1.465889000000000      2.460791000000000      5.574478000000000
H       1.557978000000000      3.405776000000000      7.058531000000000
H       0.916969000000000      4.139755000000000      5.555699000000000
H       3.840145000000000      1.884312000000000      6.056359000000000
H       4.036194000000000      3.049421000000000      7.381275000000000
H       5.134696000000000      3.105548000000000      5.977361000000000
H       2.506768000000000      4.181984000000000      3.453867000000000
H       4.241115000000000      3.808856000000000      3.655610000000000
H       3.023133000000000      2.535215000000000      3.860590000000000
C       2.459789000000000      6.983276000000000      5.529031000000000
C       3.199647000000000      8.284577000000001      5.894623000000000
C       1.079740000000000      7.068061000000000      6.210023000000000
C       2.223584000000000      6.919734000000000      4.008147000000000
H       2.574971000000000      9.140819000000000      5.608844000000000
H       3.371700000000000      8.340218999999999      6.979142000000000
H       4.165829000000000      8.365912000000000      5.386412000000000
H       0.489653000000000      6.149322000000000      6.109122000000000
H       0.513105000000000      7.869924000000000      5.718265000000000
H       1.157873000000000      7.332124000000000      7.268967000000000
H       1.835025000000000      7.889087000000000      3.669565000000000
H       3.139072000000000      6.704337000000000      3.441808000000000
H       1.473031000000000      6.162143000000000      3.755097000000000
C       9.286966000000000      5.474921000000000      6.525636000000000
C      10.417958000000000      5.631210000000000      7.552638000000000
C       9.897750000000000      5.181400000000000      5.148276000000000
C       8.445855999999999      4.273825000000000      6.994841000000000
H      11.146062000000001      6.395551000000000      7.281250000000000
H      10.031927000000000      5.853063000000000      8.552104000000000
H      10.957050000000001      4.676638000000000      7.611817000000000
H      10.415863000000000      4.214780000000000      5.179373000000000
H      10.636679000000001      5.938820000000000      4.867297000000000
H       9.145365999999999      5.128126000000000      4.356000000000000
H       8.152331999999999      4.390492000000000      8.043939999999999
H       7.537372000000000      4.131654000000000      6.404343000000000
H       9.058916999999999      3.366352000000000      6.922061000000000
C       9.097315000000000      8.498438000000000      5.825465000000000
C       9.169592000000000      8.505409000000000      4.287812000000000
C      10.563359999999999      8.637269000000000      6.283145000000000
C       8.276558000000000      9.737785000000001      6.230597000000000
H       9.874988000000000      9.287442000000000      3.978235000000000
H       9.527027000000000      7.557647000000000      3.873892000000000
H       8.206011999999999      8.747185000000000      3.847637000000000
H      10.907159000000000      9.643062000000000      6.006270000000000
H      11.202517000000000      7.924634000000000      5.749969000000000
H      10.748366000000001      8.507213000000000      7.348430000000000
H       8.657489000000000     10.608269000000000      5.682016000000000
H       7.218563000000000      9.614449000000000      5.968457000000000
H       8.325818999999999      9.964900999999999      7.297354000000000
C       5.749077000000000      7.987348000000000      3.551256000000000
C       6.569496000000000      7.111430000000000      2.779005000000000
C       6.055460000000000      6.514507000000000      1.490668000000000
O       6.427082000000000      7.332398000000000      0.360548000000000
C       7.701413000000000      7.228145000000000     -0.045698000000000
C       7.966587000000000      8.134530000000000     -1.221568000000000
O       8.518177000000000      6.502303000000000      0.468065000000000
H       4.746634000000000      8.218570000000000      3.187341000000000
H       6.196772000000000      8.811263000000000      4.105145000000000
H       7.646241000000000      7.245720000000000      2.738471000000000
H       4.963018000000000      6.495341000000000      1.466079000000000
H       6.445283000000000      5.505767000000000      1.327814000000000
H       7.804185000000000      9.173930000000000     -0.923964000000000
H       7.267058000000000      7.909565000000000     -2.030135000000000
H       8.992682000000000      7.997992000000000     -1.559389000000000
