93

Rh     -2.709572000000000     -0.257501000000000      1.154191000000000
C      -2.742584000000000     -2.212796000000000      1.322253000000000
O      -2.727796000000000     -3.346292000000000      1.482887000000000
H      -2.638737000000000      1.307900000000000      1.075853000000000
P      -0.514491000000000     -0.114095000000000      0.394547000000000
C       0.183575000000000     -1.666845000000000     -0.380371000000000
C      -0.072494000000000      1.247766000000000     -0.766320000000000
C       0.773926000000000      0.114762000000000      1.699305000000000
C      -0.698515000000000     -2.354572000000000     -1.395286000000000
H       0.334957000000000     -2.333262000000000      0.477319000000000
H       1.184912000000000     -1.461691000000000     -0.778238000000000
C      -0.599739000000000      2.521430000000000     -0.509487000000000
C       0.753081000000000      1.080264000000000     -1.882248000000000
C       1.863176000000000      0.979820000000000      1.566214000000000
C       0.658581000000000     -0.652503000000000      2.865106000000000
C      -1.025202000000000     -3.705104000000000     -1.236186000000000
C      -1.205288000000000     -1.679484000000000     -2.509792000000000
C      -0.325165000000000      3.590254000000000     -1.356412000000000
H      -1.262959000000000      2.668528000000000      0.338748000000000
C       1.021748000000000      2.149037000000000     -2.737213000000000
H       1.182149000000000      0.109590000000000     -2.111119000000000
C       2.813785000000000      1.077846000000000      2.581404000000000
H       1.973228000000000      1.584611000000000      0.671220000000000
C       1.614897000000000     -0.565277000000000      3.871128000000000
H      -0.198039000000000     -1.312221000000000      2.983036000000000
C      -1.820357000000000     -4.365632000000000     -2.170406000000000
H      -0.654053000000000     -4.244741000000000     -0.368667000000000
C      -2.009604000000000     -2.330587000000000     -3.440996000000000
H      -0.985365000000000     -0.627386000000000     -2.653527000000000
C       0.481081000000000      3.405096000000000     -2.478535000000000
H      -0.763666000000000      4.560778000000000     -1.147009000000000
H       1.653175000000000      1.993985000000000     -3.606686000000000
C       2.693993000000000      0.306034000000000      3.732714000000000
H       3.651161000000000      1.759541000000000      2.467627000000000
H       1.511340000000000     -1.167990000000000      4.768196000000000
C      -2.314753000000000     -3.680298000000000     -3.278346000000000
H      -2.056991000000000     -5.415616000000000     -2.026456000000000
H      -2.406804000000000     -1.769826000000000     -4.282804000000000
H       0.685071000000000      4.235089000000000     -3.147919000000000
H       3.435519000000000      0.384665000000000      4.521639000000000
H      -2.943089000000000     -4.190534000000000     -4.001935000000000
P      -4.376358000000000     -0.010055000000000     -0.492461000000000
C      -5.565725000000000      1.400149000000000     -0.169132000000000
C      -4.092327000000000      0.254773000000000     -2.294610000000000
C      -5.489363000000000     -1.467708000000000     -0.525868000000000
C      -4.916866000000000      2.744288000000000     -0.363950000000000
H      -5.932110000000000      1.277312000000000      0.856508000000000
H      -6.412366000000000      1.281418000000000     -0.855320000000000
C      -4.961251000000000     -0.231512000000000     -3.277567000000000
C      -3.012055000000000      1.050927000000000     -2.682540000000000
C      -6.802982000000000     -1.459324000000000     -0.050930000000000
C      -4.940091000000000     -2.667076000000000     -1.000325000000000
C      -4.888410000000000      3.345484000000000     -1.627078000000000
C      -4.303952000000000      3.410939000000000      0.702240000000000
C      -4.740273000000000      0.062629000000000     -4.621534000000000
H      -5.811981000000000     -0.845632000000000     -2.995861000000000
C      -2.788203000000000      1.345931000000000     -4.025293000000000
H      -2.343474000000000      1.446748000000000     -1.924794000000000
C      -7.555580000000000     -2.635659000000000     -0.057387000000000
H      -7.240058000000000     -0.550792000000000      0.353526000000000
C      -5.696102000000000     -3.831766000000000     -1.017821000000000
H      -3.911385000000000     -2.682376000000000     -1.358355000000000
C      -4.250485000000000      4.566932000000000     -1.823679000000000
H      -5.364297000000000      2.843245000000000     -2.466002000000000
C      -3.667093000000000      4.634454000000000      0.510945000000000
H      -4.330361000000000      2.966627000000000      1.692921000000000
C      -3.651545000000000      0.847834000000000     -4.998995000000000
H      -5.419849000000000     -0.323763000000000     -5.375212000000000
H      -1.939731000000000      1.965257000000000     -4.301554000000000
C      -7.008986000000000     -3.818423000000000     -0.543868000000000
H      -8.572884999999999     -2.620948000000000      0.321627000000000
H      -5.255926000000000     -4.750468000000000     -1.394398000000000
C      -3.635162000000000      5.215263000000000     -0.755324000000000
H      -4.238883000000000      5.013124000000000     -2.813433000000000
H      -3.203285000000000      5.136834000000000      1.354788000000000
H      -3.480471000000000      1.072679000000000     -6.047478000000000
H      -7.599471000000000     -4.729370000000000     -0.548842000000000
H      -3.145363000000000      6.173035000000000     -0.905449000000000
C      -2.666255000000000      0.088813000000000      3.308494000000000
C      -4.001846000000000      0.122793000000000      2.855935000000000
C      -4.961444000000000     -0.997936000000000      3.148067000000000
O      -5.844539000000000     -0.658954000000000      4.243821000000000
C      -6.873593000000000      0.132800000000000      3.925818000000000
C      -7.722572000000000      0.436464000000000      5.133083000000000
O      -7.087962000000000      0.552021000000000      2.809844000000000
H      -2.322027000000000     -0.779340000000000      3.867651000000000
H      -2.124533000000000      1.005867000000000      3.516774000000000
H      -4.487466000000000      1.084448000000000      2.709869000000000
H      -4.427995000000000     -1.889762000000000      3.487295000000000
H      -5.584180000000000     -1.254036000000000      2.287797000000000
H      -7.127477000000000      0.989943000000000      5.864255000000000
H      -8.043877999999999     -0.494488000000000      5.605878000000000
H      -8.585438999999999      1.027523000000000      4.830404000000000
