67

Rh     -2.047572000000000      0.777581000000000      0.447736000000000
C      -2.127779000000000      0.926268000000000      2.406556000000000
O      -2.147792000000000      0.970280000000000      3.549538000000000
H      -1.952601000000000      0.653572000000000     -1.120430000000000
P      -3.706537000000000     -0.838692000000000      0.172870000000000
C      -5.389724000000000     -0.502018000000000      0.825029000000000
C      -3.374540000000000     -2.551965000000000      0.735117000000000
C      -6.043213000000000      0.638379000000000      0.344549000000000
C      -6.003990000000000     -1.283800000000000      1.805539000000000
C      -4.004483000000000     -3.651083000000000      0.138424000000000
C      -2.482865000000000     -2.769614000000000      1.788345000000000
C      -7.296830000000000      0.990251000000000      0.832471000000000
H      -5.567376000000000      1.278390000000000     -0.394958000000000
C      -7.259467000000000     -0.926216000000000      2.295854000000000
H      -5.508140000000000     -2.171824000000000      2.187244000000000
C      -3.740926000000000     -4.941982000000000      0.584674000000000
H      -4.707773000000000     -3.492670000000000     -0.675367000000000
C      -2.221465000000000     -4.062749000000000      2.239654000000000
H      -1.982144000000000     -1.924797000000000      2.255203000000000
C      -7.907651000000000      0.206015000000000      1.810330000000000
H      -7.776351000000000      1.886779000000000      0.452676000000000
H      -7.730103000000000     -1.537577000000000      3.059833000000000
C      -2.848268000000000     -5.148882000000000      1.636496000000000
H      -4.230669000000000     -5.787725000000000      0.112140000000000
H      -1.519525000000000     -4.213136000000000      3.054413000000000
H      -8.883822000000000      0.480881000000000      2.197873000000000
H      -2.642205000000000     -6.157166000000000      1.982087000000000
P      -0.109695000000000     -0.472465000000000      0.272754000000000
C       0.675988000000000     -1.156869000000000      1.785769000000000
C       1.334641000000000      0.223761000000000     -0.616650000000000
C       0.970089000000000     -0.295133000000000      2.847458000000000
C       0.956645000000000     -2.519931000000000      1.917759000000000
C       2.145642000000000     -0.572679000000000     -1.430286000000000
C       1.648429000000000      1.575244000000000     -0.450196000000000
C       1.543617000000000     -0.785132000000000      4.016555000000000
H       0.745068000000000      0.765771000000000      2.757927000000000
C       1.518950000000000     -3.012503000000000      3.093568000000000
H       0.723662000000000     -3.202585000000000      1.104412000000000
C       3.251879000000000     -0.023866000000000     -2.072187000000000
H       1.912287000000000     -1.626245000000000     -1.562396000000000
C       2.763524000000000      2.120390000000000     -1.081341000000000
H       1.008072000000000      2.197193000000000      0.169675000000000
C       1.814805000000000     -2.146187000000000      4.142963000000000
H       1.769950000000000     -0.105967000000000      4.832407000000000
H       1.728268000000000     -4.073954000000000      3.187093000000000
C       3.563257000000000      1.322683000000000     -1.895960000000000
H       3.872044000000000     -0.647829000000000     -2.708250000000000
H       3.001625000000000      3.170724000000000     -0.945027000000000
H       2.253297000000000     -2.530429000000000      5.058485000000000
H       4.426628000000000      1.750046000000000     -2.396273000000000
H      -0.219818000000000     -1.686688000000000     -0.440742000000000
H      -4.046206000000000     -1.128980000000000     -1.164526000000000
C      -1.602555000000000      2.868092000000000      0.039328000000000
C      -3.002865000000000      2.686178000000000      0.025495000000000
C      -3.850930000000000      3.220567000000000      1.145914000000000
O      -4.319199000000000      4.560247000000000      0.854733000000000
C      -5.373638000000000      4.649277000000000      0.037179000000000
C      -5.749217000000000      6.088295000000000     -0.208867000000000
O      -5.944461000000000      3.696013000000000     -0.442250000000000
H      -1.145084000000000      3.375077000000000      0.887651000000000
H      -1.052529000000000      2.948642000000000     -0.892840000000000
H      -3.515972000000000      2.618275000000000     -0.931027000000000
H      -3.259325000000000      3.338127000000000      2.057486000000000
H      -4.722143000000000      2.594157000000000      1.352234000000000
H      -4.927878000000000      6.593956000000000     -0.723447000000000
H      -5.907845000000000      6.600403000000000      0.742977000000000
H      -6.650999000000000      6.128502000000000     -0.817770000000000
