105

H       3.838296000000000      5.510455000000000      4.831783000000000
Rh      5.365346000000000      5.734047000000000      5.230232000000000
C       7.143605000000000      6.180905000000000      5.824718000000000
O       8.173353000000001      6.514281000000000      6.216356000000000
P       4.657356000000000      7.950378000000000      4.792779000000000
C       3.923204000000000      8.232592000000000      3.089135000000000
C       3.254302000000000      8.629027000000001      5.825673000000000
C       5.897864000000000      9.336627999999999      4.922447000000000
C       3.399030000000000      9.673298000000001      2.820808000000000
C       4.887966000000000      7.930023000000000      1.908380000000000
H       3.087590000000000      7.525248000000000      3.064847000000000
C       1.901943000000000      7.999937000000000      5.440612000000000
C       3.377432000000000      8.312690000000000      7.317279000000000
H       3.209995000000000      9.717102000000001      5.685331000000000
C       6.343745000000000      9.653499999999999      6.360822000000000
C       7.225825000000000      9.113352000000001      4.150885000000000
H       5.405293000000000     10.236475000000000      4.529481000000000
C       4.398577000000000     10.295470999999999      1.839276000000000
H       3.263530000000000     10.277274000000000      3.722021000000000
H       2.416743000000000      9.607787000000000      2.336688000000000
C       4.768902000000000      9.117038000000001      0.939529000000000
H       4.642255000000000      6.994509000000000      1.405838000000000
H       5.921675000000000      7.825822000000000      2.246760000000000
C       0.999092000000000      8.147499000000000      6.683259000000000
H       2.056752000000000      6.938158000000000      5.212836000000000
H       1.468065000000000      8.465842000000000      4.550422000000000
C       1.947952000000000      8.403893000000000      7.880067000000000
H       4.073783000000000      8.968249000000000      7.846571000000000
H       3.771642000000000      7.297342000000000      7.399850000000000
C       7.623021000000000     10.468614000000001      6.154737000000000
H       6.575318000000000      8.726246000000000      6.902089000000000
H       5.580199000000000     10.193970999999999      6.927081000000000
C       8.349328000000000      9.711624000000000      5.035310000000000
H       7.186111000000000      9.584645999999999      3.163924000000000
H       7.404945000000000      8.047079999999999      3.982015000000000
H       5.287111000000000     10.651000000000000      2.375830000000000
H       3.980457000000000     11.147122000000000      1.294554000000000
H       3.954531000000000      8.937389000000000      0.227309000000000
H       5.683780000000000      9.269624000000000      0.360870000000000
H       0.388099000000000      7.251199000000000      6.831568000000000
H       0.306586000000000      8.985180000000000      6.559064000000000
H       1.770774000000000      9.399324000000000      8.299155000000001
H       1.789843000000000      7.688673000000000      8.695918000000001
H       8.221933999999999     10.563442000000000      7.064871000000000
H       7.358361000000000     11.479718000000000      5.821718000000000
H       9.029106000000001     10.351747000000000      4.466971000000000
H       8.946415000000000      8.903663999999999      5.469245000000000
P       4.843783000000000      4.294393000000000      7.141938000000000
C       3.086378000000000      3.656035000000000      7.135367000000000
C       5.768067000000000      2.649242000000000      7.172087000000000
C       5.192032000000000      4.703896000000000      8.944222000000000
C       2.690047000000000      2.723059000000000      8.307423999999999
C       2.016272000000000      4.785955000000000      7.132062000000000
H       3.038027000000000      3.111184000000000      6.186400000000000
C       5.174427000000000      1.511382000000000      6.317366000000000
C       7.276682000000000      2.687233000000000      6.793228000000000
H       5.706547000000000      2.307974000000000      8.214765999999999
C       6.726466000000000      4.908506000000000      9.146934999999999
C       4.545247000000000      5.977601000000000      9.535292000000000
H       4.856951000000000      3.829122000000000      9.512309999999999
C       1.844452000000000      3.598240000000000      9.237242000000000
H       3.542276000000000      2.257404000000000      8.812317999999999
H       2.068012000000000      1.906137000000000      7.920069000000000
C       1.021604000000000      4.436206000000000      8.254378000000001
H       1.529157000000000      4.865316000000000      6.155948000000000
H       2.474001000000000      5.761073000000000      7.317166000000000
C       6.322014000000000      0.499426000000000      6.253011000000000
H       4.928451000000000      1.856891000000000      5.308691000000000
H       4.262975000000000      1.094513000000000      6.756670000000000
C       7.555610000000000      1.378537000000000      6.012296000000000
H       7.891545000000000      2.743249000000000      7.695502000000000
H       7.521106000000000      3.567074000000000      6.189993000000000
C       6.880029000000000      6.230256000000000      9.918378000000001
H       7.236871000000000      5.003496000000000      8.183095000000000
H       7.184457000000000      4.060131000000000      9.664277999999999
C       5.652814000000000      7.030259000000000      9.480193999999999
H       4.294309000000000      5.783803000000000     10.586653000000000
H       3.617341000000000      6.277280000000000      9.044853000000000
H       2.492951000000000      4.250469000000000      9.834752000000000
H       1.230183000000000      3.015497000000000      9.929607000000001
H       0.202716000000000      3.825248000000000      7.856455000000000
H       0.575105000000000      5.325825000000000      8.710528999999999
H       6.180817000000000     -0.262174000000000      5.480876000000000
H       6.408061000000000     -0.015489000000000      7.217902000000000
H       8.485868000000000      0.898021000000000      6.326750000000000
H       7.650541000000000      1.586973000000000      4.940896000000000
H       7.826832000000000      6.730708000000000      9.696752999999999
H       6.838490000000000      6.051996000000000     10.999447000000000
H       5.448949000000000      7.908183000000000     10.100853000000001
H       5.787741000000000      7.365164000000000      8.444394000000001
C       5.639964000000000      3.922810000000000      3.948656000000000
C       5.923361000000000      5.049575000000000      3.178872000000000
C       7.350182000000000      5.342830000000000      2.805179000000000
O       7.749828000000000      4.579174000000000      1.643836000000000
C       7.409543000000000      5.091125000000000      0.452564000000000
C       7.839075000000000      4.179109000000000     -0.668253000000000
O       6.833642000000000      6.143103000000000      0.307844000000000
H       6.454671000000000      3.300454000000000      4.307216000000000
H       4.678918000000000      3.428817000000000      3.852571000000000
H       5.172991000000000      5.416754000000000      2.488337000000000
H       8.030915999999999      5.006769000000000      3.591562000000000
H       7.524905000000000      6.399428000000000      2.591301000000000
H       7.298468000000000      3.231898000000000     -0.591845000000000
H       8.905554000000000      3.958593000000000     -0.582594000000000
H       7.624275000000000      4.654387000000000     -1.624076000000000
