105

H       4.555734000000000      4.290090000000000      3.541229000000000
Rh      5.572613000000000      5.172331000000000      4.363596000000000
C       6.713717000000000      6.390747000000000      5.378142000000000
O       7.320357000000000      7.187959000000000      5.936184000000000
P       4.326825000000000      4.436425000000000      6.222996000000000
C       3.907189000000000      5.710381000000000      7.509444000000000
C       2.764251000000000      3.484119000000000      5.848386000000000
C       5.252669000000000      3.125533000000000      7.212086000000000
C       2.925880000000000      5.490932000000000      8.640707000000001
H       3.595569000000000      6.590183000000000      6.936652000000000
H       4.891488000000000      5.972961000000000      7.926060000000000
C       1.667051000000000      4.305449000000000      5.226412000000000
H       2.396564000000000      3.000448000000000      6.757215000000000
H       3.092637000000000      2.697323000000000      5.159321000000000
C       6.223537000000000      3.719091000000000      8.200778000000000
H       5.777638000000000      2.519493000000000      6.466679000000000
H       4.543842000000000      2.468226000000000      7.726383000000000
C       2.362451000000000      6.628185000000000      9.235291000000000
C       2.553530000000000      4.243120000000000      9.147264000000000
C       0.697897000000000      4.916065000000000      6.031427000000000
C       1.591943000000000      4.475106000000000      3.839781000000000
C       5.912316000000000      3.773029000000000      9.563390999999999
C       7.434545000000000      4.277222000000000      7.776483000000000
C       1.446868000000000      6.523540000000000     10.276694000000001
H       2.655625000000000      7.609221000000000      8.870122000000000
C       1.633418000000000      4.130927000000000     10.189208000000001
H       2.979368000000000      3.338575000000000      8.729666999999999
C      -0.311745000000000      5.689374000000000      5.463793000000000
H       0.735962000000000      4.782178000000000      7.109956000000000
C       0.581663000000000      5.248678000000000      3.272597000000000
H       2.333899000000000      3.996665000000000      3.206688000000000
C       6.775253000000000      4.380806000000000     10.471244000000000
H       4.983462000000000      3.337932000000000      9.920042000000000
C       8.297511999999999      4.889190000000000      8.680935000000000
H       7.698297000000000      4.235281000000000      6.724882000000000
C       1.070863000000000      5.269936000000000     10.754861000000000
H       1.025761000000000      7.423173000000000     10.715080000000000
H       1.358011000000000      3.146750000000000     10.555801000000001
C      -0.369258000000000      5.865081000000000      4.083188000000000
H      -1.052222000000000      6.159249000000000      6.103804000000000
H       0.535475000000000      5.365336000000000      2.193050000000000
C       7.968852000000000      4.947622000000000     10.032662999999999
H       6.510777000000000      4.411381000000000     11.523652000000000
H       9.228236000000001      5.320901000000000      8.325704000000000
H       0.351587000000000      5.183061000000000     11.562828000000000
H      -1.152732000000000      6.472611000000000      3.641950000000000
H       8.640038000000001      5.425721000000000     10.738927000000000
P       4.896920000000000      6.855088000000000      2.817246000000000
C       6.295162000000000      8.078764000000000      2.477343000000000
C       4.676551000000000      6.064222000000000      1.127334000000000
C       3.336416000000000      7.882266000000000      2.834945000000000
C       5.989133000000000      9.551980000000000      2.474088000000000
H       6.729869000000000      7.772350000000000      1.517953000000000
H       7.049394000000000      7.883782000000000      3.243472000000000
C       4.519951000000000      6.987170000000000     -0.048800000000000
H       3.811681000000000      5.398579000000000      1.239593000000000
H       5.560357000000000      5.435675000000000      0.987348000000000
C       2.959539000000000      8.587871000000000      4.107811000000000
H       2.553918000000000      7.149728000000000      2.597812000000000
H       3.386079000000000      8.594832000000000      2.006437000000000
C       6.341470000000000     10.330678000000001      3.580605000000000
C       5.376019000000000     10.177284999999999      1.381875000000000
C       3.283764000000000      7.557024000000000     -0.377161000000000
C       5.631676000000000      7.307804000000000     -0.838843000000000
C       2.317816000000000      7.875579000000000      5.122164000000000
C       3.139166000000000      9.964547000000000      4.264843000000000
C       6.085922000000000     11.698912999999999      3.603477000000000
H       6.815809000000000      9.853501000000000      4.435091000000000
C       5.115196000000000     11.545133999999999      1.405472000000000
H       5.106045000000000      9.591645000000000      0.506311000000000
C       3.169594000000000      8.461551999999999     -1.428562000000000
H       2.401736000000000      7.290294000000000      0.199619000000000
C       5.517441000000000      8.209871000000000     -1.894403000000000
H       6.586133000000000      6.832435000000000     -0.627336000000000
C       1.856460000000000      8.519349000000000      6.266481000000000
H       2.156160000000000      6.810063000000000      4.992565000000000
C       2.709162000000000     10.605969000000000      5.423958000000000
H       3.598901000000000     10.540706000000000      3.467527000000000
C       5.468259000000000     12.311332999999999      2.515537000000000
H       6.366383000000000     12.284624000000001      4.473555000000000
H       4.638666000000000     12.012684000000000      0.549070000000000
C       4.290235000000000      8.800482000000001     -2.185092000000000
H       2.202893000000000      8.897838000000000     -1.660884000000000
H       6.391772000000000      8.449311000000000     -2.491873000000000
C       2.063446000000000      9.887864000000000      6.428444000000000
H       1.323068000000000      7.945060000000000      7.019664000000000
H       2.863773000000000     11.675789000000000      5.529824000000000
H       5.266319000000000     13.377843000000000      2.529842000000000
H       4.202474000000000      9.506895000000000     -3.004567000000000
H       1.707087000000000     10.394524000000001      7.320497000000000
C       6.856444000000000      3.421562000000000      4.131365000000000
C       7.070903000000000      4.292836000000000      3.046571000000000
C       8.335520000000001      5.098485000000000      2.940711000000000
O       9.270346999999999      4.487154000000000      2.020625000000000
C       9.016852000000000      4.712784000000000      0.727516000000000
C      10.022601000000000      4.027058000000000     -0.158818000000000
O       8.088775000000000      5.383558000000000      0.331584000000000
H       7.616838000000000      3.338474000000000      4.905231000000000
H       6.246207000000000      2.532694000000000      4.000728000000000
H       6.608704000000000      4.057509000000000      2.091771000000000
H       8.860110000000001      5.125885000000000      3.899906000000000
H       8.159115999999999      6.116953000000000      2.591387000000000
H       9.947823000000000      2.945161000000000     -0.021112000000000
H      11.034003999999999      4.327108000000000      0.124719000000000
H       9.826079000000000      4.285102000000000     -1.198160000000000
