69

H       3.924369000000000      5.390608000000000      4.462564000000000
Rh      5.434880000000000      4.969731000000000      4.242881000000000
C       7.317817000000000      4.452441000000000      4.072847000000000
O       8.406798999999999      4.108551000000000      4.002862000000000
P       5.723641000000000      7.319984000000000      3.842493000000000
C       5.421864000000000      8.799709999999999      4.944888000000000
C       7.387366000000000      7.725169000000000      3.099563000000000
C       4.593783000000000      7.780113000000000      2.429604000000000
C       5.693143000000000      8.592530999999999      6.443851000000000
H       6.030326000000000      9.632327000000000      4.576501000000000
H       4.371679000000000      9.080710000000000      4.821539000000000
C       8.586986000000000      7.661093000000000      4.057942000000000
H       7.547534000000000      6.975413000000000      2.317240000000000
H       7.360170000000000      8.704090000000001      2.615481000000000
C       4.295404000000000      9.251894999999999      2.090446000000000
H       4.960057000000000      7.274489000000000      1.531036000000000
H       3.634311000000000      7.309962000000000      2.669848000000000
C       4.492421000000000      8.067963000000001      7.098006000000000
H       6.532481000000000      7.913628000000000      6.619738000000000
H       5.961547000000000      9.542574000000000      6.915479000000000
C       8.585732999999999      8.758627000000001      5.031296000000000
H       8.622010000000000      6.725287000000000      4.622769000000000
H       9.514359000000001      7.730442000000000      3.480176000000000
C       5.470707000000000     10.070811000000001      1.776996000000000
H       3.640558000000000      9.269955000000000      1.212676000000000
H       3.751179000000000      9.749468999999999      2.898468000000000
N       3.510219000000000      7.680809000000000      7.569580000000000
N       8.543545000000000      9.630756000000000      5.788926000000000
N       6.395768000000000     10.718501000000000      1.530634000000000
P       5.153412000000000      3.660614000000000      6.207055000000000
C       5.681720000000000      1.876985000000000      5.973880000000000
C       6.064696000000000      3.873221000000000      7.827906000000000
C       3.398797000000000      3.401970000000000      6.756698000000000
C       4.738602000000000      0.951678000000000      5.182268000000000
H       6.645565000000000      1.918702000000000      5.454681000000000
H       5.864229000000000      1.432054000000000      6.958470000000000
C       6.413783000000000      5.318712000000000      8.204369000000000
H       5.464433000000000      3.426184000000000      8.626238000000001
H       6.990906000000000      3.293392000000000      7.748796000000000
C       2.716032000000000      4.638375000000000      7.357872000000000
H       2.844336000000000      3.109528000000000      5.857870000000000
H       3.349453000000000      2.566890000000000      7.462927000000000
C       3.670118000000000      0.382462000000000      6.011307000000000
H       4.278667000000000      1.467751000000000      4.337784000000000
H       5.309550000000000      0.113321000000000      4.769600000000000
C       7.581343000000000      5.775035000000000      7.445135000000000
H       5.575780000000000      5.998554000000000      8.022777000000000
H       6.644126000000000      5.387168000000000      9.272112999999999
C       3.202566000000000      4.909448000000000      8.715360000000000
H       2.882133000000000      5.529261000000000      6.744013000000000
H       1.635749000000000      4.473021000000000      7.415182000000000
N       2.836759000000000     -0.060531000000000      6.677831000000000
N       8.514730999999999      6.093106000000000      6.841396000000000
N       3.634443000000000      5.064371000000000      9.776427000000000
C       4.621360000000000      3.430512000000000      2.894105000000000
C       4.855871000000000      4.593971000000000      2.149382000000000
C       5.990168000000000      4.645254000000000      1.162613000000000
O       5.563482000000000      4.207935000000000     -0.143715000000000
C       4.877325000000000      5.109444000000000     -0.862407000000000
C       4.466555000000000      4.546503000000000     -2.196063000000000
O       4.629004000000000      6.227239000000000     -0.472147000000000
H       5.302582000000000      2.588462000000000      2.781358000000000
H       3.606627000000000      3.177634000000000      3.187230000000000
H       4.010238000000000      5.228160000000000      1.900584000000000
H       6.781836000000000      3.945558000000000      1.442248000000000
H       6.412791000000000      5.647843000000000      1.055868000000000
H       3.807553000000000      3.688197000000000     -2.041625000000000
H       5.347925000000000      4.193355000000000     -2.736488000000000
H       3.952425000000000      5.315133000000000     -2.770565000000000
