91

H       5.412384000000000      4.212845000000000      3.535052000000000
Rh      6.558922000000000      4.920263000000000      4.364518000000000
C       7.953914000000000      5.829343000000000      5.408837000000000
O       8.743375000000000      6.351792000000000      6.047334000000000
P       5.434757000000000      6.894706000000000      3.807875000000000
C       6.155619000000000      8.378755999999999      4.614781000000000
C       5.421164000000000      7.374489000000000      2.029278000000000
C       3.614108000000000      7.055489000000000      4.126664000000000
C       5.560425000000000      9.022105000000000      5.702754000000000
C       7.430086000000000      8.788185000000000      4.200412000000000
C       5.419471000000000      8.711152999999999      1.617482000000000
C       5.331897000000000      6.363191000000000      1.068209000000000
N       3.097422000000000      8.286161000000000      4.083361000000000
C       2.842541000000000      5.910898000000000      4.321076000000000
C       6.229574000000000     10.050072000000000      6.365012000000000
H       4.567308000000000      8.730200999999999      6.025572000000000
C       8.091298000000000      9.821202000000000      4.855439000000000
H       7.914270000000000      8.294264999999999      3.359650000000000
C       5.362397000000000      9.025133000000000      0.262510000000000
H       5.458461000000000      9.504453000000000      2.357311000000000
C       5.264901000000000      6.680095000000000     -0.286217000000000
H       5.311410000000000      5.326698000000000      1.391995000000000
C       1.782614000000000      8.438992000000001      4.266643000000000
C       1.473096000000000      6.068931000000000      4.507462000000000
H       3.313323000000000      4.933889000000000      4.336846000000000
C       7.492953000000000     10.453096000000000      5.944008000000000
H       5.755417000000000     10.540445000000000      7.209997000000000
H       9.077021000000000     10.125140000000000      4.517990000000000
C       5.289758000000000      8.012038000000000     -0.691049000000000
H       5.371845000000000     10.065241000000000     -0.048468000000000
H       5.199181000000000      5.885985000000000     -1.023666000000000
C       0.935106000000000      7.348955000000000      4.486622000000000
C       1.264592000000000      9.851186000000000      4.211013000000000
H       0.838277000000000      5.204288000000000      4.676642000000000
H       8.010643999999999     11.254896000000000      6.460987000000000
H       5.249205000000000      8.261087000000000     -1.746982000000000
H      -0.127658000000000      7.511813000000000      4.635024000000000
H       0.197719000000000      9.899247000000001      4.440782000000000
H       1.810622000000000     10.479410000000000      4.920335000000000
H       1.428359000000000     10.270530000000001      3.213834000000000
P       5.598879000000000      3.874143000000000      6.235610000000000
C       6.704620000000000      3.582918000000000      7.677532000000000
C       4.178753000000000      4.746198000000000      7.018191000000000
C       4.930189000000000      2.156811000000000      6.004850000000000
C       8.049645999999999      3.290821000000000      7.433326000000000
C       6.237958000000000      3.600246000000000      8.995246000000000
C       4.370586000000000      6.101380000000000      7.317023000000000
C       2.926414000000000      4.174002000000000      7.250268000000000
N       4.607750000000000      1.494532000000000      7.121781000000000
C       4.804376000000000      1.601214000000000      4.732165000000000
C       8.918558000000001      3.026778000000000      8.488937999999999
H       8.413422000000001      3.269424000000000      6.409203000000000
C       7.109931000000000      3.347144000000000     10.049848000000001
H       5.191220000000000      3.806913000000000      9.194518000000000
C       3.332520000000000      6.868613000000000      7.833408000000000
H       5.339105000000000      6.561556000000000      7.125276000000000
C       1.881134000000000      4.949144000000000      7.754123000000000
H       2.758429000000000      3.123401000000000      7.040085000000000
C       4.147731000000000      0.244675000000000      7.024249000000000
C       4.321210000000000      0.298581000000000      4.629529000000000
H       5.085871000000000      2.179407000000000      3.859592000000000
C       8.450317999999999      3.060907000000000      9.799372000000000
H       9.961397000000000      2.803733000000000      8.286154000000000
H       6.740146000000000      3.370339000000000     11.070379000000001
C       2.078859000000000      6.295085000000000      8.043589000000001
H       3.499866000000000      7.916640000000000      8.065178000000000
H       0.909083000000000      4.494147000000000      7.920561000000000
C       3.990760000000000     -0.390932000000000      5.787199000000000
C       3.808413000000000     -0.441119000000000      8.320316000000000
H       4.211553000000000     -0.172001000000000      3.657059000000000
H       9.128242000000000      2.866274000000000     10.624771000000001
H       1.262324000000000      6.896447000000000      8.431009000000000
H       3.618305000000000     -1.409430000000000      5.745666000000000
H       3.468374000000000     -1.466321000000000      8.158042999999999
H       4.685196000000000     -0.455729000000000      8.973549999999999
H       3.023179000000000      0.112265000000000      8.843911000000000
C       7.960558000000000      3.437136000000000      3.572546000000000
C       7.756423000000000      4.447818000000000      2.611470000000000
C       8.779661000000001      5.499314000000000      2.312759000000000
O       9.647451000000000      5.014125000000000      1.264639000000000
C      10.579990000000000      5.885906000000000      0.853745000000000
C      11.422998000000000      5.299302000000000     -0.250765000000000
O      10.713063999999999      6.992022000000000      1.318675000000000
H       8.891252000000000      3.421398000000000      4.137237000000000
H       7.489188000000000      2.466193000000000      3.454076000000000
H       7.104178000000000      4.226057000000000      1.770776000000000
H       9.396267999999999      5.733391000000000      3.187966000000000
H       8.314849000000001      6.426113000000000      1.960272000000000
H      10.787520000000001      5.045753000000000     -1.103065000000000
H      11.895265999999999      4.376462000000000      0.094816000000000
H      12.180837000000000      6.021842000000000     -0.549635000000000
