107

H       4.373732000000000      4.085842000000000      4.048541000000000
Rh      5.628849000000000      4.742508000000000      4.758053000000000
C       7.243347000000000      5.363363000000000      5.671938000000000
O       8.204720999999999      5.618902000000000      6.238843000000000
P       4.946745000000000      3.474874000000000      6.470978000000000
O       5.450120000000000      3.896346000000000      8.001894000000000
O       3.305860000000000      3.442769000000000      6.687849000000000
N       5.301752000000000      1.811713000000000      6.629705000000000
C       4.843726000000000      5.007076000000000      8.552833000000000
C       2.787847000000000      2.890600000000000      7.848140000000000
C       6.681565000000000      1.518242000000000      7.010933000000000
C       4.894990000000000      1.043716000000000      5.455064000000000
C       3.572264000000000      4.892865000000000      9.076206000000001
C       5.565001000000000      6.222381000000000      8.567187000000001
C       2.893238000000000      3.570020000000000      9.043847000000000
C       2.117169000000000      1.653431000000000      7.735132000000000
H       7.402675000000000      1.816111000000000      6.230364000000000
H       6.772778000000000      0.439532000000000      7.169770000000000
H       6.926131000000000      2.027838000000000      7.943155000000000
H       4.857880000000000     -0.016023000000000      5.726617000000000
H       5.588897000000000      1.172237000000000      4.610776000000000
H       3.897591000000000      1.351039000000000      5.128893000000000
C       2.928680000000000      6.080743000000000      9.559725000000000
C       4.979844000000000      7.347296000000000      9.080180000000000
H       6.576951000000000      6.227370000000000      8.177491000000000
C       2.374135000000000      2.944766000000000     10.226364999999999
C       1.562152000000000      1.082333000000000      8.845665000000000
H       2.053537000000000      1.187875000000000      6.757641000000000
C       3.646455000000000      7.311592000000000      9.567364000000000
C       1.567577000000000      6.094398000000000      9.971477999999999
H       5.520629000000000      8.289510999999999      9.099071000000000
C       1.688182000000000      1.701552000000000     10.117175000000000
C       2.546181000000000      3.505733000000000     11.521559999999999
H       1.035090000000000      0.135176000000000      8.773305000000001
C       3.004740000000000      8.491899999999999     10.026047000000000
C       0.971020000000000      7.255009000000000     10.395135000000000
H       0.995498000000000      5.173905000000000      9.933491999999999
C       1.161394000000000      1.089914000000000     11.284662000000001
C       2.035340000000000      2.884395000000000     12.632811999999999
H       3.099504000000000      4.432599000000000     11.625909000000000
C       1.697250000000000      8.468337000000000     10.435020000000000
H       3.570984000000000      9.419364000000000     10.030462000000000
H      -0.071587000000000      7.243468000000000     10.696562000000000
C       1.323908000000000      1.667279000000000     12.516589000000000
H       0.633053000000000      0.145977000000000     11.179933999999999
H       2.183858000000000      3.328154000000000     13.612139000000001
H       1.212775000000000      9.377632000000000     10.775493000000001
H       0.920596000000000      1.189831000000000     13.403737000000000
P       4.324089000000000      6.587000000000000      4.448385000000000
O       4.747053000000000      8.078738000000000      5.057669000000000
O       4.252660000000000      6.916122000000000      2.834137000000000
N       2.682451000000000      6.680748000000000      4.866678000000000
C       5.903409000000000      8.608815999999999      4.522990000000000
C       3.808410000000000      8.136070000000000      2.369225000000000
C       2.397807000000000      6.895593000000000      6.285298000000000
C       1.869745000000000      5.600839000000000      4.310212000000000
C       5.878453000000000      9.162412000000000      3.257878000000000
C       7.080205000000000      8.545423000000000      5.300740000000000
C       4.582571000000000      9.264284000000000      2.537560000000000
C       2.581904000000000      8.158689000000001      1.671330000000000
H       2.558225000000000      5.981944000000000      6.873916000000000
H       1.350019000000000      7.196558000000000      6.388628000000000
H       3.024408000000000      7.697481000000000      6.679476000000000
H       0.818767000000000      5.905145000000000      4.352932000000000
H       1.993848000000000      4.659559000000000      4.865706000000000
H       2.136127000000000      5.431119000000000      3.263882000000000
C       7.123800000000000      9.570071000000000      2.675878000000000
C       8.263667999999999      8.987183999999999      4.774544000000000
H       7.008388000000000      8.136514000000000      6.303393000000000
C       4.077318000000000     10.515463000000000      2.053171000000000
C       2.120064000000000      9.336029999999999      1.153251000000000
H       2.038586000000000      7.227565000000000      1.553787000000000
C       8.320292999999999      9.482768999999999      3.444833000000000
C       7.220475000000000      9.994536000000000      1.321240000000000
H       9.178616999999999      8.937771000000000      5.358357000000000
C       2.844546000000000     10.542273000000000      1.340065000000000
C       4.745844000000000     11.749872000000000      2.282378000000000
H       1.182370000000000      9.367084999999999      0.605481000000000
C       9.556196000000000      9.865558999999999      2.857896000000000
C       8.431160999999999     10.345205000000000      0.780231000000000
H       6.324525000000000     10.003375000000000      0.710831000000000
C       2.349569000000000     11.777737000000000      0.846710000000000
C       4.236792000000000     12.929166000000000      1.800955000000000
H       5.666150000000000     11.753508000000000      2.856038000000000
C       9.614095000000001     10.291845000000000      1.557528000000000
H      10.457466999999999      9.800395999999999      3.461529000000000
H       8.484598000000000     10.659350999999999     -0.257740000000000
C       3.029217000000000     12.947324000000000      1.064356000000000
H       1.411600000000000     11.775480000000000      0.297580000000000
H       4.762908000000000     13.859108000000001      1.992568000000000
H      10.563871000000001     10.577026000000000      1.116374000000000
H       2.640520000000000     13.887053999999999      0.685345000000000
C       6.818753000000000      3.567588000000000      3.259206000000000
C       6.523445000000000      4.829277000000000      2.734158000000000
C       7.553892000000000      5.923334000000000      2.644053000000000
O       8.129431000000000      6.021539000000000      1.325398000000000
C       7.403720000000000      6.714455000000000      0.431835000000000
C       8.171032000000000      6.914056000000000     -0.848971000000000
O       6.295963000000000      7.142945000000000      0.649408000000000
H       7.816942000000000      3.354299000000000      3.635373000000000
H       6.238491000000000      2.702271000000000      2.960295000000000
H       5.686660000000000      4.949045000000000      2.051356000000000
H       8.404156000000000      5.717011000000000      3.300604000000000
H       7.123216000000000      6.893933000000000      2.890559000000000
H       8.642932999999999      5.981457000000000     -1.164200000000000
H       8.961404000000000      7.648692000000000     -0.666073000000000
H       7.497691000000000      7.287069000000000     -1.619578000000000
