115

H       5.624643000000000      5.599718000000000      5.370452000000000
Rh      6.992847000000000      6.368101000000000      5.547506000000000
C       8.724292000000000      7.232620000000000      5.859746000000000
O       9.748785000000000      7.691288000000000      6.080647000000000
P       5.522105000000000      8.062773999999999      5.082794000000000
O       6.093481000000000      9.563769000000001      4.565234000000000
O       4.726565000000000      7.630636000000000      3.674202000000000
N       4.289600000000000      8.578519000000000      6.059091000000000
C       6.962532000000000      9.532031000000000      3.503118000000000
C       4.201790000000000      8.487943000000000      2.741547000000000
C       3.331189000000000      9.628795000000000      5.651149000000000
C       4.342510000000000      8.459676999999999      7.529084000000000
C       6.471239000000000      9.362353000000001      2.224987000000000
C       8.343584000000000      9.675117999999999      3.770286000000000
C       5.001011000000000      9.344874000000001      2.011142000000000
C       2.811567000000000      8.367099000000000      2.494597000000000
C       2.682728000000000     10.071220000000000      6.969221000000000
H       2.597965000000000      9.231883000000000      4.944417000000000
H       3.862252000000000     10.454755000000000      5.164340000000000
C       3.771643000000000      9.793224000000000      8.006228000000000
H       5.364403000000000      8.285427000000000      7.863878000000000
H       3.727311000000000      7.616928000000000      7.868720000000000
C       7.411814000000000      9.182036999999999      1.155889000000000
C       9.244875000000000      9.577866999999999      2.746422000000000
H       8.651168999999999      9.862812000000000      4.793479000000000
C       4.364412000000000     10.237868000000001      1.080922000000000
C       2.212302000000000      9.155182000000000      1.554756000000000
H       2.259477000000000      7.629481000000000      3.068082000000000
H       1.804462000000000      9.451079999999999      7.179322000000000
H       2.362082000000000     11.115137000000001      6.937612000000000
H       4.550066000000000     10.563513000000000      7.952978000000000
H       3.401441000000000      9.747705000000000      9.034153999999999
C       8.806618000000000      9.300254000000001      1.423455000000000
C       7.008176000000000      8.840370999999999     -0.164188000000000
H      10.309022000000001      9.688354000000000      2.936093000000000
C       2.965070000000000     10.126721999999999      0.842158000000000
C       5.077245000000000     11.264447000000001      0.402757000000000
H       1.149013000000000      9.061584999999999      1.352241000000000
C       9.737833999999999      9.122221000000000      0.366936000000000
C       7.933788000000000      8.659934000000000     -1.160487000000000
H       5.952425000000000      8.709344000000000     -0.374742000000000
C       2.340599000000000     10.998276000000001     -0.086895000000000
C       4.443243000000000     12.101141000000000     -0.481137000000000
H       6.135634000000000     11.391730000000001      0.600723000000000
C       9.315626999999999      8.813165000000000     -0.899367000000000
H      10.796652000000000      9.225960000000001      0.588962000000000
H       7.602671000000000      8.390680000000000     -2.158462000000000
C       3.060542000000000     11.963290000000001     -0.741693000000000
H       1.273286000000000     10.888799000000001     -0.260545000000000
H       5.008854000000000     12.881297999999999     -0.980786000000000
H      10.035961000000000      8.673178000000000     -1.698867000000000
H       2.573242000000000     12.628128000000000     -1.447560000000000
P       6.966924000000000      5.446042000000000      7.606454000000000
O       7.754649000000000      6.253359000000000      8.848250999999999
O       5.420241000000000      5.467542000000000      8.251961000000000
N       7.624619000000000      3.971506000000000      7.982869000000000
C       7.189688000000000      7.378824000000000      9.391451999999999
C       5.249232000000000      5.066121000000000      9.554983000000000
C       8.159845000000001      3.567847000000000      9.303813999999999
C       7.838967000000000      2.919038000000000      6.975346000000000
C       6.118134000000000      7.266926000000000     10.256549000000000
C       7.759105000000000      8.628238000000000      9.052008000000001
C       5.593117000000000      5.915873000000000     10.586810000000000
C       4.724696000000000      3.772320000000000      9.779893000000000
C       8.426131000000000      2.072873000000000      9.126764000000000
H       7.455518000000000      3.779078000000000     10.111189000000000
H       9.085760000000001      4.116803000000000      9.509988000000000
C       8.827393000000001      1.972262000000000      7.653817000000000
H       8.226260000000000      3.332592000000000      6.045433000000000
H       6.899952000000000      2.392381000000000      6.753261000000000
C       5.509209000000000      8.469839000000000     10.743143000000000
C       7.223334000000000      9.778179000000000      9.564754000000001
H       8.617831000000001      8.638813000000001      8.389309000000001
C       5.490340000000000      5.429693000000000     11.931863000000000
C       4.574323000000000      3.319655000000000     11.061370000000000
H       4.460744000000000      3.170474000000000      8.916565000000000
H       7.500320000000000      1.512323000000000      9.302562999999999
H       9.187963999999999      1.704605000000000      9.818097000000000
H       9.848371000000000      2.345254000000000      7.517021000000000
H       8.773795000000000      0.962601000000000      7.242347000000000
C       6.081719000000000      9.730893000000000     10.407643000000000
C       4.313789000000000      8.458268000000000     11.514898000000001
H       7.653518000000000     10.744453999999999      9.316540000000000
C       4.965460000000000      4.125269000000000     12.164698000000000
C       5.934875000000000      6.185307000000000     13.051753000000000
H       4.170734000000000      2.329286000000000     11.253296000000001
C       5.478202000000000     10.922160000000000     10.890093000000000
C       3.746283000000000      9.628049000000001     11.953840000000000
H       3.845131000000000      7.507745000000000     11.745810000000001
C       4.861009000000000      3.643039000000000     13.495793000000001
C       5.830309000000000      5.686461000000000     14.325251000000000
H       6.371595000000000      7.164292000000000     12.886979999999999
C       4.338664000000000     10.877166000000001     11.649660000000001
H       5.934069000000000     11.873903000000000     10.629892999999999
H       2.830952000000000      9.595571000000000     12.536355000000000
C       5.277739000000000      4.404621000000000     14.555861999999999
H       4.449459000000000      2.649777000000000     13.654617000000000
H       6.181022000000000      6.278649000000000     15.164561000000001
H       3.881541000000000     11.793824000000001     12.007947000000000
H       5.196832000000000      4.025108000000000     15.569292000000001
C       7.465767000000000      6.127085000000000      3.363698000000000
C       7.678751000000000      4.897833000000000      3.982214000000000
C       6.684831000000000      3.785071000000000      3.777025000000000
O       7.104962000000000      2.927504000000000      2.689915000000000
C       8.041848000000000      2.020267000000000      2.990074000000000
C       8.419501000000000      1.208802000000000      1.777495000000000
O       8.519254999999999      1.879400000000000      4.092750000000000
H       6.554397000000000      6.292551000000000      2.795762000000000
H       8.293690000000000      6.788601000000000      3.122149000000000
H       8.689558999999999      4.580947000000000      4.229831000000000
H       5.723899000000000      4.192104000000000      3.457492000000000
H       6.543698000000000      3.164783000000000      4.662140000000000
H       8.855651000000000      1.867537000000000      1.021965000000000
H       7.527286000000000      0.752863000000000      1.341993000000000
H       9.137332000000001      0.441765000000000      2.063787000000000
