119

H       2.011067000000000      5.442090000000000      4.510371000000000
Rh      3.106545000000000      5.825577000000000      5.576004000000000
C       4.579170000000000      6.438634000000000      6.749444000000000
O       5.434370000000000      6.885968000000000      7.357445000000000
P       3.472147000000000      3.573864000000000      5.559788000000000
O       4.362159000000000      2.832714000000000      6.769974000000000
O       4.422106000000000      3.125542000000000      4.261903000000000
N       2.202847000000000      2.494503000000000      5.622303000000000
C       5.722868000000000      3.023394000000000      6.845186000000000
C       4.928893000000000      1.853782000000000      4.145196000000000
C       2.341287000000000      1.075356000000000      5.939477000000000
C       0.831890000000000      2.861565000000000      5.294129000000000
C       6.558529000000000      2.418378000000000      5.926764000000000
C       6.206025000000000      3.765573000000000      7.960112000000000
C       5.990351000000000      1.467242000000000      4.933720000000000
C       4.329186000000000      1.015327000000000      3.165079000000000
H       1.655565000000000      0.821685000000000      6.756617000000000
H       3.357857000000000      0.841312000000000      6.249961000000000
H       2.085830000000000      0.462683000000000      5.064074000000000
H       0.793172000000000      3.874465000000000      4.895575000000000
H       0.197340000000000      2.800183000000000      6.185685000000000
H       0.443107000000000      2.176820000000000      4.528307000000000
C       7.961764000000000      2.704952000000000      5.997588000000000
C       7.556673000000000      3.971207000000000      8.060382000000001
C       5.246912000000000      4.210602000000000      9.027676000000000
C       6.454790000000000      0.110911000000000      4.828033000000000
C       4.823612000000000     -0.253113000000000      3.022860000000000
C       3.194754000000000      1.554682000000000      2.339852000000000
C       8.458549000000000      3.475352000000000      7.085175000000000
C       8.877815000000000      2.282636000000000      4.995285000000000
H       7.954000000000000      4.534401000000000      8.901612999999999
H       4.346410000000000      4.650461000000000      8.598685000000000
H       4.923072000000000      3.352062000000000      9.627259000000000
H       5.717371000000000      4.941836000000000      9.689132000000001
C       5.872577000000000     -0.741257000000000      3.847023000000000
C       7.441957000000000     -0.437307000000000      5.691523000000000
H       4.395164000000000     -0.919261000000000      2.277271000000000
H       2.836256000000000      0.801000000000000      1.634993000000000
H       2.361085000000000      1.864439000000000      2.980649000000000
H       3.507570000000000      2.441811000000000      1.779742000000000
C       9.850280000000000      3.742798000000000      7.169646000000000
C      10.212809999999999      2.590907000000000      5.083440000000000
H       8.503968000000000      1.722015000000000      4.144256000000000
C       6.329499000000000     -2.079006000000000      3.724601000000000
C       7.853884000000000     -1.739637000000000      5.556906000000000
H       7.864007000000000      0.181938000000000      6.474725000000000
C      10.711924000000000      3.316275000000000      6.191415000000000
H      10.215667000000000      4.307474000000000      8.023802000000000
H      10.891966999999999      2.272369000000000      4.299225000000000
C       7.303425000000000     -2.570435000000000      4.554431000000000
H       5.880678000000000     -2.710050000000000      2.962029000000000
H       8.605344000000001     -2.137107000000000      6.231720000000000
H      11.772357000000000      3.536917000000000      6.259950000000000
H       7.642804000000000     -3.596412000000000      4.454607000000000
P       3.741220000000000      7.260421000000000      3.949794000000000
O       5.187924000000000      7.239192000000000      3.139295000000000
O       3.794881000000000      8.775262000000000      4.612872000000000
N       2.788590000000000      7.490186000000000      2.553514000000000
C       6.300033000000000      7.305194000000000      3.961296000000000
C       4.543945000000000      9.815951999999999      4.094666000000000
C       1.366023000000000      7.648256000000000      2.836358000000000
C       3.006832000000000      6.495220000000000      1.502086000000000
C       6.620605000000000      8.510395000000001      4.547957000000000
C       7.079943000000000      6.126099000000000      4.102994000000000
C       5.920718000000000      9.744459000000001      4.098472000000000
C       3.826490000000000     10.971294000000000      3.680628000000000
H       0.881332000000000      6.693213000000000      3.096219000000000
H       0.877606000000000      8.061503000000000      1.947688000000000
H       1.221295000000000      8.346475000000000      3.663622000000000
H       2.436402000000000      6.798759000000000      0.619030000000000
H       2.665419000000000      5.491593000000000      1.808716000000000
H       4.063359000000000      6.453085000000000      1.239475000000000
C       7.672303000000000      8.521542000000000      5.522133000000000
C       8.142225000000000      6.170618000000000      4.968396000000000
C       6.764093000000000      4.935760000000000      3.244784000000000
C       6.662413000000000     10.854684000000001      3.565367000000000
C       4.545700000000000     12.055204000000000      3.253689000000000
C       2.324941000000000     10.971655000000000      3.712617000000000
C       8.432176999999999      7.336337000000000      5.727645000000000
C       7.965323000000000      9.664104999999999      6.313219000000000
H       8.781700000000001      5.297562000000000      5.081006000000000
H       7.400937000000000      4.089615000000000      3.515651000000000
H       5.720194000000000      4.635889000000000      3.353566000000000
H       6.934517000000000      5.176812000000000      2.188717000000000
C       5.960825000000000     12.026780000000000      3.168339000000000
C       8.072338000000000     10.825369000000000      3.381179000000000
H       4.023538000000000     12.958678000000001      2.946660000000000
H       1.946477000000000     10.585309000000001      4.664066000000000
H       1.938092000000000     11.982504000000000      3.563196000000000
H       1.930563000000000     10.332696000000000      2.915517000000000
C       9.483616000000000      7.345511000000000      6.680555000000000
C       8.973858000000000      9.634497000000000      7.243364000000000
H       7.371201000000000     10.562336999999999      6.179124000000000
C       6.682926000000000     13.139468000000001      2.663616000000000
C       8.742075000000000     11.911832000000000      2.877075000000000
H       8.622178999999999      9.925834000000000      3.631896000000000
C       9.751448999999999      8.466547000000000      7.423129000000000
H      10.068493999999999      6.438166000000000      6.803952000000000
H       9.176696000000000     10.513916000000000      7.846386000000000
C       8.045244000000000     13.090762000000000      2.525490000000000
H       6.127275000000000     14.028681000000001      2.377486000000000
H       9.817761000000001     11.862287000000000      2.740726000000000
H      10.554974000000000      8.460955000000000      8.153036999999999
H       8.588464000000000     13.945079000000000      2.134334000000000
C       1.592170000000000      7.155028000000000      6.531250000000000
C       1.390744000000000      5.857581000000000      7.005126000000000
C       1.782038000000000      5.431281000000000      8.390116000000001
O       0.679330000000000      5.582378000000000      9.312415000000000
C      -0.263318000000000      4.630590000000000      9.248589000000001
C      -1.361527000000000      4.889042000000000     10.247540000000001
O      -0.226334000000000      3.694385000000000      8.485084000000001
H       2.107951000000000      7.893932000000000      7.140062000000000
H       0.940610000000000      7.561102000000000      5.765497000000000
H       0.593084000000000      5.261720000000000      6.571635000000000
H       2.567944000000000      6.075293000000000      8.793755000000001
H       2.103791000000000      4.386333000000000      8.417064000000000
H      -1.843230000000000      5.843640000000000     10.020557000000000
H      -0.939353000000000      4.963325000000000     11.252492000000000
H      -2.090262000000000      4.081385000000000     10.201454999999999
