99

P      -2.131018000000000     -0.614714000000000     -0.047473000000000
C      -2.971856000000000     -1.392895000000000     -1.495883000000000
C      -3.474741000000000      0.503934000000000      0.550239000000000
C      -2.239071000000000     -1.948323000000000      1.259539000000000
C      -3.183299000000000     -0.574911000000000     -2.615091000000000
C      -3.808343000000000     -1.067252000000000     -3.753727000000000
C      -4.225742000000000     -2.397007000000000     -3.801556000000000
C      -4.022896000000000     -3.219380000000000     -2.699574000000000
C      -3.406150000000000     -2.720101000000000     -1.551384000000000
C      -4.824441000000000      0.189480000000000      0.351501000000000
C      -5.824420000000000      1.018614000000000      0.853033000000000
C      -5.489729000000000      2.174779000000000      1.554984000000000
C      -4.150808000000000      2.494764000000000      1.762885000000000
C      -3.151521000000000      1.659457000000000      1.269584000000000
H      -3.232912000000000     -2.410386000000000      1.154857000000000
H      -2.993155000000000     -0.669782000000000      2.840924000000000
H      -3.172622000000000     -2.962278000000000      3.708024000000000
H      -2.094091000000000     -2.022019000000000      4.735165000000000
C      -2.161349000000000     -1.361586000000000      2.677582000000000
H      -2.856341000000000      0.462460000000000     -2.582628000000000
H      -3.965568000000000     -0.414555000000000     -4.606743000000000
H      -4.706739000000000     -2.786951000000000     -4.693035000000000
H      -4.347944000000000     -4.255034000000000     -2.724855000000000
H      -3.275582000000000     -3.382212000000000     -0.701605000000000
H      -5.097767000000000     -0.703131000000000     -0.205277000000000
H      -6.866873000000000      0.763817000000000      0.687307000000000
H      -6.271519000000000      2.826971000000000      1.932328000000000
H      -3.869081000000000      3.402227000000000      2.286794000000000
H      -2.110507000000000      1.921962000000000      1.432019000000000
H      -1.240010000000000     -0.772854000000000      2.782425000000000
C      -1.099854000000000     -3.511967000000000      3.508141000000000
H      -0.114460000000000     -3.035816000000000      3.612497000000000
H      -1.156672000000000     -4.298385000000000      4.268686000000000
C      -2.192051000000000     -2.466716000000000      3.738640000000000
P       2.067158000000000     -0.205047000000000     -0.132312000000000
C       2.668523000000000     -0.195599000000000      1.634156000000000
C       3.256659000000000      0.919545000000000     -0.981932000000000
C       2.619279000000000     -1.838265000000000     -0.791647000000000
H       2.487561000000000      0.843503000000000      1.954086000000000
H       4.803724000000000      0.059158000000000      1.238142000000000
H       4.387405000000000      0.686022000000000      3.626435000000000
C       4.508339000000000     -0.370237000000000      3.346938000000000
C       4.143281000000000     -0.546058000000000      1.868447000000000
C       3.886867000000000      1.985566000000000     -0.332385000000000
C       4.655643000000000      2.903839000000000     -1.047128000000000
C       4.807330000000000      2.769389000000000     -2.422894000000000
C       4.188181000000000      1.707910000000000     -3.081784000000000
C       3.420056000000000      0.794272000000000     -2.368570000000000
C       1.650857000000000     -2.785498000000000     -1.132358000000000
C       2.018512000000000     -4.040871000000000     -1.615037000000000
C       3.363309000000000     -4.356584000000000     -1.775328000000000
C       4.339738000000000     -3.410062000000000     -1.464613000000000
C       3.971266000000000     -2.159440000000000     -0.980777000000000
H       4.303306000000000     -1.594999000000000      1.586439000000000
C       3.617215000000000     -1.236810000000000      4.239389000000000
H       3.814538000000000     -2.295133000000000      4.019340000000000
H       3.863949000000000     -1.079559000000000      5.294943000000000
H       5.563461000000000     -0.620599000000000      3.502399000000000
H       3.787441000000000      2.109979000000000      0.742573000000000
H       5.135775000000000      3.724049000000000     -0.522409000000000
H       5.404064000000000      3.484933000000000     -2.979469000000000
H       4.301658000000000      1.591371000000000     -4.155142000000000
H       2.941148000000000     -0.028530000000000     -2.894778000000000
H       0.601849000000000     -2.522270000000000     -1.032304000000000
H       1.251126000000000     -4.763179000000000     -1.876373000000000
H       3.653521000000000     -5.331016000000000     -2.156008000000000
H       5.390086000000000     -3.644602000000000     -1.607418000000000
H       4.737253000000000     -1.419013000000000     -0.767448000000000
Rh     -0.132704000000000      0.478452000000000     -0.586202000000000
C      -0.007871000000000     -0.104919000000000     -2.437455000000000
O       0.075358000000000     -0.468528000000000     -3.520136000000000
H      -0.233223000000000      0.841521000000000      0.957294000000000
C      -1.212372000000000     -4.110483000000000      2.105782000000000
H      -2.163241000000000     -4.655384000000000      2.017637000000000
H      -0.410514000000000     -4.836577000000000      1.930807000000000
C      -1.152080000000000     -3.008792000000000      1.045840000000000
H      -0.175269000000000     -2.512076000000000      1.096982000000000
H      -1.223422000000000     -3.442519000000000      0.040706000000000
C       2.137467000000000     -0.941973000000000      3.986801000000000
H       1.912762000000000      0.087100000000000      4.300671000000000
H       1.506509000000000     -1.601456000000000      4.594104000000000
C       1.781551000000000     -1.092657000000000      2.505224000000000
H       1.919945000000000     -2.140657000000000      2.195511000000000
H       0.731689000000000     -0.840516000000000      2.334892000000000
C      -1.019903000000000      2.436078000000000     -1.203957000000000
C       0.314337000000000      2.653565000000000     -0.852194000000000
C       0.656570000000000      3.321437000000000      0.452498000000000
O       0.523194000000000      4.758886000000000      0.342164000000000
C      -0.657235000000000      5.274334000000000      0.714828000000000
C      -0.695110000000000      6.760640000000000      0.465767000000000
O      -1.569406000000000      4.633342000000000      1.183524000000000
H      -1.817809000000000      2.731236000000000     -0.531548000000000
H      -1.295580000000000      2.374591000000000     -2.253512000000000
H       1.068047000000000      2.753290000000000     -1.632937000000000
H       1.701635000000000      3.160148000000000      0.723241000000000
H       0.008824000000000      2.980464000000000      1.259199000000000
H      -0.681412000000000      6.942346000000000     -0.612502000000000
H       0.189552000000000      7.237411000000000      0.893233000000000
H      -1.602919000000000      7.178077000000000      0.898639000000000
