87

P      -1.709198000000000     -0.212984000000000     -1.293870000000000
C      -1.517002000000000     -0.988052000000000      0.363697000000000
C      -3.049573000000000     -1.199387000000000     -2.073921000000000
C      -2.673336000000000      1.311056000000000     -0.864589000000000
C      -0.755508000000000     -0.285526000000000      1.307140000000000
C      -0.510990000000000     -0.848804000000000      2.549993000000000
C      -1.008009000000000     -2.106340000000000      2.886253000000000
C      -1.763363000000000     -2.798319000000000      1.948403000000000
C      -2.014387000000000     -2.249284000000000      0.689854000000000
C      -4.301909000000000     -1.338906000000000     -1.457811000000000
C      -5.320156000000000     -2.037168000000000     -2.093609000000000
C      -5.107454000000000     -2.584744000000000     -3.361051000000000
C      -3.874326000000000     -2.438470000000000     -3.984355000000000
C      -2.844649000000000     -1.755067000000000     -3.336166000000000
C      -3.266890000000000      1.518590000000000      0.383160000000000
C      -4.018415000000000      2.668839000000000      0.602906000000000
C      -4.204134000000000      3.619665000000000     -0.392367000000000
C      -3.620942000000000      3.404307000000000     -1.638238000000000
C      -2.860940000000000      2.263963000000000     -1.871894000000000
H      -0.357948000000000      0.698377000000000      1.066401000000000
Br      0.522427000000000      0.109382000000000      3.815267000000000
H      -0.798886000000000     -2.529290000000000      3.862301000000000
H      -2.146850000000000     -3.783603000000000      2.191652000000000
H      -2.594045000000000     -2.811587000000000     -0.035100000000000
H      -4.479609000000000     -0.895733000000000     -0.480637000000000
H      -6.285392000000000     -2.143863000000000     -1.608407000000000
H      -5.911498000000000     -3.115013000000000     -3.862150000000000
H      -3.702584000000000     -2.829225000000000     -4.981497000000000
H      -1.884940000000000     -1.635868000000000     -3.824673000000000
H      -3.151766000000000      0.799030000000000      1.186369000000000
Br     -4.811023000000000      2.937313000000000      2.301980000000000
H      -4.791548000000000      4.508551000000000     -0.193493000000000
H      -3.757011000000000      4.136318000000000     -2.427806000000000
H      -2.406567000000000      2.108212000000000     -2.846547000000000
P       2.175892000000000     -0.228331000000000     -1.130738000000000
C       2.130223000000000     -1.443415000000000      0.258659000000000
C       2.828408000000000      1.328226000000000     -0.406455000000000
C       3.641405000000000     -0.934338000000000     -2.003052000000000
C       1.356973000000000     -2.591365000000000      0.050179000000000
C       1.386693000000000     -3.613685000000000      0.987473000000000
C       2.136426000000000     -3.508496000000000      2.155130000000000
C       2.898480000000000     -2.363547000000000      2.359433000000000
C       2.915505000000000     -1.344723000000000      1.409446000000000
C       2.430497000000000      1.769342000000000      0.858881000000000
C       2.776274000000000      3.049801000000000      1.279116000000000
C       3.503227000000000      3.911480000000000      0.467544000000000
C       3.886719000000000      3.472816000000000     -0.797461000000000
C       3.550287000000000      2.196980000000000     -1.235483000000000
C       4.956669000000000     -0.661297000000000     -1.611933000000000
C       6.024458000000000     -1.288496000000000     -2.247113000000000
C       5.790967000000000     -2.208385000000000     -3.267058000000000
C       4.484615000000000     -2.503299000000000     -3.646329000000000
C       3.415438000000000     -1.867632000000000     -3.019486000000000
H       0.742982000000000     -2.683382000000000     -0.841092000000000
Br      0.389792000000000     -5.192713000000000      0.669163000000000
H       2.127990000000000     -4.313319000000000      2.881468000000000
H       3.491170000000000     -2.268010000000000      3.263502000000000
H       3.544054000000000     -0.475118000000000      1.573320000000000
H       1.861166000000000      1.129407000000000      1.525818000000000
Br      2.240853000000000      3.629372000000000      2.999838000000000
H       3.757033000000000      4.905019000000000      0.818257000000000
H       4.447971000000000      4.136967000000000     -1.446867000000000
H       3.843477000000000      1.872676000000000     -2.230942000000000
H       5.150863000000000      0.042959000000000     -0.807788000000000
H       7.040661000000000     -1.062833000000000     -1.939023000000000
H       6.625289000000000     -2.697372000000000     -3.760017000000000
H       4.294148000000000     -3.226287000000000     -4.433266000000000
H       2.394345000000000     -2.098725000000000     -3.312796000000000
Rh      0.289466000000000      0.167866000000000     -2.457762000000000
C       0.298023000000000      2.109712000000000     -2.184945000000000
O       0.362161000000000      3.234848000000000     -1.996803000000000
H       0.310409000000000     -1.404946000000000     -2.643308000000000
C       1.238701000000000      0.448297000000000     -4.424333000000000
C      -0.092957000000000      0.054100000000000     -4.624009000000000
C      -1.164065000000000      0.989114000000000     -5.100317000000000
O      -1.263761000000000      0.992476000000000     -6.544336000000000
C      -1.862408000000000     -0.078772000000000     -7.084646000000000
C      -1.902275000000000      0.022955000000000     -8.587602000000000
O      -2.305483000000000     -1.000603000000000     -6.439929000000000
H       1.518689000000000      1.491382000000000     -4.562020000000000
H       2.048921000000000     -0.259399000000000     -4.562797000000000
H      -0.273108000000000     -0.984045000000000     -4.887838000000000
H      -0.930948000000000      2.025605000000000     -4.840132000000000
H      -2.144458000000000      0.712576000000000     -4.699489000000000
H      -0.881405000000000      0.046902000000000     -8.977698000000000
H      -2.391433000000000      0.953518000000000     -8.884893000000000
H      -2.437637000000000     -0.833564000000000     -8.994180999999999
