87

P      -2.019466000000000     -0.176334000000000     -0.315738000000000
C      -3.463506000000000     -1.253100000000000      0.072551000000000
C      -1.370116000000000     -0.922233000000000     -1.868009000000000
C      -2.881775000000000      1.316882000000000     -0.975512000000000
C      -3.376394000000000     -2.190870000000000      1.104386000000000
C      -4.441168000000000     -3.041667000000000      1.391652000000000
C      -5.606263000000000     -2.944360000000000      0.641398000000000
C      -5.723191000000000     -2.014884000000000     -0.387880000000000
C      -4.650920000000000     -1.174879000000000     -0.666390000000000
C      -1.912387000000000     -2.053856000000000     -2.479053000000000
C      -1.344724000000000     -2.561652000000000     -3.649402000000000
C      -0.242860000000000     -1.937852000000000     -4.224347000000000
C       0.303433000000000     -0.803680000000000     -3.620892000000000
C      -0.250576000000000     -0.308562000000000     -2.447355000000000
C      -3.420223000000000      2.213541000000000     -0.044258000000000
C      -4.103070000000000      3.351372000000000     -0.455665000000000
C      -4.239038000000000      3.601694000000000     -1.818180000000000
C      -3.711689000000000      2.731221000000000     -2.763184000000000
C      -3.038075000000000      1.587667000000000     -2.337190000000000
H      -2.468977000000000     -2.248273000000000      1.697692000000000
H      -4.370165000000000     -3.766744000000000      2.194373000000000
Br     -7.061873000000000     -4.087042000000000      1.029756000000000
H      -6.641930000000000     -1.949966000000000     -0.959584000000000
H      -4.744463000000000     -0.450618000000000     -1.470929000000000
H      -2.776331000000000     -2.548437000000000     -2.045524000000000
H      -1.768903000000000     -3.448651000000000     -4.110056000000000
H       0.202726000000000     -2.341341000000000     -5.128127000000000
H       1.172923000000000     -0.319987000000000     -4.055588000000000
H       0.187495000000000      0.562407000000000     -1.962049000000000
H      -3.297393000000000      2.015726000000000      1.017669000000000
H      -4.519460000000000      4.042323000000000      0.268493000000000
Br     -5.152834000000000      5.155154000000000     -2.391005000000000
H      -3.826618000000000      2.942938000000000     -3.820176000000000
H      -2.634835000000000      0.907205000000000     -3.080981000000000
P       1.667619000000000     -0.472770000000000      1.102689000000000
C       2.859624000000000      0.915079000000000      0.953270000000000
C       2.024370000000000     -1.548248000000000     -0.350774000000000
C       2.420438000000000     -1.521667000000000      2.416510000000000
C       2.935999000000000      1.638571000000000     -0.243581000000000
C       3.707257000000000      2.791160000000000     -0.338662000000000
C       4.396052000000000      3.236996000000000      0.785066000000000
C       4.316947000000000      2.552890000000000      1.991874000000000
C       3.548807000000000      1.393605000000000      2.073802000000000
C       1.106027000000000     -2.576033000000000     -0.597353000000000
C       1.284421000000000     -3.458680000000000     -1.653386000000000
C       2.385654000000000     -3.293952000000000     -2.487490000000000
C       3.322378000000000     -2.295498000000000     -2.257451000000000
C       3.142685000000000     -1.431604000000000     -1.177900000000000
C       3.802040000000000     -1.753542000000000      2.432709000000000
C       4.366672000000000     -2.583944000000000      3.392478000000000
C       3.555809000000000     -3.206808000000000      4.341030000000000
C       2.181515000000000     -3.001182000000000      4.317801000000000
C       1.615735000000000     -2.162010000000000      3.358797000000000
H       2.385214000000000      1.300212000000000     -1.118846000000000
H       3.768214000000000      3.343294000000000     -1.269543000000000
Br      5.446744000000000      4.805678000000000      0.668857000000000
H       4.847902000000000      2.921575000000000      2.862209000000000
H       3.471131000000000      0.878580000000000      3.028258000000000
H       0.226504000000000     -2.671597000000000      0.036362000000000
H       0.562663000000000     -4.242794000000000     -1.850798000000000
Br      2.584326000000000     -4.433812000000000     -3.985822000000000
H       4.180775000000000     -2.192824000000000     -2.911953000000000
H       3.885053000000000     -0.660576000000000     -0.994677000000000
H       4.439799000000000     -1.277919000000000      1.691608000000000
H       5.439441000000000     -2.749268000000000      3.398844000000000
H       3.997633000000000     -3.854615000000000      5.091651000000000
H       1.543918000000000     -3.489687000000000      5.047965000000000
H       0.541979000000000     -2.007838000000000      3.335233000000000
Rh     -0.513252000000000      0.292258000000000      1.412099000000000
C      -0.201403000000000      2.128019000000000      0.792963000000000
O      -0.010815000000000      3.175685000000000      0.377700000000000
H      -0.747982000000000     -1.205148000000000      1.851774000000000
C      -1.772252000000000      0.783591000000000      3.152438000000000
C      -0.420227000000000      0.761673000000000      3.539585000000000
C       0.334323000000000      2.036024000000000      3.819532000000000
O       0.509722000000000      2.226156000000000      5.238580000000000
C       1.533508000000000      1.550871000000000      5.782428000000000
C       1.613580000000000      1.790745000000000      7.267480000000000
O       2.285060000000000      0.842734000000000      5.153102000000000
H      -2.274034000000000      1.743345000000000      3.045485000000000
H      -2.428057000000000     -0.053114000000000      3.371345000000000
H      -0.022900000000000     -0.102599000000000      4.064238000000000
H      -0.236138000000000      2.906850000000000      3.484157000000000
H       1.322617000000000      2.048304000000000      3.354927000000000
H       0.700876000000000      1.424449000000000      7.744607000000000
H       1.682945000000000      2.862572000000000      7.467532000000000
H       2.481172000000000      1.271701000000000      7.671598000000000
