95

P      -1.843171000000000     -0.481389000000000      0.634829000000000
C      -1.782093000000000      1.251128000000000      1.244320000000000
C      -3.181679000000000     -1.173107000000000      1.695046000000000
C      -2.655066000000000     -0.275105000000000     -1.009110000000000
C      -2.955281000000000      1.928471000000000      1.604795000000000
C      -2.911216000000000      3.260252000000000      1.990828000000000
C      -1.687443000000000      3.946855000000000      2.019861000000000
C      -0.513849000000000      3.270596000000000      1.668205000000000
C      -0.564899000000000      1.932434000000000      1.292840000000000
C      -4.314729000000000     -1.823262000000000      1.201230000000000
C      -5.165832000000000     -2.510442000000000      2.066773000000000
C      -4.903991000000000     -2.541375000000000      3.431894000000000
C      -3.795923000000000     -1.861247000000000      3.938014000000000
C      -2.942493000000000     -1.182338000000000      3.076134000000000
C      -2.914691000000000     -1.422643000000000     -1.772984000000000
C      -3.451668000000000     -1.329481000000000     -3.048962000000000
C      -3.724771000000000     -0.072814000000000     -3.608053000000000
C      -3.458178000000000      1.076707000000000     -2.855600000000000
C      -2.933416000000000      0.975470000000000     -1.571098000000000
H      -3.908902000000000      1.407502000000000      1.578247000000000
H      -3.819572000000000      3.783024000000000      2.271168000000000
C      -1.641946000000000      5.325718000000000      2.412726000000000
H       0.434997000000000      3.796390000000000      1.691542000000000
H       0.350579000000000      1.410488000000000      1.038584000000000
H      -4.534840000000000     -1.813426000000000      0.138795000000000
H      -6.026150000000000     -3.036345000000000      1.666169000000000
H      -5.559039000000000     -3.093432000000000      4.098771000000000
H      -3.590120000000000     -1.867239000000000      5.004281000000000
H      -2.068823000000000     -0.668696000000000      3.471910000000000
H      -2.698011000000000     -2.406079000000000     -1.364863000000000
H      -3.653719000000000     -2.225561000000000     -3.625971000000000
C      -4.264446000000000      0.032191000000000     -4.932487000000000
H      -3.665362000000000      2.052014000000000     -3.284557000000000
H      -2.724974000000000      1.883635000000000     -1.014786000000000
P       1.903643000000000     -0.893828000000000     -0.386916000000000
C       3.462487000000000     -0.675254000000000      0.570341000000000
C       1.636545000000000      0.793038000000000     -1.069515000000000
C       2.517472000000000     -1.831458000000000     -1.846159000000000
C       3.401739000000000     -0.484883000000000      1.954545000000000
C       4.558928000000000     -0.263319000000000      2.692496000000000
C       5.806202000000000     -0.236254000000000      2.056810000000000
C       5.871770000000000     -0.431904000000000      0.669996000000000
C       4.712178000000000     -0.647518000000000     -0.062215000000000
C       2.410147000000000      1.900671000000000     -0.712258000000000
C       2.055147000000000      3.177400000000000     -1.138836000000000
C       0.930200000000000      3.366815000000000     -1.949402000000000
C       0.168432000000000      2.252357000000000     -2.333021000000000
C       0.512741000000000      0.985715000000000     -1.886060000000000
C       2.767600000000000     -1.254594000000000     -3.093727000000000
C       3.242076000000000     -2.037044000000000     -4.146200000000000
C       3.480978000000000     -3.394747000000000     -3.958815000000000
C       3.242551000000000     -3.975244000000000     -2.713800000000000
C       2.758315000000000     -3.199685000000000     -1.666897000000000
H       2.437653000000000     -0.516202000000000      2.453619000000000
H       4.506234000000000     -0.116842000000000      3.766175000000000
C       7.003540000000000     -0.013938000000000      2.814806000000000
H       6.837842000000000     -0.412847000000000      0.176663000000000
H       4.779226000000000     -0.794412000000000     -1.136490000000000
H       3.284617000000000      1.775910000000000     -0.081006000000000
H       2.648449000000000      4.037415000000000     -0.845646000000000
C       0.555241000000000      4.683006000000000     -2.377532000000000
H      -0.703209000000000      2.391395000000000     -2.964300000000000
H      -0.109688000000000      0.134966000000000     -2.158709000000000
H       2.595550000000000     -0.193684000000000     -3.248619000000000
H       3.427124000000000     -1.579480000000000     -5.113075000000000
H       3.849999000000000     -4.001048000000000     -4.780017000000000
H       3.425370000000000     -5.034157000000000     -2.560900000000000
H       2.562224000000000     -3.653550000000000     -0.697124000000000
Rh      0.087070000000000     -1.832877000000000      0.752009000000000
C      -0.316236000000000     -3.141597000000000     -0.643588000000000
O      -0.491788000000000     -3.916325000000000     -1.466954000000000
H       0.461151000000000     -0.800491000000000      1.888971000000000
C       8.010546000000000      0.174360000000000      3.451425000000000
H       8.900838000000000      0.339357000000000      4.015720000000000
C       0.237203000000000      5.789880000000000     -2.735994000000000
H      -0.045512000000000      6.769445000000000     -3.050106000000000
C      -1.605423000000000      6.484909000000000      2.743937000000000
H      -1.571474000000000      7.510235000000000      3.036635000000000
C      -4.718179000000000      0.120536000000000     -6.046543000000000
H      -5.119406000000000      0.197812000000000     -7.032093000000000
C       0.955589000000000     -3.351106000000000      2.073562000000000
C      -0.383451000000000     -3.128559000000000      2.443175000000000
C      -1.480672000000000     -4.111807000000000      2.153852000000000
O      -1.801746000000000     -4.786415000000000      3.387852000000000
C      -2.980639000000000     -5.426091000000000      3.408904000000000
C      -3.285836000000000     -5.945242000000000      4.791470000000000
O      -3.702961000000000     -5.543155000000000      2.449326000000000
H       1.217693000000000     -4.261958000000000      1.538191000000000
H       1.766911000000000     -2.910217000000000      2.644161000000000
H      -0.585979000000000     -2.494980000000000      3.302662000000000
H      -1.164830000000000     -4.857107000000000      1.412477000000000
H      -2.394908000000000     -3.634827000000000      1.793488000000000
H      -3.494824000000000     -5.095416000000000      5.448630000000000
H      -2.422921000000000     -6.475314000000000      5.199543000000000
H      -4.154976000000000     -6.600174000000000      4.750189000000000
