99

P       1.995166000000000     -0.212989000000000     -1.049712000000000
C       3.028929000000000      1.316482000000000     -1.012855000000000
C       3.004756000000000     -1.286460000000000     -2.151003000000000
C       2.325889000000000     -0.923537000000000      0.616465000000000
C       2.919856000000000      2.184902000000000     -2.106339000000000
C       3.673927000000000      3.349497000000000     -2.165644000000000
C       4.538005000000000      3.661961000000000     -1.118373000000000
C       4.653891000000000      2.813361000000000     -0.022959000000000
C       3.904520000000000      1.640446000000000      0.026963000000000
C       4.401176000000000     -1.180259000000000     -2.191471000000000
C       5.148802000000000     -2.029070000000000     -3.001277000000000
C       4.511396000000000     -2.994052000000000     -3.779723000000000
C       3.124904000000000     -3.105758000000000     -3.746302000000000
C       2.374114000000000     -2.253450000000000     -2.938422000000000
C       3.071981000000000     -2.084635000000000      0.830991000000000
C       3.168014000000000     -2.627887000000000      2.109198000000000
C       2.525777000000000     -2.008264000000000      3.176101000000000
C       1.809235000000000     -0.829538000000000      2.985291000000000
C       1.707547000000000     -0.299162000000000      1.706667000000000
H       2.230516000000000      1.942862000000000     -2.911450000000000
H       3.582545000000000      4.022308000000000     -3.011689000000000
C       5.392690000000000      4.895012000000000     -1.194226000000000
H       5.324105000000000      3.069772000000000      0.791003000000000
H       4.006641000000000      0.980460000000000      0.882609000000000
H       4.906538000000000     -0.431285000000000     -1.587604000000000
H       6.229832000000000     -1.934841000000000     -3.026700000000000
H       5.096020000000000     -3.653239000000000     -4.413697000000000
H       2.622646000000000     -3.851422000000000     -4.354499000000000
H       1.291144000000000     -2.329195000000000     -2.919929000000000
H       3.562004000000000     -2.581400000000000     -0.000440000000000
H       3.719892000000000     -3.548753000000000      2.272063000000000
C       2.597262000000000     -2.650222000000000      4.530948000000000
H       1.300110000000000     -0.361715000000000      3.821106000000000
H       1.114313000000000      0.597806000000000      1.538119000000000
P      -1.811076000000000     -0.530346000000000     -0.002416000000000
C      -3.261256000000000     -1.489374000000000     -0.622163000000000
C      -2.588877000000000      0.927663000000000      0.800226000000000
C      -1.323383000000000     -1.628936000000000      1.393540000000000
C      -3.129936000000000     -2.257097000000000     -1.780070000000000
C      -4.198384000000000     -3.011406000000000     -2.255467000000000
C      -5.406342000000000     -2.998314000000000     -1.569328000000000
C      -5.545413000000000     -2.259144000000000     -0.396770000000000
C      -4.472665000000000     -1.517201000000000      0.078305000000000
C      -3.713976000000000      1.534434000000000      0.228675000000000
C      -4.179202000000000      2.752940000000000      0.716474000000000
C      -3.522286000000000      3.374263000000000      1.772968000000000
C      -2.395893000000000      2.786938000000000      2.345193000000000
C      -1.930817000000000      1.573605000000000      1.855381000000000
C      -1.836365000000000     -1.519634000000000      2.689220000000000
C      -1.445079000000000     -2.420364000000000      3.678420000000000
C      -0.564340000000000     -3.454683000000000      3.376286000000000
C      -0.072402000000000     -3.587435000000000      2.078629000000000
C      -0.440097000000000     -2.673695000000000      1.096461000000000
H      -2.185324000000000     -2.259786000000000     -2.314233000000000
H      -4.097459000000000     -3.595082000000000     -3.164399000000000
C      -6.553458000000000     -3.836077000000000     -2.055451000000000
H      -6.490900000000000     -2.261415000000000      0.135433000000000
H      -4.586100000000000     -0.945596000000000      0.994999000000000
H      -4.221726000000000      1.065082000000000     -0.611228000000000
H      -5.048042000000000      3.222735000000000      0.267897000000000
C      -4.044744000000000      4.661838000000000      2.341511000000000
H      -1.880494000000000      3.285132000000000      3.159995000000000
H      -1.046644000000000      1.122194000000000      2.298826000000000
H      -2.541032000000000     -0.730615000000000      2.935090000000000
H      -1.836216000000000     -2.315754000000000      4.685704000000000
H      -0.252206000000000     -4.148590000000000      4.149939000000000
H       0.619736000000000     -4.389066000000000      1.839421000000000
H      -0.031357000000000     -2.757549000000000      0.091278000000000
Rh     -0.242839000000000      0.154238000000000     -1.596954000000000
C      -0.215688000000000      2.041906000000000     -1.056058000000000
O      -0.193903000000000      3.123453000000000     -0.688305000000000
H      -0.260325000000000     -1.380520000000000     -1.971345000000000
F       6.587123000000000      4.628946000000000     -1.745666000000000
F       5.629370000000000      5.408083000000000      0.021086000000000
F       4.820924000000000      5.851232000000000     -1.938124000000000
F       1.678911000000000     -2.157591000000000      5.371997000000000
F       3.797899000000000     -2.479783000000000      5.103179000000000
F       2.395907000000000     -3.977657000000000      4.447428000000000
F      -3.046736000000000      5.477066000000000      2.711730000000000
F      -4.795489000000000      4.446937000000000      3.433646000000000
F      -4.808093000000000      5.323516000000000      1.461964000000000
F      -7.735764000000000     -3.273864000000000     -1.766198000000000
F      -6.550830000000000     -5.052244000000000     -1.487073000000000
F      -6.506055000000000     -4.024541000000000     -3.382182000000000
C      -0.228215000000000      0.471935000000000     -3.777434000000000
C      -1.555717000000000      0.455535000000000     -3.316186000000000
C      -2.371119000000000      1.721944000000000     -3.227842000000000
O      -3.396447000000000      1.735169000000000     -4.240456000000000
C      -4.507615000000000      1.047095000000000     -3.933731000000000
C      -5.496966000000000      1.075876000000000     -5.068254000000000
O      -4.677947000000000      0.478955000000000     -2.879217000000000
H       0.222366000000000      1.421845000000000     -4.058451000000000
H       0.206950000000000     -0.398865000000000     -4.256953000000000
H      -2.157817000000000     -0.440516000000000     -3.437136000000000
H      -1.750402000000000      2.598689000000000     -3.434011000000000
H      -2.857159000000000      1.844281000000000     -2.258473000000000
H      -5.056770000000000      0.597019000000000     -5.946750000000000
H      -5.725054000000000      2.110325000000000     -5.335838000000000
H      -6.403383000000000      0.551068000000000     -4.770944000000000
