99

P       4.131223000000000     -0.178724000000000     -1.963526000000000
C       5.439581000000000     -0.441427000000000     -3.256536000000000
C       5.219043000000000     -0.220922000000000     -0.460748000000000
C       3.756815000000000      1.624483000000000     -2.116602000000000
C       5.996183000000000     -1.721523000000000     -3.458076000000000
C       7.000829000000000     -1.870115000000000     -4.419473000000000
C       7.470585000000000     -0.795619000000000     -5.165040000000000
C       6.947951000000000      0.472300000000000     -4.938317000000000
C       5.947079000000000      0.641052000000000     -3.986958000000000
C       6.548063000000000      0.218431000000000     -0.535032000000000
C       7.358838000000000      0.226261000000000      0.595530000000000
C       6.857823000000000     -0.207206000000000      1.821410000000000
C       5.540990000000000     -0.646339000000000      1.908033000000000
C       4.728638000000000     -0.654794000000000      0.774705000000000
C       3.073627000000000      2.119821000000000     -3.251863000000000
C       2.684683000000000      3.460964000000000     -3.261690000000000
C       2.934316000000000      4.306180000000000     -2.185222000000000
C       3.613211000000000      3.819368000000000     -1.075314000000000
C       4.026795000000000      2.490013000000000     -1.049945000000000
C       5.584623000000000     -2.936226000000000     -2.664864000000000
H       7.427389000000000     -2.857839000000000     -4.573241000000000
H       8.250906000000001     -0.946530000000000     -5.904473000000000
H       7.317902000000000      1.330440000000000     -5.490461000000000
H       5.561919000000000      1.639446000000000     -3.802224000000000
H       6.952410000000000      0.561549000000000     -1.482525000000000
H       8.385263999999999      0.570949000000000      0.516893000000000
H       7.492506000000000     -0.204565000000000      2.702159000000000
H       5.140561000000000     -0.990882000000000      2.856565000000000
H       3.703557000000000     -1.002350000000000      0.849215000000000
C       2.766384000000000      1.267035000000000     -4.456732000000000
H       2.155343000000000      3.840855000000000     -4.130845000000000
H       2.599358000000000      5.338455000000000     -2.219226000000000
H       3.824600000000000      4.465426000000000     -0.228845000000000
H       4.551454000000000      2.119598000000000     -0.175146000000000
P       0.059595000000000     -0.269423000000000     -1.785884000000000
C      -0.474481000000000     -0.272866000000000     -0.012103000000000
C      -1.371567000000000     -1.050473000000000     -2.683969000000000
C      -0.233634000000000      1.464111000000000     -2.381480000000000
C       0.233463000000000      0.437510000000000      0.978688000000000
C      -0.144830000000000      0.275610000000000      2.316061000000000
C      -1.167306000000000     -0.585276000000000      2.693362000000000
C      -1.844220000000000     -1.308476000000000      1.716522000000000
C      -1.498640000000000     -1.147202000000000      0.379778000000000
C      -2.698288000000000     -0.554363000000000     -2.678367000000000
C      -3.659901000000000     -1.229677000000000     -3.435091000000000
C      -3.351420000000000     -2.348804000000000     -4.202818000000000
C      -2.047665000000000     -2.822972000000000     -4.223607000000000
C      -1.077855000000000     -2.171451000000000     -3.465897000000000
C      -0.304831000000000      1.639314000000000     -3.769326000000000
C      -0.585401000000000      2.885108000000000     -4.319932000000000
C      -0.791201000000000      3.985881000000000     -3.489220000000000
C      -0.728340000000000      3.822491000000000     -2.108957000000000
C      -0.460338000000000      2.570203000000000     -1.559285000000000
C       1.407261000000000      1.348796000000000      0.697818000000000
H       0.395013000000000      0.836523000000000      3.075855000000000
H      -1.428497000000000     -0.694937000000000      3.741253000000000
H      -2.639007000000000     -1.995588000000000      1.988606000000000
H      -2.645162000000000      0.802768000000000     -0.973223000000000
C      -3.149069000000000      0.679251000000000     -1.932858000000000
H      -4.680903000000000     -0.856899000000000     -3.422473000000000
H      -4.128274000000000     -2.841843000000000     -4.779059000000000
H      -1.778727000000000     -3.691324000000000     -4.816400000000000
H      -0.061921000000000     -2.546354000000000     -3.473967000000000
H      -0.166188000000000      0.784260000000000     -4.427280000000000
H      -0.648027000000000      2.994504000000000     -5.398823000000000
H      -1.011399000000000      4.959543000000000     -3.916119000000000
H      -0.907190000000000      4.667460000000000     -1.450901000000000
H      -0.481203000000000      2.453740000000000     -0.481253000000000
Rh      2.182528000000000     -1.510750000000000     -1.795014000000000
C       2.319608000000000     -2.283102000000000     -3.592800000000000
O       2.504145000000000     -2.692519000000000     -4.646604000000000
H       2.217488000000000     -0.869947000000000     -0.371716000000000
H       4.651963000000000     -3.362579000000000     -3.044699000000000
H       5.425683000000000     -2.705328000000000     -1.607481000000000
H       6.356552000000000     -3.707214000000000     -2.733536000000000
H       2.161116000000000      1.827794000000000     -5.172907000000000
H       2.212475000000000      0.367736000000000     -4.167216000000000
H       3.675390000000000      0.933598000000000     -4.966314000000000
H       1.628457000000000      1.460259000000000     -0.363511000000000
H       2.313778000000000      0.957729000000000      1.174469000000000
H       1.229104000000000      2.349690000000000      1.108772000000000
H      -2.949859000000000      1.579895000000000     -2.525157000000000
H      -2.037110000000000     -1.713603000000000     -0.374431000000000
H      -4.225687000000000      0.628173000000000     -1.748873000000000
C       2.819749000000000     -3.312236000000000     -0.766423000000000
C       1.425748000000000     -3.202660000000000     -0.607066000000000
C       0.488459000000000     -4.144002000000000     -1.307360000000000
O       0.304259000000000     -5.352709000000000     -0.533658000000000
C       1.173442000000000     -6.349379000000000     -0.761332000000000
C       0.912975000000000     -7.507338000000000      0.169093000000000
O       2.043673000000000     -6.319779000000000     -1.597690000000000
H       3.207448000000000     -4.061085000000000     -1.451065000000000
H       3.491291000000000     -3.044694000000000      0.044733000000000
H       1.033143000000000     -2.801773000000000      0.327125000000000
H       0.862240000000000     -4.420479000000000     -2.297831000000000
H      -0.516920000000000     -3.728016000000000     -1.394918000000000
H      -0.139120000000000     -7.797169000000000      0.122763000000000
H       1.126687000000000     -7.198808000000000      1.196113000000000
H       1.552431000000000     -8.344374999999999     -0.106968000000000
