99

P      -1.866403000000000     -0.373669000000000     -0.300182000000000
C      -3.160812000000000     -0.751011000000000      0.957967000000000
C      -2.830022000000000     -0.525387000000000     -1.864458000000000
C      -1.723323000000000      1.449782000000000     -0.117977000000000
C      -3.479169000000000     -2.095869000000000      1.188344000000000
C      -4.461858000000000     -2.447852000000000      2.103290000000000
C      -5.151150000000000     -1.471325000000000      2.830298000000000
C      -4.833649000000000     -0.133901000000000      2.597985000000000
C      -3.855423000000000      0.227578000000000      1.672289000000000
C      -2.152106000000000     -0.737149000000000     -3.069514000000000
C      -2.848950000000000     -0.797386000000000     -4.274050000000000
C      -4.234095000000000     -0.657355000000000     -4.287446000000000
C      -4.919244000000000     -0.452979000000000     -3.092029000000000
C      -4.222787000000000     -0.385062000000000     -1.888138000000000
C      -2.309454000000000      2.377381000000000     -0.978000000000000
C      -2.143352000000000      3.746483000000000     -0.757534000000000
C      -1.405765000000000      4.218134000000000      0.326242000000000
C      -0.821006000000000      3.281798000000000      1.187872000000000
C      -0.970075000000000      1.922872000000000      0.964733000000000
H      -2.948945000000000     -2.869757000000000      0.639128000000000
H      -4.695007000000000     -3.497675000000000      2.263634000000000
C      -6.188516000000000     -1.863512000000000      3.850281000000000
H      -5.360979000000000      0.642399000000000      3.146811000000000
H      -3.640365000000000      1.278975000000000      1.507038000000000
H      -1.073753000000000     -0.868147000000000     -3.057353000000000
H      -2.307934000000000     -0.963721000000000     -5.200462000000000
H      -4.778805000000000     -0.712613000000000     -5.224910000000000
H      -5.999705000000000     -0.346488000000000     -3.094510000000000
H      -4.765879000000000     -0.220054000000000     -0.961927000000000
H      -2.895441000000000      2.040570000000000     -1.828095000000000
H      -2.600538000000000      4.456826000000000     -1.442345000000000
C      -1.232878000000000      5.691629000000000      0.587729000000000
H      -0.221918000000000      3.627467000000000      2.026810000000000
H      -0.481625000000000      1.209988000000000      1.625621000000000
P       2.036410000000000     -0.509355000000000      0.113263000000000
C       1.935909000000000      1.285601000000000     -0.279022000000000
C       3.429441000000000     -1.025567000000000     -0.970352000000000
C       2.835875000000000     -0.480426000000000      1.774246000000000
C       2.573150000000000      2.274492000000000      0.471545000000000
C       2.475827000000000      3.616414000000000      0.100623000000000
C       1.754983000000000      4.000957000000000     -1.028684000000000
C       1.122908000000000      3.004803000000000     -1.780956000000000
C       1.206813000000000      1.671046000000000     -1.411615000000000
C       4.181100000000000     -0.126566000000000     -1.730871000000000
C       5.234539000000000     -0.582765000000000     -2.522077000000000
C       5.569120000000000     -1.935676000000000     -2.572214000000000
C       4.821854000000000     -2.830861000000000     -1.799646000000000
C       3.767862000000000     -2.383340000000000     -1.014412000000000
C       4.213907000000000     -0.632136000000000      1.956834000000000
C       4.766278000000000     -0.570750000000000      3.235272000000000
C       3.953350000000000     -0.346864000000000      4.342508000000000
C       2.579829000000000     -0.186964000000000      4.169938000000000
C       2.027309000000000     -0.259755000000000      2.895654000000000
H       3.150132000000000      2.005142000000000      1.351541000000000
H       2.973390000000000      4.374364000000000      0.701098000000000
C       1.651679000000000      5.443154000000000     -1.451414000000000
H       0.539294000000000      3.284345000000000     -2.654823000000000
H       0.689025000000000      0.914214000000000     -1.995702000000000
H       3.952353000000000      0.934342000000000     -1.710417000000000
H       5.806501000000000      0.131060000000000     -3.109893000000000
C       6.690508000000000     -2.431812000000000     -3.448257000000000
H       5.046435000000000     -3.893796000000000     -1.814280000000000
H       3.209604000000000     -3.108639000000000     -0.433347000000000
H       4.858724000000000     -0.798655000000000      1.099375000000000
H       5.837025000000000     -0.697152000000000      3.362708000000000
H       4.386559000000000     -0.300661000000000      5.336806000000000
H       1.936664000000000     -0.015353000000000      5.027466000000000
H       0.953587000000000     -0.145890000000000      2.770157000000000
Rh      0.052704000000000     -1.738798000000000     -0.144760000000000
C      -0.267681000000000     -2.279942000000000      1.704535000000000
O      -0.463660000000000     -2.581454000000000      2.791301000000000
H       0.354728000000000     -1.293641000000000     -1.629956000000000
H      -6.830033000000000     -2.665889000000000      3.474038000000000
H      -6.823261000000000     -1.014808000000000      4.117712000000000
H      -5.713915000000000     -2.227465000000000      4.768205000000000
H      -0.183406000000000      5.928680000000000      0.792697000000000
H      -1.815162000000000      6.005564000000000      1.461103000000000
H      -1.559762000000000      6.292171000000000     -0.265579000000000
H       7.313908000000000     -1.606827000000000     -3.803106000000000
H       6.296522000000000     -2.955418000000000     -4.326225000000000
H       7.329610000000000     -3.137469000000000     -2.909041000000000
H       0.613777000000000      5.705339000000000     -1.683521000000000
H       2.245171000000000      5.630678000000000     -2.353062000000000
H       2.009937000000000      6.118210000000000     -0.669292000000000
C      -0.730121000000000     -3.533700000000000     -1.109948000000000
C       0.642973000000000     -3.719393000000000     -0.850199000000000
C       1.065323000000000     -4.669121000000000      0.237369000000000
O       1.228480000000000     -6.013415000000000     -0.275170000000000
C       2.391301000000000     -6.275842000000000     -0.881677000000000
C       2.416518000000000     -7.682256000000000     -1.422824000000000
O       3.297800000000000     -5.481398000000000     -0.981098000000000
H      -1.454809000000000     -4.068928000000000     -0.498627000000000
H      -1.080139000000000     -3.279394000000000     -2.105660000000000
H       1.362842000000000     -3.595582000000000     -1.656320000000000
H       0.279645000000000     -4.766526000000000      0.990542000000000
H       1.997649000000000     -4.375836000000000      0.727154000000000
H       1.662277000000000     -7.780254000000000     -2.208209000000000
H       2.164306000000000     -8.391890999999999     -0.631659000000000
H       3.404367000000000     -7.897366000000000     -1.827259000000000
