95

P       1.960028000000000     -0.443731000000000      0.015713000000000
C       2.048931000000000      1.393377000000000     -0.114830000000000
C       3.034127000000000     -0.921616000000000     -1.410480000000000
C       3.079190000000000     -0.748245000000000      1.447815000000000
C       1.117805000000000      2.023619000000000     -0.939057000000000
C       1.164462000000000      3.402790000000000     -1.173263000000000
C       2.194397000000000      4.141585000000000     -0.579660000000000
C       3.127789000000000      3.526058000000000      0.248059000000000
C       3.057198000000000      2.155842000000000      0.488622000000000
C       3.688328000000000      0.007127000000000     -2.225116000000000
C       4.485695000000000     -0.422204000000000     -3.285953000000000
C       4.649935000000000     -1.779887000000000     -3.538318000000000
C       4.008005000000000     -2.714017000000000     -2.727012000000000
C       3.202088000000000     -2.286866000000000     -1.678015000000000
C       2.539933000000000     -0.666756000000000      2.737576000000000
C       3.349048000000000     -0.840111000000000      3.855803000000000
C       4.707382000000000     -1.111033000000000      3.700328000000000
C       5.251077000000000     -1.199966000000000      2.422595000000000
C       4.443856000000000     -1.014948000000000      1.300809000000000
H       0.338840000000000      1.423963000000000     -1.407028000000000
C       0.153977000000000      4.087587000000000     -1.998754000000000
H       2.245316000000000      5.213339000000000     -0.752987000000000
H       3.914071000000000      4.115118000000000      0.710145000000000
H       3.794266000000000      1.678916000000000      1.127462000000000
H       3.579016000000000      1.070674000000000     -2.039157000000000
H       4.980221000000000      0.312492000000000     -3.913848000000000
H       5.271856000000000     -2.110682000000000     -4.364183000000000
H       4.127347000000000     -3.776264000000000     -2.916237000000000
H       2.694472000000000     -3.018398000000000     -1.055575000000000
H       1.476135000000000     -0.479663000000000      2.860552000000000
H       2.915743000000000     -0.773440000000000      4.848917000000000
H       5.337528000000000     -1.256076000000000      4.572266000000000
H       6.308027000000000     -1.411827000000000      2.293541000000000
H       4.882477000000000     -1.074648000000000      0.309219000000000
P      -2.161347000000000     -0.628783000000000      0.094571000000000
C      -2.283382000000000      1.184090000000000      0.394401000000000
C      -3.324036000000000     -1.265638000000000      1.370487000000000
C      -3.129098000000000     -0.753383000000000     -1.470490000000000
C      -1.240671000000000      1.834788000000000      1.048446000000000
C      -1.283315000000000      3.209540000000000      1.313110000000000
C      -2.416509000000000      3.926766000000000      0.915549000000000
C      -3.477346000000000      3.283251000000000      0.285665000000000
C      -3.414651000000000      1.918861000000000      0.016885000000000
C      -3.804689000000000     -0.467483000000000      2.413353000000000
C      -4.629976000000000     -1.014530000000000      3.394750000000000
C      -4.988614000000000     -2.358019000000000      3.343961000000000
C      -4.513622000000000     -3.162113000000000      2.309280000000000
C      -3.683219000000000     -2.618395000000000      1.334675000000000
C      -4.448376000000000     -1.206726000000000     -1.546526000000000
C      -5.111318000000000     -1.239512000000000     -2.773521000000000
C      -4.470841000000000     -0.809379000000000     -3.930965000000000
C      -3.158232000000000     -0.344558000000000     -3.862463000000000
C      -2.492893000000000     -0.323523000000000     -2.642448000000000
H      -0.364255000000000      1.262036000000000      1.342323000000000
C      -0.118329000000000      3.840103000000000      1.958461000000000
H      -2.458001000000000      5.000133000000000      1.074623000000000
H      -4.350009000000000      3.853034000000000     -0.018650000000000
H      -4.238697000000000      1.426284000000000     -0.492006000000000
H      -3.535871000000000      0.582445000000000      2.468484000000000
H      -4.992704000000000     -0.382911000000000      4.200047000000000
H      -5.631241000000000     -2.779405000000000      4.110994000000000
H      -4.762706000000000     -4.216373000000000      2.256047000000000
H      -3.313488000000000     -3.266226000000000      0.545910000000000
H      -4.964883000000000     -1.532106000000000     -0.648976000000000
H      -6.134326000000000     -1.600160000000000     -2.819096000000000
H      -4.990035000000000     -0.836501000000000     -4.883848000000000
H      -2.649344000000000     -0.006564000000000     -4.759734000000000
H      -1.464519000000000      0.030856000000000     -2.596193000000000
Rh     -0.065135000000000     -1.655281000000000      0.120101000000000
C      -0.007576000000000     -2.211765000000000     -1.754090000000000
O       0.004024000000000     -2.495905000000000     -2.862246000000000
H      -0.180916000000000     -1.130702000000000      1.608721000000000
C      -1.071097000000000      3.624613000000000     -2.249936000000000
H       0.448744000000000      5.059617000000000     -2.391506000000000
H      -1.431931000000000      2.684489000000000     -1.838962000000000
H      -1.769285000000000      4.189446000000000     -2.858696000000000
C      -0.087677000000000      5.049295000000000      2.519820000000000
H       0.786584000000000      3.231804000000000      1.959668000000000
H      -0.962593000000000      5.691273000000000      2.569382000000000
H       0.824948000000000      5.434727000000000      2.961379000000000
C       0.827327000000000     -3.411795000000000      1.124553000000000
C      -0.537544000000000     -3.656678000000000      0.922248000000000
C      -0.950813000000000     -4.646064000000000     -0.134840000000000
O      -1.010056000000000     -5.985883000000000      0.405796000000000
C      -2.159871000000000     -6.347091000000000      0.987463000000000
C      -2.062272000000000     -7.736601000000000      1.562335000000000
O      -3.142233000000000     -5.644343000000000      1.041319000000000
H       1.554475000000000     -3.931220000000000      0.503736000000000
H       1.202086000000000     -3.086568000000000      2.089462000000000
H      -1.240793000000000     -3.524860000000000      1.742025000000000
H      -0.189917000000000     -4.707775000000000     -0.916934000000000
H      -1.916923000000000     -4.414368000000000     -0.590037000000000
H      -1.323391000000000     -7.742813000000000      2.368095000000000
H      -1.720963000000000     -8.435124000000000      0.795058000000000
H      -3.034955000000000     -8.038861000000001      1.947191000000000
