103

P      -3.495878000000000     -0.531704000000000      0.039161000000000
C      -2.792054000000000      0.625333000000000     -1.209014000000000
C      -4.477389000000000      0.606388000000000      1.098607000000000
C      -4.757122000000000     -1.381272000000000     -1.001602000000000
C      -3.596844000000000      1.213883000000000     -2.196772000000000
C      -3.065187000000000      2.131936000000000     -3.088751000000000
C      -1.709989000000000      2.494426000000000     -3.029064000000000
C      -0.915897000000000      1.914640000000000     -2.036526000000000
C      -1.447784000000000      0.987722000000000     -1.143912000000000
C      -4.328400000000000      1.994664000000000      1.042529000000000
C      -5.019867000000000      2.813281000000000      1.935981000000000
C      -5.872280000000000      2.256032000000000      2.883413000000000
C      -6.030243000000000      0.871603000000000      2.940644000000000
C      -5.328359000000000      0.050292000000000      2.065060000000000
C      -6.130198000000000     -1.380742000000000     -0.745121000000000
C      -6.994386000000000     -2.156829000000000     -1.511300000000000
C      -6.518750000000000     -2.950906000000000     -2.558979000000000
C      -5.144766000000000     -2.917810000000000     -2.836822000000000
C      -4.278428000000000     -2.154697000000000     -2.068210000000000
H      -4.650440000000000      0.953642000000000     -2.257424000000000
H      -3.713413000000000      2.587068000000000     -3.831416000000000
C      -1.103001000000000      3.457259000000000     -3.964570000000000
H       0.134190000000000      2.186117000000000     -1.961345000000000
H      -0.810526000000000      0.553129000000000     -0.383346000000000
H      -3.662281000000000      2.443391000000000      0.311563000000000
H      -4.891360000000000      3.890575000000000      1.883600000000000
H      -6.412248000000000      2.895425000000000      3.574852000000000
H      -6.697287000000000      0.426064000000000      3.671927000000000
H      -5.459304000000000     -1.028144000000000      2.118610000000000
H      -6.539682000000000     -0.787162000000000      0.064202000000000
H      -8.056563000000001     -2.132971000000000     -1.288118000000000
C      -7.397750000000000     -3.808587000000000     -3.372650000000000
H      -4.752886000000000     -3.512343000000000     -3.658160000000000
H      -3.215268000000000     -2.160107000000000     -2.299420000000000
P      -0.105657000000000     -1.214265000000000      1.827753000000000
C      -0.006776000000000      0.624143000000000      1.957664000000000
C       1.340365000000000     -1.580732000000000      0.744477000000000
C       0.520924000000000     -1.767361000000000      3.464359000000000
C      -1.140785000000000      1.339306000000000      2.357266000000000
C      -1.124926000000000      2.729070000000000      2.391647000000000
C       0.015571000000000      3.452098000000000      2.024933000000000
C       1.148962000000000      2.731885000000000      1.625293000000000
C       1.141417000000000      1.343150000000000      1.598023000000000
C       1.150045000000000     -1.600966000000000     -0.640629000000000
C       2.219275000000000     -1.823403000000000     -1.500666000000000
C       3.511074000000000     -2.039829000000000     -1.008470000000000
C       3.695104000000000     -2.036274000000000      0.380654000000000
C       2.631022000000000     -1.805742000000000      1.242492000000000
C       0.638377000000000     -3.146946000000000      3.678962000000000
C       1.114177000000000     -3.635067000000000      4.890136000000000
C       1.462293000000000     -2.749868000000000      5.910688000000000
C       1.340203000000000     -1.379399000000000      5.708156000000000
C       0.877602000000000     -0.886972000000000      4.487350000000000
H      -2.051857000000000      0.808820000000000      2.619339000000000
H      -2.023590000000000      3.261374000000000      2.694237000000000
C      -0.025241000000000      4.924170000000000      2.064501000000000
H       2.046091000000000      3.260036000000000      1.316611000000000
H       2.033291000000000      0.816071000000000      1.272534000000000
H       0.156454000000000     -1.441800000000000     -1.052293000000000
H       2.050142000000000     -1.833880000000000     -2.574292000000000
C       4.612470000000000     -2.266227000000000     -1.960574000000000
H       4.679668000000000     -2.227135000000000      0.796644000000000
H       2.804464000000000     -1.803570000000000      2.314801000000000
H       0.352267000000000     -3.835211000000000      2.886488000000000
H       1.205689000000000     -4.706095000000000      5.042028000000000
H       1.825057000000000     -3.130205000000000      6.860499000000000
H       1.609231000000000     -0.685591000000000      6.498638000000000
H       0.796479000000000      0.185127000000000      4.335399000000000
Rh     -2.181184000000000     -2.092044000000000      1.262335000000000
C      -1.666646000000000     -3.262499000000000     -0.218190000000000
O      -1.340781000000000     -3.970146000000000     -1.057596000000000
H      -2.556139000000000     -1.215023000000000      2.515892000000000
C      -1.643719000000000      3.905021000000000     -5.098499000000000
H      -0.110822000000000      3.807092000000000     -3.683306000000000
H      -2.616943000000000      3.575306000000000     -5.449728000000000
H      -1.117240000000000      4.616939000000000     -5.724563000000000
C      -8.648206000000000     -4.163503000000000     -3.073790000000000
H      -6.950683000000000     -4.188661000000000     -4.290239000000000
H      -9.139580000000000     -3.843632000000000     -2.159621000000000
H      -9.221280999999999     -4.801999000000000     -3.737044000000000
C       5.914762000000000     -2.295176000000000     -1.674506000000000
H       4.301906000000000     -2.407306000000000     -2.994746000000000
H       6.295688000000000     -2.141827000000000     -0.669244000000000
H       6.651722000000000     -2.468417000000000     -2.450858000000000
C       1.007472000000000      5.752681000000000      1.903949000000000
H      -1.009750000000000      5.348356000000000      2.256323000000000
H       2.018954000000000      5.398739000000000      1.728478000000000
H       0.871870000000000      6.827469000000000      1.951889000000000
C      -2.488656000000000     -3.761974000000000      2.622290000000000
C      -3.738185000000000     -3.370796000000000      2.101472000000000
C      -4.480414000000000     -4.193803000000000      1.087571000000000
O      -5.515315000000000     -4.990025000000000      1.715732000000000
C      -6.621270000000000     -4.320894000000000      2.058359000000000
C      -7.644797000000000     -5.241972000000000      2.672093000000000
O      -6.775191000000000     -3.131242000000000      1.894097000000000
H      -2.022730000000000     -4.677340000000000      2.260288000000000
H      -2.192503000000000     -3.463415000000000      3.623316000000000
H      -4.379383000000000     -2.753222000000000      2.723238000000000
H      -3.818640000000000     -4.923889000000000      0.613448000000000
H      -4.959323000000000     -3.582136000000000      0.320662000000000
H      -7.223261000000000     -5.716961000000000      3.561543000000000
H      -7.899356000000000     -6.034332000000000      1.963876000000000
H      -8.534084999999999     -4.671759000000000      2.936133000000000
