95

P       1.914696000000000      0.917983000000000      0.516489000000000
C       3.277489000000000     -0.158146000000000      1.109401000000000
C       2.643238000000000      2.609212000000000      0.595061000000000
C       1.932406000000000      0.714850000000000     -1.321465000000000
C       3.385571000000000     -1.475839000000000      0.651499000000000
C       4.295732000000000     -2.353203000000000      1.238751000000000
C       5.095290000000000     -1.937151000000000      2.305680000000000
C       4.976705000000000     -0.638214000000000      2.780348000000000
C       4.072904000000000      0.245250000000000      2.187805000000000
C       3.992417000000000      2.836994000000000      0.294909000000000
C       4.503096000000000      4.129899000000000      0.287987000000000
C       3.668708000000000      5.212775000000000      0.564775000000000
C       2.323364000000000      4.996863000000000      0.843081000000000
C       1.812430000000000      3.699460000000000      0.860155000000000
C       0.819943000000000      1.201710000000000     -2.009956000000000
C       0.754081000000000      1.125643000000000     -3.400107000000000
C       1.803995000000000      0.551807000000000     -4.120958000000000
C       2.922635000000000      0.077430000000000     -3.447445000000000
C       2.989257000000000      0.166355000000000     -2.056002000000000
H       2.766733000000000     -1.838758000000000     -0.168538000000000
C       4.409453000000000     -3.742137000000000      0.720062000000000
H       5.790065000000000     -2.646989000000000      2.743436000000000
H       5.583763000000000     -0.302727000000000      3.615122000000000
H       3.983736000000000      1.257964000000000      2.572719000000000
H       4.647379000000000      1.999129000000000      0.069131000000000
H       5.551880000000000      4.294123000000000      0.061081000000000
H       4.068659000000000      6.221894000000000      0.557704000000000
H       1.666759000000000      5.836077000000000      1.050013000000000
H       0.761383000000000      3.526708000000000      1.069180000000000
H      -0.014454000000000      1.636872000000000     -1.464197000000000
C      -0.442986000000000      1.623819000000000     -4.114183000000000
H       1.739336000000000      0.482521000000000     -5.204667000000000
H       3.748326000000000     -0.363545000000000     -3.996767000000000
H       3.872178000000000     -0.206449000000000     -1.545652000000000
P      -1.784565000000000     -0.482791000000000      0.401710000000000
C      -1.395691000000000     -1.056274000000000     -1.312921000000000
C      -3.188717000000000      0.678402000000000      0.175812000000000
C      -2.650844000000000     -1.994611000000000      1.013644000000000
C      -0.193001000000000     -1.746681000000000     -1.473849000000000
C       0.187162000000000     -2.233583000000000     -2.723283000000000
C      -0.636324000000000     -2.031446000000000     -3.834246000000000
C      -1.838019000000000     -1.351321000000000     -3.685108000000000
C      -2.215774000000000     -0.868302000000000     -2.430579000000000
C      -4.284076000000000      0.646688000000000      1.040959000000000
C      -5.263350000000000      1.638443000000000      0.973161000000000
C      -5.166494000000000      2.665310000000000      0.033843000000000
C      -4.078636000000000      2.702564000000000     -0.830792000000000
C      -3.088933000000000      1.724572000000000     -0.750646000000000
C      -2.214067000000000     -2.656148000000000      2.160630000000000
C      -2.864899000000000     -3.806514000000000      2.608963000000000
C      -3.961121000000000     -4.300659000000000      1.912581000000000
C      -4.406770000000000     -3.646260000000000      0.763143000000000
C      -3.754678000000000     -2.504538000000000      0.316321000000000
H       0.471013000000000     -1.894243000000000     -0.623535000000000
C       1.481449000000000     -2.928532000000000     -2.887608000000000
H      -0.326994000000000     -2.402776000000000     -4.808823000000000
H      -2.485102000000000     -1.185247000000000     -4.540559000000000
H      -3.151548000000000     -0.325640000000000     -2.332854000000000
H      -4.376808000000000     -0.131140000000000      1.795409000000000
C      -6.423321000000000      1.592967000000000      1.902600000000000
H      -5.949333000000000      3.416808000000000      0.003680000000000
H      -3.986852000000000      3.490814000000000     -1.571271000000000
H      -2.243893000000000      1.780541000000000     -1.432858000000000
H      -1.362266000000000     -2.272613000000000      2.712069000000000
H      -2.511298000000000     -4.310338000000000      3.502862000000000
H      -4.470126000000000     -5.193881000000000      2.260757000000000
H      -5.262530000000000     -4.028561000000000      0.215688000000000
H      -4.108340000000000     -1.998905000000000     -0.578871000000000
Rh     -0.073051000000000      0.531662000000000      1.653037000000000
C       0.709614000000000     -0.938551000000000      2.687813000000000
O       1.256412000000000     -1.748580000000000      3.282187000000000
H      -0.571495000000000      1.776223000000000      0.820289000000000
O       5.170985000000000     -4.562434000000000      1.178525000000000
H       3.745925000000000     -3.981853000000000     -0.133179000000000
O      -1.406103000000000      2.122386000000000     -3.577082000000000
H      -0.410861000000000      1.510270000000000     -5.218041000000000
O       2.281011000000000     -3.112222000000000     -1.996221000000000
H       1.696259000000000     -3.287614000000000     -3.915119000000000
O      -7.300279000000000      2.425894000000000      1.912771000000000
H      -6.440508000000000      0.729874000000000      2.593012000000000
C      -0.091972000000000      1.902006000000000      3.371984000000000
C      -1.378175000000000      1.358776000000000      3.208524000000000
C      -1.913044000000000      0.335308000000000      4.170272000000000
O      -2.568044000000000      0.973577000000000      5.290567000000000
C      -3.830261000000000      1.369976000000000      5.081733000000000
C      -4.388490000000000      2.077084000000000      6.288343000000000
O      -4.431483000000000      1.180195000000000      4.049289000000000
H       0.544851000000000      1.537579000000000      4.175753000000000
H       0.126072000000000      2.912751000000000      3.046494000000000
H      -2.146884000000000      1.949500000000000      2.712537000000000
H      -1.101686000000000     -0.241756000000000      4.622562000000000
H      -2.629826000000000     -0.342032000000000      3.698556000000000
H      -3.819688000000000      2.993879000000000      6.464537000000000
H      -4.281371000000000      1.446059000000000      7.173599000000000
H      -5.436249000000000      2.316813000000000      6.114398000000000
