87

P      -1.920705000000000     -1.003071000000000      0.543432000000000
C      -1.793103000000000      0.839906000000000      0.655589000000000
C      -3.019955000000000     -1.287156000000000      1.994889000000000
C      -3.045973000000000     -1.295309000000000     -0.876771000000000
C      -2.614810000000000      1.741268000000000     -0.021135000000000
C      -2.409045000000000      3.108541000000000      0.149895000000000
C      -1.422877000000000      3.604406000000000      0.992645000000000
C      -0.631729000000000      2.686521000000000      1.678771000000000
C      -0.797286000000000      1.320119000000000      1.511642000000000
C      -4.309390000000000     -0.739243000000000      2.029031000000000
C      -5.120934000000000     -0.918554000000000      3.142215000000000
C      -4.650860000000000     -1.640173000000000      4.240278000000000
C      -3.368565000000000     -2.176625000000000      4.219362000000000
C      -2.555215000000000     -2.001291000000000      3.099381000000000
C      -2.799912000000000     -0.672827000000000     -2.106624000000000
C      -3.540241000000000     -1.011827000000000     -3.234675000000000
C      -4.526113000000000     -1.992561000000000     -3.153832000000000
C      -4.766267000000000     -2.630006000000000     -1.939594000000000
C      -4.031749000000000     -2.285874000000000     -0.807235000000000
H      -3.400370000000000      1.401788000000000     -0.687727000000000
Cl     -3.410470000000000      4.234204000000000     -0.723126000000000
H      -1.271136000000000      4.670938000000000      1.111389000000000
Cl      0.606935000000000      3.269601000000000      2.752326000000000
H      -0.140780000000000      0.626433000000000      2.029805000000000
H      -4.679358000000000     -0.172603000000000      1.177821000000000
H      -6.118872000000000     -0.491777000000000      3.157006000000000
H      -5.285145000000000     -1.778382000000000      5.110310000000000
H      -2.996053000000000     -2.734375000000000      5.072870000000000
H      -1.550902000000000     -2.411584000000000      3.079041000000000
H      -2.032998000000000      0.093480000000000     -2.187043000000000
H      -3.340813000000000     -0.510052000000000     -4.176317000000000
H      -5.101026000000000     -2.261272000000000     -4.034178000000000
H      -5.528455000000000     -3.399766000000000     -1.869784000000000
H      -4.226291000000000     -2.791380000000000      0.134508000000000
P       1.967206000000000     -0.864588000000000      0.073113000000000
C       1.681901000000000      0.869479000000000     -0.503283000000000
C       3.086973000000000     -1.514298000000000     -1.232956000000000
C       3.130997000000000     -0.599704000000000      1.472328000000000
C       0.684705000000000      1.056730000000000     -1.466713000000000
C       0.381700000000000      2.337291000000000     -1.903471000000000
C       1.051731000000000      3.453378000000000     -1.408457000000000
C       2.050324000000000      3.246158000000000     -0.466532000000000
C       2.373490000000000      1.971941000000000     -0.003039000000000
C       3.585971000000000     -2.810223000000000     -1.044105000000000
C       4.427434000000000     -3.385848000000000     -1.988321000000000
C       4.769896000000000     -2.679512000000000     -3.141205000000000
C       4.277851000000000     -1.392682000000000     -3.334864000000000
C       3.443964000000000     -0.805705000000000     -2.382310000000000
C       4.504262000000000     -0.426813000000000      1.259500000000000
C       5.354491000000000     -0.164907000000000      2.330407000000000
C       4.843849000000000     -0.067164000000000      3.622889000000000
C       3.479891000000000     -0.237555000000000      3.843420000000000
C       2.629400000000000     -0.508363000000000      2.774636000000000
H       0.136218000000000      0.203473000000000     -1.856786000000000
Cl     -0.883124000000000      2.568880000000000     -3.078954000000000
H       0.797394000000000      4.451458000000000     -1.745798000000000
Cl      2.910198000000000      4.623837000000000      0.158254000000000
H       3.146484000000000      1.858473000000000      0.749550000000000
H       3.334140000000000     -3.379351000000000     -0.153890000000000
H       4.806112000000000     -4.388054000000000     -1.813895000000000
H       5.419678000000000     -3.130385000000000     -3.884813000000000
H       4.544365000000000     -0.835391000000000     -4.227596000000000
H       3.079886000000000      0.204599000000000     -2.541794000000000
H       4.909274000000000     -0.496912000000000      0.254037000000000
H       6.417703000000000     -0.037394000000000      2.153157000000000
H       5.508765000000000      0.137177000000000      4.456184000000000
H       3.075483000000000     -0.166937000000000      4.848167000000000
H       1.569993000000000     -0.668269000000000      2.952922000000000
Rh      0.066525000000000     -2.212397000000000      0.402496000000000
C      -0.117052000000000     -2.669698000000000     -1.507108000000000
O      -0.229148000000000     -2.931734000000000     -2.611852000000000
H       0.196927000000000     -1.868450000000000      1.935159000000000
C      -0.481131000000000     -4.222985000000000      1.049722000000000
C       0.922012000000000     -4.144735000000000      0.922917000000000
C       1.805564000000000     -4.099210000000000      2.138179000000000
O       2.224604000000000     -5.427945000000000      2.531668000000000
C       3.199998000000000     -5.974634000000000      1.797035000000000
C       3.533945000000000     -7.362050000000000      2.280810000000000
O       3.737314000000000     -5.420716000000000      0.864919000000000
H      -0.929940000000000     -4.222765000000000      2.039522000000000
H      -1.073649000000000     -4.723754000000000      0.289376000000000
H       1.395622000000000     -4.581647000000000      0.045543000000000
H       1.256607000000000     -3.714554000000000      3.000491000000000
H       2.702983000000000     -3.492169000000000      1.986705000000000
H       2.658976000000000     -8.007111000000000      2.165556000000000
H       3.786706000000000     -7.334599000000000      3.343305000000000
H       4.367667000000000     -7.756657000000000      1.702257000000000
