91

P       2.070163000000000      0.328456000000000     -0.194564000000000
C       3.514274000000000     -0.291251000000000     -1.190720000000000
C       1.966920000000000     -0.907709000000000      1.176144000000000
C       2.946113000000000      1.745200000000000      0.594613000000000
C       3.929578000000000      0.443054000000000     -2.319844000000000
C       5.010477000000000      0.024622000000000     -3.102578000000000
C       5.705199000000000     -1.130465000000000     -2.768142000000000
C       5.330815000000000     -1.846628000000000     -1.636911000000000
C       4.254165000000000     -1.426512000000000     -0.858795000000000
C       1.590291000000000     -2.246557000000000      0.928684000000000
C       1.314514000000000     -3.125168000000000      1.980827000000000
C       1.426581000000000     -2.690937000000000      3.295959000000000
C       1.825601000000000     -1.383944000000000      3.555254000000000
C       2.085562000000000     -0.501778000000000      2.508010000000000
C       4.227245000000000      1.586864000000000      1.142568000000000
C       4.892797000000000      2.671178000000000      1.699395000000000
C       4.291536000000000      3.930856000000000      1.701595000000000
C       3.026042000000000      4.097436000000000      1.152622000000000
C       2.354438000000000      3.006509000000000      0.602741000000000
C       3.308154000000000      1.691616000000000     -2.683434000000000
H       5.298152000000000      0.619271000000000     -3.963086000000000
H       6.538704000000000     -1.459061000000000     -3.379371000000000
H       5.876122000000000     -2.740637000000000     -1.352136000000000
H       3.996632000000000     -1.999308000000000      0.025154000000000
C       1.547740000000000     -2.784422000000000     -0.409799000000000
H       1.001453000000000     -4.136006000000000      1.746300000000000
H       1.205248000000000     -3.372267000000000      4.110656000000000
H       1.928186000000000     -1.037915000000000      4.579571000000000
H       2.363704000000000      0.522893000000000      2.730622000000000
H       4.704116000000000      0.609439000000000      1.130647000000000
H       5.883020000000000      2.537712000000000      2.123637000000000
H       4.814970000000000      4.780242000000000      2.129560000000000
H       2.553255000000000      5.073914000000000      1.150937000000000
H       1.360152000000000      3.136505000000000      0.191643000000000
P      -1.982798000000000      0.289079000000000     -0.141922000000000
C      -2.111495000000000     -0.481385000000000      1.547223000000000
C      -3.066452000000000     -0.799711000000000     -1.179598000000000
C      -3.097555000000000      1.718748000000000      0.210075000000000
C      -1.349731000000000      0.059130000000000      2.599593000000000
C      -1.415880000000000     -0.467950000000000      3.893984000000000
C      -2.255506000000000     -1.538920000000000      4.165105000000000
C      -3.054827000000000     -2.051381000000000      3.148378000000000
C      -2.988288000000000     -1.521291000000000      1.862908000000000
C      -2.843155000000000     -2.186519000000000     -1.337972000000000
C      -3.534786000000000     -2.927068000000000     -2.304127000000000
C      -4.447116000000000     -2.303562000000000     -3.145485000000000
C      -4.666760000000000     -0.936650000000000     -3.016348000000000
C      -3.984689000000000     -0.200694000000000     -2.047951000000000
C      -4.437194000000000      1.530824000000000      0.578965000000000
C      -5.239925000000000      2.619512000000000      0.892026000000000
C      -4.709772000000000      3.910543000000000      0.858994000000000
C      -3.376545000000000      4.103885000000000      0.519401000000000
C      -2.572313000000000      3.010349000000000      0.196481000000000
C      -0.560579000000000      1.250825000000000      2.424365000000000
H      -0.813090000000000     -0.018007000000000      4.675946000000000
H      -2.302437000000000     -1.953497000000000      5.166396000000000
H      -3.738928000000000     -2.868836000000000      3.352021000000000
H      -3.637376000000000     -1.931693000000000      1.097358000000000
C      -1.917463000000000     -2.931416000000000     -0.522698000000000
H      -3.336425000000000     -3.990455000000000     -2.386813000000000
H      -4.975132000000000     -2.881197000000000     -3.896765000000000
H      -5.352850000000000     -0.419700000000000     -3.678598000000000
H      -4.164844000000000      0.868137000000000     -1.991554000000000
H      -4.853438000000000      0.526715000000000      0.613221000000000
H      -6.278518000000000      2.463447000000000      1.166265000000000
H      -5.337917000000000      4.760951000000000      1.104931000000000
H      -2.953541000000000      5.103022000000000      0.505022000000000
H      -1.526551000000000      3.163867000000000     -0.045197000000000
Rh      0.011787000000000      0.507598000000000     -1.361036000000000
C       0.027487000000000      2.424443000000000     -1.844853000000000
O      -0.014887000000000      3.525199000000000     -2.145871000000000
H      -0.037478000000000     -1.025665000000000     -1.041853000000000
N       2.863789000000000      2.710610000000000     -3.007034000000000
N       0.026307000000000      2.247662000000000      2.370869000000000
N       1.583905000000000     -3.248172000000000     -1.469983000000000
N      -1.240171000000000     -3.602059000000000      0.134175000000000
C       0.667532000000000     -0.208949000000000     -3.345501000000000
C      -0.729195000000000     -0.140926000000000     -3.332853000000000
C      -1.477948000000000      0.947634000000000     -4.050215000000000
O      -1.996027000000000      0.408237000000000     -5.284920000000000
C      -3.273056000000000      0.668101000000000     -5.593627000000000
C      -3.675984000000000     -0.068458000000000     -6.845911000000000
O      -4.011040000000000      1.372059000000000     -4.944103000000000
H       1.233545000000000      0.560394000000000     -3.865324000000000
H       1.174590000000000     -1.157222000000000     -3.192408000000000
H      -1.302548000000000     -1.053550000000000     -3.182625000000000
H      -0.809242000000000      1.775749000000000     -4.310678000000000
H      -2.318163000000000      1.337778000000000     -3.473692000000000
H      -3.719786000000000     -1.139536000000000     -6.625669000000000
H      -2.929891000000000      0.077126000000000     -7.629442000000000
H      -4.653271000000000      0.281310000000000     -7.175510000000000
