91

P       2.618927000000000      1.249407000000000     -0.754037000000000
C       3.535858000000000      2.690661000000000     -0.044102000000000
C       3.858541000000000      0.586346000000000     -1.935016000000000
C       2.734147000000000      0.041342000000000      0.636500000000000
C       4.907318000000000      2.884026000000000     -0.244059000000000
C       5.561637000000000      3.965519000000000      0.335702000000000
C       4.846482000000000      4.866842000000000      1.129231000000000
C       3.474099000000000      4.688813000000000      1.333320000000000
C       2.830505000000000      3.609948000000000      0.742867000000000
C       3.931288000000000      1.185746000000000     -3.197267000000000
C       4.880444000000000      0.766662000000000     -4.124754000000000
C       5.766093000000000     -0.257687000000000     -3.797045000000000
C       5.696736000000000     -0.864028000000000     -2.545107000000000
C       4.748381000000000     -0.444671000000000     -1.614334000000000
C       1.872938000000000     -1.062619000000000      0.630413000000000
C       1.896033000000000     -1.987548000000000      1.664197000000000
C       2.788072000000000     -1.810923000000000      2.726904000000000
C       3.669263000000000     -0.726708000000000      2.735761000000000
C       3.639780000000000      0.191643000000000      1.692265000000000
H       5.471409000000000      2.186488000000000     -0.855313000000000
H       6.624238000000000      4.115384000000000      0.177721000000000
C       5.523493000000000      5.982785000000000      1.735962000000000
H       2.922659000000000      5.398384000000000      1.940623000000000
H       1.759246000000000      3.488553000000000      0.883092000000000
H       3.224417000000000      1.964723000000000     -3.472712000000000
H       4.897289000000000      1.226790000000000     -5.106511000000000
H       6.503160000000000     -0.591116000000000     -4.520854000000000
H       6.379923000000000     -1.667871000000000     -2.289339000000000
H       4.706676000000000     -0.923267000000000     -0.640691000000000
H       1.156354000000000     -1.176203000000000     -0.177522000000000
H       1.208834000000000     -2.826692000000000      1.671779000000000
C       2.752076000000000     -2.717184000000000      3.843936000000000
H       4.360393000000000     -0.601089000000000      3.562565000000000
H       4.323916000000000      1.034277000000000      1.711363000000000
P      -1.143083000000000      1.488123000000000      0.140141000000000
C      -2.662667000000000      0.593596000000000     -0.409685000000000
C      -1.878079000000000      3.071688000000000      0.743010000000000
C      -0.774826000000000      0.613126000000000      1.717690000000000
C      -2.518303000000000     -0.534198000000000     -1.227364000000000
C      -3.624998000000000     -1.274489000000000     -1.621604000000000
C      -4.902039000000000     -0.881122000000000     -1.207642000000000
C      -5.061216000000000      0.244679000000000     -0.394885000000000
C      -3.944889000000000      0.970966000000000      0.004119000000000
C      -2.244915000000000      4.015394000000000     -0.226859000000000
C      -2.814832000000000      5.226526000000000      0.136336000000000
C      -3.015846000000000      5.514561000000000      1.491569000000000
C      -2.656860000000000      4.582570000000000      2.468336000000000
C      -2.097200000000000      3.365222000000000      2.092389000000000
C      -1.484135000000000     -0.506569000000000      2.158899000000000
C      -1.139995000000000     -1.132600000000000      3.358138000000000
C      -0.102478000000000     -0.634936000000000      4.138826000000000
C       0.605993000000000      0.488534000000000      3.709699000000000
C       0.282767000000000      1.094479000000000      2.502067000000000
H      -1.526741000000000     -0.826321000000000     -1.561537000000000
H      -3.509621000000000     -2.148418000000000     -2.253621000000000
C      -6.054716000000000     -1.638168000000000     -1.619995000000000
H      -6.054621000000000      0.541623000000000     -0.076439000000000
H      -4.080255000000000      1.835190000000000      0.646656000000000
H      -2.085589000000000      3.791395000000000     -1.278757000000000
H      -3.099410000000000      5.953117000000000     -0.616926000000000
C      -3.597394000000000      6.772536000000000      1.879850000000000
H      -2.822710000000000      4.811702000000000      3.515520000000000
H      -1.836270000000000      2.642643000000000      2.858640000000000
H      -2.310017000000000     -0.898720000000000      1.574061000000000
H      -1.694395000000000     -2.007219000000000      3.683548000000000
H       0.164851000000000     -1.125401000000000      5.069776000000000
H       1.424402000000000      0.878928000000000      4.306723000000000
H       0.861166000000000      1.950528000000000      2.161617000000000
Rh      0.470355000000000      1.720320000000000     -1.558454000000000
C       0.677999000000000      3.668849000000000     -1.582897000000000
O       0.795035000000000      4.802486000000000     -1.652886000000000
H       0.356629000000000      0.145019000000000     -1.644632000000000
N       6.069077000000000      6.876286000000000      2.228059000000000
N       2.700206000000000     -3.431237000000000      4.753071000000000
N      -4.066543000000000      7.782577000000000      2.192771000000000
N      -6.980264000000000     -2.248596000000000     -1.950043000000000
C      -0.869289000000000      1.800034000000000     -3.281131000000000
C       0.443386000000000      1.596214000000000     -3.747678000000000
C       0.859009000000000      0.256552000000000     -4.291070000000000
O       0.666354000000000      0.202401000000000     -5.723623000000000
C       1.576509000000000      0.851118000000000     -6.461454000000000
C       1.278096000000000      0.720639000000000     -7.932200000000000
O       2.510654000000000      1.461957000000000     -5.994435000000000
H      -1.570051000000000      0.968634000000000     -3.265289000000000
H      -1.334045000000000      2.778165000000000     -3.375777000000000
H       0.986986000000000      2.435415000000000     -4.176315000000000
H       0.215972000000000     -0.533508000000000     -3.897887000000000
H       1.903105000000000      0.019927000000000     -4.077166000000000
H       0.299703000000000      1.158449000000000     -8.146089000000000
H       1.234597000000000     -0.335307000000000     -8.209578000000000
H       2.050134000000000      1.231379000000000     -8.505367000000000
