99

P      -1.772939000000000      1.209974000000000      0.624304000000000
C      -2.292843000000000      0.516083000000000     -1.006202000000000
C      -3.223135000000000      2.225941000000000      1.107845000000000
C      -1.937919000000000     -0.273618000000000      1.711556000000000
C      -3.006608000000000     -0.677718000000000     -1.106723000000000
C      -3.353736000000000     -1.189908000000000     -2.357614000000000
C      -3.003225000000000     -0.512378000000000     -3.525922000000000
C      -2.293029000000000      0.679892000000000     -3.431918000000000
C      -1.930945000000000      1.182670000000000     -2.184469000000000
C      -4.083882000000000      2.786327000000000      0.162353000000000
C      -5.103951000000000      3.647207000000000      0.563653000000000
C      -5.278658000000000      3.949796000000000      1.909152000000000
C      -4.428993000000000      3.388041000000000      2.860077000000000
C      -3.405484000000000      2.536825000000000      2.461638000000000
C      -0.822246000000000     -1.102844000000000      1.797046000000000
C      -0.861943000000000     -2.303438000000000      2.501078000000000
C      -2.008687000000000     -2.662889000000000      3.204052000000000
C      -3.130613000000000     -1.838923000000000      3.132375000000000
C      -3.106607000000000     -0.666805000000000      2.377003000000000
H      -3.276849000000000     -1.250050000000000     -0.224993000000000
C      -3.996873000000000     -2.528984000000000     -2.402995000000000
H      -3.258579000000000     -0.938523000000000     -4.489929000000000
H      -1.993917000000000      1.206560000000000     -4.332212000000000
H      -1.341070000000000      2.092092000000000     -2.118014000000000
H      -3.962017000000000      2.553373000000000     -0.891412000000000
H      -5.762037000000000      4.081719000000000     -0.182200000000000
H      -6.068228000000000      4.626971000000000      2.217912000000000
H      -4.555614000000000      3.623076000000000      3.912305000000000
H      -2.739663000000000      2.106035000000000      3.207962000000000
H       0.112215000000000     -0.816737000000000      1.324096000000000
C       0.343724000000000     -3.168982000000000      2.377562000000000
H      -2.028001000000000     -3.584061000000000      3.777488000000000
H      -4.039094000000000     -2.119051000000000      3.655649000000000
H      -4.000787000000000     -0.053985000000000      2.309789000000000
P       1.961934000000000      1.080378000000000     -0.417111000000000
C       1.486416000000000     -0.065908000000000     -1.786629000000000
C       2.979097000000000      0.034366000000000      0.712211000000000
C       3.233453000000000      2.113957000000000     -1.250528000000000
C       0.572505000000000     -1.094376000000000     -1.526092000000000
C       0.121548000000000     -1.922304000000000     -2.550281000000000
C       0.563188000000000     -1.728379000000000     -3.860301000000000
C       1.475693000000000     -0.718268000000000     -4.127810000000000
C       1.937549000000000      0.105609000000000     -3.099698000000000
C       3.065732000000000     -1.351693000000000      0.619681000000000
C       3.642734000000000     -2.084686000000000      1.663871000000000
C       4.183294000000000     -1.444922000000000      2.773049000000000
C       4.181947000000000     -0.051659000000000      2.824926000000000
C       3.567541000000000      0.677000000000000      1.814975000000000
C       2.810295000000000      3.244581000000000     -1.959733000000000
C       3.726257000000000      4.023148000000000     -2.660925000000000
C       5.078884000000000      3.687914000000000     -2.650428000000000
C       5.508158000000000      2.565257000000000     -1.947948000000000
C       4.590212000000000      1.776728000000000     -1.257202000000000
H       0.195839000000000     -1.272819000000000     -0.526065000000000
C      -0.913091000000000     -2.965868000000000     -2.302239000000000
H       0.175166000000000     -2.371823000000000     -4.643084000000000
H       1.834315000000000     -0.561547000000000     -5.140108000000000
H       2.650848000000000      0.889638000000000     -3.331977000000000
H       2.634998000000000     -1.889698000000000     -0.217520000000000
C       3.568618000000000     -3.569577000000000      1.654787000000000
H       4.592933000000000     -2.039883000000000      3.582947000000000
H       4.623346000000000      0.463169000000000      3.671893000000000
H       3.515157000000000      1.762155000000000      1.888267000000000
H       1.754984000000000      3.505679000000000     -1.960688000000000
H       3.384498000000000      4.895818000000000     -3.208716000000000
H       5.795627000000000      4.300071000000000     -3.188777000000000
H       6.559871000000000      2.296438000000000     -1.940581000000000
H       4.932492000000000      0.893463000000000     -0.726067000000000
Rh      0.301819000000000      2.302669000000000      0.732257000000000
C       0.695499000000000      1.682338000000000      2.545628000000000
O       0.897987000000000      1.309351000000000      3.607768000000000
H      -0.047787000000000      2.832500000000000     -0.715357000000000
O      -4.020321000000000     -3.308672000000000     -1.471239000000000
O      -4.548517000000000     -2.814518000000000     -3.586807000000000
H      -4.847328000000000     -3.739512000000000     -3.535952000000000
O       0.973679000000000     -3.234102000000000      1.343825000000000
O       0.671940000000000     -3.838320000000000      3.483273000000000
H       1.542104000000000     -4.262139000000000      3.314131000000000
O      -1.459152000000000     -3.588057000000000     -3.188012000000000
O      -1.221539000000000     -3.109880000000000     -1.008448000000000
H      -2.054342000000000     -3.623448000000000     -0.964258000000000
O       3.459383000000000     -4.257119000000000      2.652602000000000
O       3.632863000000000     -4.088864000000000      0.427728000000000
H       3.466631000000000     -5.043724000000000      0.516637000000000
C       1.250594000000000      4.249229000000000      0.974518000000000
C      -0.116617000000000      4.372095000000000      1.291992000000000
C      -0.554041000000000      4.576890000000000      2.714144000000000
O      -0.610256000000000      5.984379000000000      3.042244000000000
C      -1.709345000000000      6.632872000000000      2.625380000000000
C      -1.646933000000000      8.091885000000000      3.002389000000000
O      -2.618082000000000      6.108697000000000      2.028233000000000
H       1.983341000000000      4.254155000000000      1.780287000000000
H       1.633096000000000      4.591523000000000      0.019263000000000
H      -0.804580000000000      4.781195000000000      0.556351000000000
H       0.179145000000000      4.166625000000000      3.413862000000000
H      -1.538736000000000      4.147815000000000      2.905561000000000
H      -0.794549000000000      8.560430999999999      2.503540000000000
H      -1.494863000000000      8.192866000000000      4.079628000000000
H      -2.571323000000000      8.582825000000000      2.701982000000000
