99

P      -1.877315000000000     -1.040860000000000     -0.139654000000000
C      -1.810123000000000      0.779007000000000     -0.441219000000000
C      -3.371979000000000     -1.148343000000000      0.932055000000000
C      -2.524386000000000     -1.659584000000000     -1.750083000000000
C      -2.615996000000000      1.689904000000000      0.237221000000000
C      -2.484010000000000      3.064780000000000      0.011329000000000
C      -1.551609000000000      3.546451000000000     -0.899079000000000
C      -0.721930000000000      2.639842000000000     -1.563844000000000
C      -0.844055000000000      1.273126000000000     -1.328672000000000
C      -4.654906000000000     -1.340930000000000      0.410719000000000
C      -5.762741000000000     -1.364481000000000      1.256170000000000
C      -5.603623000000000     -1.182596000000000      2.626565000000000
C      -4.329470000000000     -0.981772000000000      3.153864000000000
C      -3.220404000000000     -0.973204000000000      2.313665000000000
C      -2.977718000000000     -0.830530000000000     -2.780438000000000
C      -3.470267000000000     -1.380953000000000     -3.962940000000000
C      -3.530183000000000     -2.761813000000000     -4.122977000000000
C      -3.096388000000000     -3.596475000000000     -3.094471000000000
C      -2.592273000000000     -3.048448000000000     -1.920249000000000
H      -3.344366000000000      1.359164000000000      0.970785000000000
C      -3.260148000000000      3.987073000000000      0.883678000000000
H      -1.412429000000000      4.611580000000000     -1.051806000000000
C       0.398530000000000      3.196359000000000     -2.375994000000000
H      -0.155738000000000      0.592523000000000     -1.822263000000000
H      -4.794650000000000     -1.472378000000000     -0.658002000000000
H      -6.752431000000000     -1.520961000000000      0.838543000000000
H      -6.468351000000000     -1.197630000000000      3.282440000000000
H      -4.196351000000000     -0.838575000000000      4.221588000000000
H      -2.225965000000000     -0.826218000000000      2.727286000000000
H      -2.954372000000000      0.248485000000000     -2.664784000000000
H      -3.811718000000000     -0.724785000000000     -4.757460000000000
H      -3.914291000000000     -3.187402000000000     -5.044606000000000
H      -3.142976000000000     -4.674791000000000     -3.209076000000000
H      -2.253485000000000     -3.701407000000000     -1.119475000000000
P       1.946864000000000     -0.892137000000000      0.568852000000000
C       1.749762000000000      0.941591000000000      0.670004000000000
C       2.888714000000000     -1.047035000000000     -1.008935000000000
C       3.265009000000000     -1.189167000000000      1.815578000000000
C       0.782540000000000      1.477443000000000      1.528792000000000
C       0.585833000000000      2.855600000000000      1.606213000000000
C       1.361241000000000      3.724903000000000      0.837219000000000
C       2.310916000000000      3.196003000000000     -0.030739000000000
C       2.496853000000000      1.813437000000000     -0.121248000000000
C       2.170834000000000     -1.093426000000000     -2.209743000000000
C       2.832277000000000     -1.133136000000000     -3.432980000000000
C       4.224588000000000     -1.144069000000000     -3.470425000000000
C       4.948540000000000     -1.113870000000000     -2.281695000000000
C       4.286732000000000     -1.061317000000000     -1.056655000000000
C       3.559294000000000     -2.517211000000000      2.142956000000000
C       4.576288000000000     -2.815849000000000      3.044878000000000
C       5.310564000000000     -1.786353000000000      3.629442000000000
C       5.021965000000000     -0.461051000000000      3.313765000000000
C       4.004753000000000     -0.161182000000000      2.409983000000000
H       0.144114000000000      0.813068000000000      2.103320000000000
C      -0.570564000000000      3.439357000000000      2.345501000000000
H       1.166983000000000      4.791789000000000      0.874246000000000
C       3.037280000000000      4.055785000000000     -1.003724000000000
H       3.218777000000000      1.438997000000000     -0.841015000000000
H       1.083686000000000     -1.110221000000000     -2.187259000000000
H       2.258290000000000     -1.163294000000000     -4.353604000000000
H       4.743460000000000     -1.181441000000000     -4.423060000000000
H       6.033682000000000     -1.128021000000000     -2.304298000000000
H       4.862265000000000     -1.027680000000000     -0.136433000000000
H       2.970245000000000     -3.325131000000000      1.715764000000000
H       4.763005000000000     -3.851899000000000      3.305084000000000
H       6.099655000000000     -2.015859000000000      4.338879000000000
H       5.586604000000000      0.344922000000000      3.772290000000000
H       3.792927000000000      0.876188000000000      2.169984000000000
Rh     -0.005515000000000     -2.169108000000000      0.728345000000000
C       0.431502000000000     -3.357316000000000     -0.766663000000000
O       0.700524000000000     -4.091592000000000     -1.599392000000000
H      -0.279062000000000     -1.265866000000000      1.996562000000000
O      -3.762831000000000      3.658338000000000      1.938723000000000
O      -3.331290000000000      5.232520000000000      0.406698000000000
H      -3.756313000000000      5.772208000000000      1.096512000000000
O       0.611657000000000      4.381867000000000     -2.493045000000000
O       1.193171000000000      2.251347000000000     -2.895714000000000
H       2.026406000000000      2.690373000000000     -3.163274000000000
O      -0.848592000000000      4.617244000000000      2.326583000000000
O      -1.326355000000000      2.519610000000000      2.961030000000000
H      -2.177589000000000      2.951075000000000      3.178831000000000
O       3.556721000000000      3.639858000000000     -2.019248000000000
O       3.044882000000000      5.347868000000000     -0.665833000000000
H       3.443332000000000      5.829400000000000     -1.412224000000000
C      -1.090466000000000     -3.753559000000000      1.763406000000000
C       0.243994000000000     -3.762770000000000      2.214025000000000
C       0.585929000000000     -3.261904000000000      3.589587000000000
O       0.568082000000000     -4.344972000000000      4.552766000000000
C       1.619986000000000     -5.170285000000000      4.525603000000000
C       1.488666000000000     -6.252252000000000      5.567153000000000
O       2.549586000000000     -5.058873000000000      3.759090000000000
H      -1.869976000000000     -3.330025000000000      2.392497000000000
H      -1.435844000000000     -4.514992000000000      1.068610000000000
H       0.922642000000000     -4.526223000000000      1.839406000000000
H      -0.176826000000000     -2.567133000000000      3.946302000000000
H       1.567184000000000     -2.785432000000000      3.634083000000000
H       0.601217000000000     -6.854562000000000      5.356167000000000
H       1.356025000000000     -5.803663000000000      6.554516000000000
H       2.378315000000000     -6.879899000000000      5.552092000000000
