111

P       1.728622000000000      0.243511000000000      1.230043000000000
C       2.036100000000000     -1.312493000000000      0.299741000000000
C       2.826912000000000      0.002295000000000      2.688558000000000
C       2.655541000000000      1.463406000000000      0.207033000000000
C       3.150238000000000     -1.467661000000000     -0.528393000000000
C       3.409658000000000     -2.675342000000000     -1.180340000000000
C       2.533978000000000     -3.743414000000000     -0.980855000000000
C       1.427706000000000     -3.607771000000000     -0.146342000000000
C       1.175639000000000     -2.396948000000000      0.490939000000000
C       2.826322000000000      0.983716000000000      3.686497000000000
C       3.629201000000000      0.856127000000000      4.815639000000000
C       4.438501000000000     -0.267848000000000      4.966864000000000
C       4.443385000000000     -1.252816000000000      3.983323000000000
C       3.646367000000000     -1.120344000000000      2.847601000000000
C       2.197689000000000      1.670429000000000     -1.098011000000000
C       2.792978000000000      2.600339000000000     -1.949082000000000
C       3.868116000000000      3.348236000000000     -1.461784000000000
C       4.336554000000000      3.154065000000000     -0.166303000000000
C       3.740250000000000      2.210985000000000      0.669965000000000
H       3.834131000000000     -0.633272000000000     -0.675760000000000
C       4.642846000000000     -2.818451000000000     -2.038654000000000
H       2.719905000000000     -4.687742000000000     -1.487448000000000
H       0.747460000000000     -4.442172000000000     -0.005850000000000
H       0.304345000000000     -2.283736000000000      1.130710000000000
H       2.195576000000000      1.860416000000000      3.594307000000000
H       3.595569000000000      1.633601000000000      5.571430000000000
H       5.059566000000000     -0.378383000000000      5.850660000000000
H       5.069464000000000     -2.132834000000000      4.096215000000000
H       3.663603000000000     -1.898500000000000      2.091425000000000
H       1.360017000000000      1.077469000000000     -1.464230000000000
C       2.257385000000000      2.795738000000000     -3.348269000000000
H       4.341104000000000      4.085051000000000     -2.105936000000000
H       5.177142000000000      3.737057000000000      0.197686000000000
H       4.122719000000000      2.058743000000000      1.674242000000000
P      -2.079461000000000     -0.340120000000000      0.380336000000000
C      -1.500611000000000     -1.387926000000000     -1.016554000000000
C      -3.264256000000000      0.772506000000000     -0.500756000000000
C      -3.227047000000000     -1.478408000000000      1.264205000000000
C      -0.708099000000000     -0.760142000000000     -1.985517000000000
C      -0.190609000000000     -1.455198000000000     -3.073954000000000
C      -0.460688000000000     -2.826324000000000     -3.171195000000000
C      -1.251031000000000     -3.462110000000000     -2.222800000000000
C      -1.780832000000000     -2.746649000000000     -1.147017000000000
C      -3.739664000000000      1.885723000000000      0.194832000000000
C      -4.634473000000000      2.789052000000000     -0.381651000000000
C      -5.056274000000000      2.559448000000000     -1.691522000000000
C      -4.601236000000000      1.448702000000000     -2.397554000000000
C      -3.710041000000000      0.554684000000000     -1.809829000000000
C      -2.816308000000000     -2.088583000000000      2.452872000000000
C      -3.648001000000000     -2.996389000000000      3.106520000000000
C      -4.902004000000000     -3.296234000000000      2.583268000000000
C      -5.322783000000000     -2.687773000000000      1.401906000000000
C      -4.491120000000000     -1.786055000000000      0.745455000000000
H      -0.520490000000000      0.310193000000000     -1.899772000000000
C       0.644888000000000     -0.757677000000000     -4.121401000000000
H      -0.057400000000000     -3.389879000000000     -4.009658000000000
H      -1.464397000000000     -4.522740000000000     -2.319205000000000
H      -2.403332000000000     -3.251777000000000     -0.414369000000000
H      -3.394417000000000      2.056015000000000      1.211444000000000
C      -5.078794000000000      4.004938000000000      0.396460000000000
H      -5.745068000000000      3.256737000000000     -2.161776000000000
H      -4.940366000000000      1.278194000000000     -3.414893000000000
H      -3.361859000000000     -0.306922000000000     -2.370933000000000
H      -1.844439000000000     -1.840281000000000      2.869504000000000
H      -3.315847000000000     -3.461304000000000      4.029593000000000
H      -5.553020000000000     -3.997972000000000      3.095490000000000
H      -6.301776000000000     -2.914360000000000      0.990977000000000
H      -4.826085000000000     -1.317812000000000     -0.175939000000000
Rh     -0.489261000000000      0.818103000000000      1.695552000000000
C      -0.553525000000000      2.431888000000000      0.585798000000000
O      -0.552951000000000      3.339560000000000     -0.111289000000000
H      -0.338012000000000     -0.503029000000000      2.546052000000000
H       4.498888000000000     -3.632872000000000     -2.757950000000000
H       4.789787000000000     -1.901467000000000     -2.622213000000000
C       5.890085000000000     -3.091974000000000     -1.190826000000000
H       6.053890000000000     -2.279161000000000     -0.476179000000000
H       5.770838000000000     -4.018146000000000     -0.620246000000000
H       6.782982000000000     -3.184390000000000     -1.815849000000000
H       0.344894000000000     -1.110880000000000     -5.115029000000000
H       0.434653000000000      0.319004000000000     -4.094525000000000
C       2.146537000000000     -0.992587000000000     -3.929662000000000
H       2.488105000000000     -0.559115000000000     -2.983757000000000
H       2.370223000000000     -2.064644000000000     -3.896808000000000
H       2.720825000000000     -0.544286000000000     -4.746912000000000
H       2.901577000000000      3.498092000000000     -3.888402000000000
H       2.309243000000000      1.843643000000000     -3.892543000000000
C       0.813306000000000      3.307767000000000     -3.357312000000000
H       0.452293000000000      3.443962000000000     -4.381080000000000
H       0.140967000000000      2.605992000000000     -2.852162000000000
H       0.737285000000000      4.263386000000000     -2.830708000000000
H      -5.878231000000000      4.516231000000000     -0.150637000000000
H      -5.504928000000000      3.689678000000000      1.356546000000000
C      -3.920999000000000      4.976525000000000      0.650805000000000
H      -3.475634000000000      5.303832000000000     -0.293263000000000
H      -4.260931000000000      5.859058000000000      1.200071000000000
H      -3.131511000000000      4.495719000000000      1.238111000000000
C      -1.781148000000000      1.429569000000000      3.355847000000000
C      -0.458897000000000      1.832961000000000      3.626278000000000
C      -0.112354000000000      3.295206000000000      3.543720000000000
O      -0.329391000000000      3.958803000000000      4.811512000000000
C       0.648249000000000      3.835654000000000      5.716168000000000
C       0.281158000000000      4.516694000000000      7.009320000000000
O       1.687184000000000      3.250382000000000      5.513986000000000
H      -2.511419000000000      2.189628000000000      3.083852000000000
H      -2.203207000000000      0.546593000000000      3.825508000000000
H       0.152412000000000      1.251290000000000      4.312781000000000
H      -0.787630000000000      3.809929000000000      2.855343000000000
H       0.920501000000000      3.478473000000000      3.235180000000000
H      -0.584358000000000      4.014185000000000      7.449275000000000
H      -0.001021000000000      5.554429000000000      6.817633000000000
H       1.125751000000000      4.472171000000000      7.695097000000000
