87

P      -1.692565000000000      0.723244000000000     -0.055587000000000
C      -2.350463000000000      1.667234000000000      1.391096000000000
C      -3.240573000000000      0.327811000000000     -0.977004000000000
C      -1.011092000000000      2.092506000000000     -1.094974000000000
C      -3.628501000000000      2.235462000000000      1.400578000000000
C      -4.031551000000000      2.969145000000000      2.505945000000000
C      -3.212281000000000      3.169481000000000      3.607038000000000
C      -1.940728000000000      2.605649000000000      3.591524000000000
C      -1.514071000000000      1.858073000000000      2.496342000000000
C      -3.433272000000000      0.689842000000000     -2.312018000000000
C      -4.587522000000000      0.291113000000000     -2.985761000000000
C      -5.558609000000000     -0.461343000000000     -2.332050000000000
C      -5.372318000000000     -0.827621000000000     -0.999790000000000
C      -4.218013000000000     -0.440547000000000     -0.329182000000000
C      -0.063253000000000      1.776325000000000     -2.072071000000000
C       0.453008000000000      2.785741000000000     -2.867721000000000
C       0.052989000000000      4.107756000000000     -2.741199000000000
C      -0.895291000000000      4.416621000000000     -1.771529000000000
C      -1.422879000000000      3.421510000000000     -0.950419000000000
H      -4.315287000000000      2.117385000000000      0.568835000000000
F      -5.258440000000000      3.509023000000000      2.506677000000000
H      -3.578874000000000      3.747662000000000      4.447592000000000
H      -1.281868000000000      2.739759000000000      4.443263000000000
H      -0.526029000000000      1.407350000000000      2.505897000000000
H      -2.687501000000000      1.282887000000000     -2.832067000000000
H      -4.725631000000000      0.575197000000000     -4.024415000000000
H      -6.455209000000000     -0.769401000000000     -2.860838000000000
H      -6.104682000000000     -1.441063000000000     -0.485998000000000
H      -4.057997000000000     -0.771944000000000      0.694904000000000
H       0.296190000000000      0.760505000000000     -2.199482000000000
F       1.387445000000000      2.475129000000000     -3.778737000000000
H       0.492713000000000      4.862727000000000     -3.383511000000000
H      -1.223525000000000      5.444133000000000     -1.650403000000000
H      -2.155644000000000      3.687506000000000     -0.196216000000000
P       2.012929000000000     -0.375443000000000      0.392405000000000
C       2.463525000000000      1.320046000000000     -0.172301000000000
C       3.123997000000000     -1.404116000000000     -0.662170000000000
C       2.878646000000000     -0.463455000000000      2.017200000000000
C       3.351365000000000      1.559753000000000     -1.220716000000000
C       3.591814000000000      2.871335000000000     -1.610904000000000
C       3.001263000000000      3.953954000000000     -0.982603000000000
C       2.120526000000000      3.707666000000000      0.070675000000000
C       1.846794000000000      2.404852000000000      0.466251000000000
C       4.419747000000000     -1.738379000000000     -0.259731000000000
C       5.221422000000000     -2.475768000000000     -1.118481000000000
C       4.792019000000000     -2.884121000000000     -2.371590000000000
C       3.502777000000000     -2.541349000000000     -2.769582000000000
C       2.670537000000000     -1.815309000000000     -1.921398000000000
C       3.770027000000000      0.513335000000000      2.471467000000000
C       4.412925000000000      0.363211000000000      3.699398000000000
C       4.183518000000000     -0.766501000000000      4.478849000000000
C       3.306577000000000     -1.751331000000000      4.027917000000000
C       2.655766000000000     -1.597402000000000      2.808633000000000
H       3.852306000000000      0.757149000000000     -1.751172000000000
F       4.433354000000000      3.092447000000000     -2.629682000000000
H       3.221957000000000      4.957949000000000     -1.327460000000000
H       1.630197000000000      4.538667000000000      0.567540000000000
H       1.132229000000000      2.223681000000000      1.264920000000000
H       4.820426000000000     -1.436766000000000      0.702482000000000
F       6.461128000000000     -2.797678000000000     -0.722339000000000
H       5.459640000000000     -3.457020000000000     -3.005033000000000
H       3.142277000000000     -2.850205000000000     -3.745441000000000
H       1.658427000000000     -1.570692000000000     -2.229933000000000
H       3.969005000000000      1.392725000000000      1.866976000000000
H       5.098784000000000      1.131632000000000      4.042282000000000
H       4.686467000000000     -0.880997000000000      5.433871000000000
H       3.123876000000000     -2.637046000000000      4.628083000000000
H       1.970953000000000     -2.366432000000000      2.459718000000000
Rh     -0.239959000000000     -1.065927000000000      0.397846000000000
C      -0.524838000000000     -1.191811000000000      2.325323000000000
O      -0.735103000000000     -1.319210000000000      3.463285000000000
H      -0.125643000000000     -1.033010000000000     -1.182321000000000
C       0.101476000000000     -3.220805000000000      0.126765000000000
C      -1.282778000000000     -2.993333000000000      0.115338000000000
C      -2.103389000000000     -2.958133000000000     -1.142865000000000
O      -2.828887000000000     -4.190784000000000     -1.349105000000000
C      -3.935260000000000     -4.348748000000000     -0.611981000000000
C      -4.620045000000000     -5.651938000000000     -0.937939000000000
O      -4.325875000000000     -3.549096000000000      0.207008000000000
H       0.632356000000000     -3.381666000000000     -0.808210000000000
H       0.576345000000000     -3.660433000000000      0.999769000000000
H      -1.861655000000000     -3.224312000000000      1.007392000000000
H      -1.470881000000000     -2.846211000000000     -2.025601000000000
H      -2.805848000000000     -2.131375000000000     -1.069228000000000
H      -3.941648000000000     -6.483499000000000     -0.731024000000000
H      -4.866535000000000     -5.684311000000000     -2.002041000000000
H      -5.523383000000000     -5.746865000000000     -0.337408000000000
