87

P      -2.040814000000000     -0.506875000000000      0.012143000000000
C      -2.577521000000000      1.257929000000000     -0.125713000000000
C      -2.747137000000000     -0.914971000000000      1.656814000000000
C      -3.199477000000000     -1.338983000000000     -1.148347000000000
C      -2.122745000000000      2.015342000000000     -1.204706000000000
C      -2.274037000000000      3.389200000000000     -1.296036000000000
C      -2.951251000000000      4.048793000000000     -0.273737000000000
C      -3.467793000000000      3.324991000000000      0.799494000000000
C      -3.276420000000000      1.946787000000000      0.873422000000000
C      -1.949356000000000     -0.698012000000000      2.783718000000000
C      -2.466903000000000     -0.895138000000000      4.061234000000000
C      -3.780622000000000     -1.326946000000000      4.223803000000000
C      -4.579782000000000     -1.550021000000000      3.104260000000000
C      -4.069344000000000     -1.336974000000000      1.826496000000000
C      -3.299064000000000     -2.729901000000000     -1.100999000000000
C      -4.057202000000000     -3.466674000000000     -1.994477000000000
C      -4.750651000000000     -2.790448000000000     -2.995169000000000
C      -4.681327000000000     -1.402723000000000     -3.073437000000000
C      -3.915569000000000     -0.686470000000000     -2.155763000000000
F      -1.506202000000000      1.380925000000000     -2.220296000000000
H      -1.855207000000000      3.911238000000000     -2.150183000000000
H      -3.077626000000000      5.125477000000000     -0.322450000000000
H      -4.010063000000000      3.834514000000000      1.589519000000000
H      -3.648931000000000      1.400257000000000      1.733995000000000
H      -0.919922000000000     -0.373904000000000      2.659522000000000
H      -1.835107000000000     -0.716062000000000      4.926135000000000
H      -4.181784000000000     -1.491376000000000      5.219145000000000
H      -5.604550000000000     -1.887498000000000      3.224676000000000
H      -4.705699000000000     -1.494195000000000      0.959919000000000
F      -2.645497000000000     -3.385183000000000     -0.126997000000000
H      -4.092686000000000     -4.545533000000000     -1.891967000000000
H      -5.345935000000000     -3.351002000000000     -3.708322000000000
H      -5.224489000000000     -0.872234000000000     -3.848147000000000
H      -3.877714000000000      0.395524000000000     -2.224157000000000
P       1.365031000000000      1.041076000000000      0.019622000000000
C       0.886657000000000      1.569358000000000      1.717316000000000
C       1.142012000000000      2.618958000000000     -0.935223000000000
C       3.204793000000000      1.049363000000000      0.064358000000000
C       1.456180000000000      0.935915000000000      2.822890000000000
C       1.014229000000000      1.135649000000000      4.122079000000000
C      -0.064957000000000      1.987797000000000      4.341893000000000
C      -0.683194000000000      2.612660000000000      3.262311000000000
C      -0.209977000000000      2.402933000000000      1.969061000000000
C       1.077106000000000      2.545975000000000     -2.325586000000000
C       0.938094000000000      3.656153000000000     -3.145232000000000
C       0.891105000000000      4.916853000000000     -2.560459000000000
C       0.999071000000000      5.041691000000000     -1.176773000000000
C       1.132280000000000      3.906907000000000     -0.382298000000000
C       3.921673000000000      2.025686000000000      0.765511000000000
C       5.310265000000000      2.016367000000000      0.751490000000000
C       5.995108000000000      1.033498000000000      0.033720000000000
C       5.288449000000000      0.063047000000000     -0.666761000000000
C       3.892987000000000      0.074192000000000     -0.655313000000000
F       2.454632000000000      0.060279000000000      2.630147000000000
H       1.513937000000000      0.613156000000000      4.930469000000000
H      -0.426355000000000      2.149480000000000      5.352336000000000
H      -1.540806000000000      3.259489000000000      3.416825000000000
H      -0.712880000000000      2.887125000000000      1.137154000000000
F       1.179283000000000      1.348170000000000     -2.921535000000000
H       0.886302000000000      3.511023000000000     -4.218576000000000
H       0.788515000000000      5.797755000000000     -3.186039000000000
H       0.989142000000000      6.022892000000000     -0.713881000000000
H       1.226940000000000      4.025851000000000      0.691914000000000
H       3.391404000000000      2.788455000000000      1.331616000000000
H       5.861341000000000      2.771839000000000      1.303399000000000
H       7.080877000000000      1.024100000000000      0.031187000000000
H       5.803768000000000     -0.725242000000000     -1.204566000000000
H       3.343728000000000     -0.699832000000000     -1.184269000000000
Rh      0.215838000000000     -1.005411000000000     -0.413974000000000
C       0.015831000000000     -1.020005000000000     -2.389056000000000
O      -0.139644000000000     -1.139908000000000     -3.512302000000000
H       0.378483000000000     -1.139454000000000      1.140224000000000
C       0.286126000000000     -3.154435000000000     -0.380191000000000
C       1.610378000000000     -2.663332000000000     -0.449711000000000
C       2.515388000000000     -2.731056000000000      0.748429000000000
O       3.321282000000000     -3.937993000000000      0.721305000000000
C       4.353664000000000     -3.932530000000000     -0.126155000000000
C       5.106964000000000     -5.238226000000000     -0.073017000000000
O       4.640684000000000     -3.001547000000000     -0.844349000000000
H      -0.096421000000000     -3.534819000000000      0.563346000000000
H      -0.187339000000000     -3.582041000000000     -1.260371000000000
H       2.136839000000000     -2.703411000000000     -1.401733000000000
H       1.931484000000000     -2.810519000000000      1.667162000000000
H       3.191330000000000     -1.876614000000000      0.820318000000000
H       4.446787000000000     -6.051403000000000     -0.385857000000000
H       5.422046000000000     -5.444762000000000      0.952517000000000
H       5.971911000000000     -5.185132000000000     -0.732429000000000
