87

P       2.208719000000000     -0.637186000000000     -0.309745000000000
C       2.630368000000000      1.046566000000000     -0.925649000000000
C       2.911282000000000     -1.728957000000000     -1.612837000000000
C       3.453199000000000     -0.845765000000000      1.034984000000000
C       3.781731000000000      1.737813000000000     -0.535810000000000
C       4.009366000000000      3.043637000000000     -0.963388000000000
C       3.075345000000000      3.645331000000000     -1.791228000000000
C       1.936658000000000      2.981279000000000     -2.224153000000000
C       1.720105000000000      1.684093000000000     -1.778646000000000
C       3.425863000000000     -1.247680000000000     -2.817721000000000
C       3.919316000000000     -2.133947000000000     -3.776019000000000
C       3.916383000000000     -3.502975000000000     -3.533030000000000
C       3.414377000000000     -3.990526000000000     -2.326030000000000
C       2.908526000000000     -3.110365000000000     -1.377008000000000
C       3.127840000000000     -0.411713000000000      2.325244000000000
C       4.046143000000000     -0.486722000000000      3.366751000000000
C       5.302243000000000     -1.012000000000000      3.103116000000000
C       5.664303000000000     -1.452091000000000      1.838906000000000
C       4.734921000000000     -1.362205000000000      0.806897000000000
H       4.505859000000000      1.266981000000000      0.121495000000000
H       4.887571000000000      3.600248000000000     -0.655496000000000
F       3.270269000000000      4.914067000000000     -2.175591000000000
H       1.225687000000000      3.494264000000000     -2.861984000000000
H       0.811922000000000      1.163539000000000     -2.070708000000000
H       3.446338000000000     -0.179893000000000     -3.013170000000000
H       4.312516000000000     -1.747286000000000     -4.711151000000000
H       4.304080000000000     -4.190111000000000     -4.278482000000000
H       3.411994000000000     -5.057787000000000     -2.127449000000000
H       2.512157000000000     -3.490913000000000     -0.438670000000000
H       2.139565000000000     -0.009140000000000      2.526119000000000
H       3.801748000000000     -0.157753000000000      4.370426000000000
F       6.192306000000000     -1.097374000000000      4.099545000000000
H       6.658092000000000     -1.854934000000000      1.678508000000000
H       5.016131000000000     -1.696305000000000     -0.187038000000000
P      -1.372502000000000      0.875183000000000      0.239413000000000
C      -2.467791000000000      0.893208000000000      1.715580000000000
C      -2.589943000000000      1.137503000000000     -1.118433000000000
C      -0.558457000000000      2.526740000000000      0.328476000000000
C      -3.350866000000000     -0.185994000000000      1.873188000000000
C      -4.195284000000000     -0.259351000000000      2.972622000000000
C      -4.135009000000000      0.750302000000000      3.924841000000000
C      -3.273653000000000      1.827828000000000      3.801462000000000
C      -2.442129000000000      1.898707000000000      2.684199000000000
C      -2.244348000000000      0.794184000000000     -2.430550000000000
C      -3.117720000000000      1.023999000000000     -3.488243000000000
C      -4.351640000000000      1.595834000000000     -3.216487000000000
C      -4.733309000000000      1.944597000000000     -1.929667000000000
C      -3.844532000000000      1.714490000000000     -0.884083000000000
C      -1.028696000000000      3.655856000000000     -0.347088000000000
C      -0.334139000000000      4.862819000000000     -0.271576000000000
C       0.829727000000000      4.956911000000000      0.485125000000000
C       1.298793000000000      3.839158000000000      1.174696000000000
C       0.611523000000000      2.633730000000000      1.089604000000000
H      -3.402401000000000     -0.977742000000000      1.129362000000000
H      -4.887133000000000     -1.085288000000000      3.094677000000000
F      -4.939474000000000      0.682967000000000      4.994702000000000
H      -3.264912000000000      2.594745000000000      4.567832000000000
H      -1.774240000000000      2.747624000000000      2.574396000000000
H      -1.289759000000000      0.313367000000000     -2.623287000000000
H      -2.864810000000000      0.756517000000000     -4.508094000000000
F      -5.203020000000000      1.812273000000000     -4.226927000000000
H      -5.710552000000000      2.383293000000000     -1.762420000000000
H      -4.134681000000000      1.987885000000000      0.125948000000000
H      -1.932053000000000      3.596493000000000     -0.946245000000000
H      -0.703713000000000      5.729271000000000     -0.811401000000000
H       1.376873000000000      5.893498000000000      0.529873000000000
H       2.211878000000000      3.899897000000000      1.758861000000000
H       0.998588000000000      1.751219000000000      1.594222000000000
Rh     -0.047207000000000     -1.075942000000000      0.141810000000000
C      -0.021765000000000     -1.338794000000000      2.081911000000000
O      -0.063205000000000     -1.523380000000000      3.209058000000000
H      -0.109584000000000     -0.929099000000000     -1.431732000000000
C      -0.245967000000000     -3.202907000000000     -0.280655000000000
C      -1.530821000000000     -2.657869000000000     -0.076456000000000
C      -2.485266000000000     -2.445251000000000     -1.216332000000000
O      -3.363953000000000     -3.585003000000000     -1.375284000000000
C      -4.369446000000000     -3.667644000000000     -0.496610000000000
C      -5.210498000000000     -4.892994000000000     -0.743880000000000
O      -4.569345000000000     -2.859096000000000      0.381858000000000
H       0.093520000000000     -3.417002000000000     -1.291453000000000
H       0.214449000000000     -3.808218000000000      0.495695000000000
H      -2.025622000000000     -2.837639000000000      0.876875000000000
H      -1.948611000000000     -2.368193000000000     -2.164572000000000
H      -3.111291000000000     -1.559196000000000     -1.082598000000000
H      -4.596795000000000     -5.787831000000000     -0.611594000000000
H      -5.574681000000000     -4.891555000000000     -1.773920000000000
H      -6.046187000000000     -4.906078000000000     -0.046053000000000
