119

P      -2.022360000000000     -0.311451000000000      1.295613000000000
C      -2.699036000000000      1.292221000000000      0.688297000000000
C      -3.096110000000000     -0.692260000000000      2.734243000000000
C      -2.684670000000000     -1.447252000000000     -0.005673000000000
C      -1.816831000000000      2.348228000000000      0.479549000000000
C      -2.223611000000000      3.509967000000000     -0.211303000000000
C      -3.560779000000000      3.581403000000000     -0.645291000000000
C      -4.450051000000000      2.546652000000000     -0.377835000000000
C      -4.035258000000000      1.395542000000000      0.281166000000000
C      -3.158182000000000     -2.014877000000000      3.193319000000000
C      -3.885890000000000     -2.334579000000000      4.333395000000000
C      -4.549142000000000     -1.332750000000000      5.042431000000000
C      -4.482422000000000     -0.015704000000000      4.600632000000000
C      -3.762077000000000      0.304743000000000      3.449872000000000
C      -1.832669000000000     -1.708516000000000     -1.076804000000000
C      -2.237390000000000     -2.480736000000000     -2.181137000000000
C      -3.532273000000000     -3.032020000000000     -2.145795000000000
C      -4.372243000000000     -2.786502000000000     -1.065281000000000
C      -3.971379000000000     -1.993552000000000      0.006323000000000
H      -0.783754000000000      2.226399000000000      0.788109000000000
N      -1.341511000000000      4.535786000000000     -0.476919000000000
H      -3.909393000000000      4.459793000000000     -1.176859000000000
H      -5.480957000000000      2.637887000000000     -0.707783000000000
H      -4.727823000000000      0.576627000000000      0.446135000000000
H      -2.636024000000000     -2.797748000000000      2.645912000000000
H      -3.932162000000000     -3.364872000000000      4.672636000000000
H      -5.113310000000000     -1.580785000000000      5.936047000000000
H      -4.995315000000000      0.769176000000000      5.148079000000000
H      -3.722901000000000      1.334265000000000      3.105838000000000
H      -0.825426000000000     -1.311267000000000     -1.038451000000000
N      -1.379628000000000     -2.675296000000000     -3.253934000000000
H      -3.885577000000000     -3.663092000000000     -2.952286000000000
H      -5.362856000000000     -3.232136000000000     -1.061104000000000
H      -4.641068000000000     -1.820701000000000      0.842908000000000
P       1.836305000000000      0.270778000000000      0.211933000000000
C       1.454559000000000      1.419869000000000     -1.185832000000000
C       2.809302000000000     -1.044263000000000     -0.633093000000000
C       3.129712000000000      1.272806000000000      1.061085000000000
C       0.176914000000000      1.415640000000000     -1.740404000000000
C      -0.178001000000000      2.293605000000000     -2.788500000000000
C       0.819767000000000      3.160962000000000     -3.272668000000000
C       2.100354000000000      3.144792000000000     -2.729360000000000
C       2.433708000000000      2.284916000000000     -1.689658000000000
C       3.326306000000000     -2.059590000000000      0.175486000000000
C       4.028008000000000     -3.149893000000000     -0.372572000000000
C       4.157863000000000     -3.199882000000000     -1.777469000000000
C       3.648118000000000     -2.182560000000000     -2.571133000000000
C       2.979411000000000     -1.091454000000000     -2.018073000000000
C       4.480590000000000      0.926425000000000      1.102429000000000
C       5.383679000000000      1.704947000000000      1.828963000000000
C       4.949905000000000      2.841633000000000      2.501592000000000
C       3.603357000000000      3.204935000000000      2.447599000000000
C       2.701506000000000      2.421954000000000      1.739044000000000
H      -0.564671000000000      0.745698000000000     -1.323916000000000
N      -1.465245000000000      2.311037000000000     -3.308111000000000
H       0.604499000000000      3.848362000000000     -4.081772000000000
H       2.849866000000000      3.820957000000000     -3.130383000000000
H       3.435191000000000      2.288477000000000     -1.272252000000000
H       3.181570000000000     -1.990330000000000      1.250030000000000
N       4.563186000000000     -4.133601000000000      0.438782000000000
H       4.659445000000000     -4.034001000000000     -2.252433000000000
H       3.772841000000000     -2.244633000000000     -3.648770000000000
H       2.589042000000000     -0.305067000000000     -2.655205000000000
H       4.833033000000000      0.039945000000000      0.585072000000000
H       6.428654000000000      1.413607000000000      1.867833000000000
H       5.653967000000000      3.442423000000000      3.068826000000000
H       3.255249000000000      4.090291000000000      2.971124000000000
H       1.645873000000000      2.683608000000000      1.731152000000000
Rh      0.253601000000000     -0.610417000000000      1.755122000000000
C       0.322356000000000     -2.461759000000000      1.107611000000000
O       0.366831000000000     -3.562413000000000      0.800945000000000
H       0.193082000000000      0.854740000000000      2.350984000000000
C      -0.013716000000000      4.522770000000000      0.098669000000000
H       0.654053000000000      3.782905000000000     -0.362719000000000
H       0.431047000000000      5.513019000000000     -0.021361000000000
H      -0.077338000000000      4.317963000000000      1.173210000000000
C      -1.600432000000000      5.403407000000000     -1.605862000000000
H      -1.984462000000000      4.820938000000000     -2.453485000000000
H      -2.325201000000000      6.194961000000000     -1.369830000000000
H      -0.665877000000000      5.877645000000000     -1.912682000000000
C      -1.657754000000000      2.938247000000000     -4.600987000000000
H      -2.704150000000000      2.831503000000000     -4.890095000000000
H      -1.438074000000000      4.009826000000000     -4.553292000000000
H      -1.027197000000000      2.494286000000000     -5.387259000000000
C      -2.337943000000000      1.188057000000000     -3.002518000000000
H      -2.495800000000000      1.103005000000000     -1.925367000000000
H      -3.314083000000000      1.369943000000000     -3.455420000000000
H      -1.943563000000000      0.229674000000000     -3.379346000000000
C      -1.708231000000000     -3.713308000000000     -4.208550000000000
H      -1.790350000000000     -4.708142000000000     -3.744128000000000
H      -2.655520000000000     -3.490360000000000     -4.709926000000000
H      -0.931363000000000     -3.749447000000000     -4.973373000000000
C       0.024675000000000     -2.347228000000000     -3.070567000000000
H       0.154017000000000     -1.272369000000000     -2.899447000000000
H       0.485189000000000     -2.883170000000000     -2.225834000000000
H       0.571318000000000     -2.601504000000000     -3.980219000000000
C       4.149337000000000     -4.181575000000000      1.830865000000000
H       4.651034000000000     -5.020256000000000      2.315878000000000
H       4.438602000000000     -3.270728000000000      2.361946000000000
H       3.060940000000000     -4.317566000000000      1.935757000000000
C       5.002294000000000     -5.367064000000000     -0.177837000000000
H       5.368429000000000     -6.039450000000000      0.598830000000000
H       4.197720000000000     -5.876685000000000     -0.730689000000000
H       5.829601000000000     -5.182305000000000     -0.871093000000000
C       0.105627000000000     -1.243183000000000      3.821895000000000
C       1.474911000000000     -1.147536000000000      3.500924000000000
C       2.336668000000000     -0.047131000000000      4.044385000000000
O       2.995522000000000     -0.470115000000000      5.267835000000000
C       4.061162000000000     -1.256007000000000      5.098703000000000
C       4.673745000000000     -1.637752000000000      6.422937000000000
O       4.476967000000000     -1.616269000000000      4.019621000000000
H      -0.367233000000000     -0.465008000000000      4.416850000000000
H      -0.377274000000000     -2.214366000000000      3.889212000000000
H       2.025269000000000     -2.065256000000000      3.295481000000000
H       1.734727000000000      0.817836000000000      4.330937000000000
H       3.115495000000000      0.260702000000000      3.347478000000000
H       3.949114000000000     -2.211525000000000      7.006667000000000
H       4.917676000000000     -0.738035000000000      6.992622000000000
H       5.569719000000000     -2.232245000000000      6.250741000000000
