95

P      -2.211019000000000     -0.245667000000000      0.127685000000000
C      -3.331734000000000      1.201465000000000     -0.062269000000000
C      -1.826981000000000     -0.260339000000000      1.927780000000000
C      -3.324788000000000     -1.693884000000000     -0.076143000000000
C      -2.808438000000000      2.515128000000000     -0.133168000000000
C      -3.668895000000000      3.572825000000000     -0.477449000000000
C      -5.019309000000000      3.354664000000000     -0.687279000000000
C      -5.556971000000000      2.075192000000000     -0.545716000000000
C      -4.711800000000000      1.018444000000000     -0.239278000000000
C      -0.861319000000000     -1.155447000000000      2.407394000000000
C      -0.448376000000000     -1.113447000000000      3.735474000000000
C      -1.000415000000000     -0.170266000000000      4.604339000000000
C      -1.976663000000000      0.707810000000000      4.141517000000000
C      -2.392408000000000      0.662422000000000      2.809531000000000
C      -3.904520000000000     -1.957717000000000     -1.339663000000000
C      -4.551452000000000     -3.188507000000000     -1.548437000000000
C      -4.664777000000000     -4.116580000000000     -0.527043000000000
C      -4.145927000000000     -3.838770000000000      0.737440000000000
C      -3.481229000000000     -2.637064000000000      0.947209000000000
N      -1.503612000000000      2.806265000000000      0.212572000000000
H      -3.256163000000000      4.576257000000000     -0.541609000000000
H      -5.660352000000000      4.191682000000000     -0.947825000000000
H      -6.617185000000000      1.899351000000000     -0.689283000000000
H      -5.123259000000000      0.017957000000000     -0.156971000000000
H      -0.412878000000000     -1.872785000000000      1.724859000000000
H       0.319853000000000     -1.800371000000000      4.079377000000000
H      -0.670182000000000     -0.123513000000000      5.637464000000000
H      -2.417569000000000      1.435959000000000      4.815820000000000
H      -3.144902000000000      1.359682000000000      2.452590000000000
N      -3.926427000000000     -1.020042000000000     -2.355785000000000
H      -4.969923000000000     -3.387885000000000     -2.531266000000000
H      -5.171238000000000     -5.058486000000000     -0.715882000000000
H      -4.251594000000000     -4.550378000000000      1.549240000000000
H      -3.065918000000000     -2.431142000000000      1.927926000000000
P       1.922423000000000     -0.124928000000000     -0.141869000000000
C       2.421797000000000     -1.011229000000000      1.399433000000000
C       2.330311000000000      1.633546000000000      0.241691000000000
C       3.288647000000000     -0.585469000000000     -1.292089000000000
C       2.226216000000000     -2.410467000000000      1.506389000000000
C       2.589455000000000     -3.060501000000000      2.698050000000000
C       3.145829000000000     -2.359477000000000      3.757186000000000
C       3.358532000000000     -0.986251000000000      3.654548000000000
C       3.004476000000000     -0.334373000000000      2.478527000000000
C       1.544076000000000      2.327196000000000      1.191656000000000
C       1.704047000000000      3.712295000000000      1.342783000000000
C       2.649785000000000      4.402882000000000      0.598975000000000
C       3.471603000000000      3.719587000000000     -0.293397000000000
C       3.308219000000000      2.348089000000000     -0.459868000000000
C       3.249605000000000     -0.091986000000000     -2.603361000000000
C       4.259263000000000     -0.395810000000000     -3.509117000000000
C       5.314461000000000     -1.221959000000000     -3.123355000000000
C       5.356983000000000     -1.724486000000000     -1.827664000000000
C       4.354939000000000     -1.402148000000000     -0.912628000000000
N       1.769299000000000     -3.156536000000000      0.434113000000000
H       2.437822000000000     -4.134447000000000      2.772320000000000
H       3.418009000000000     -2.890692000000000      4.664387000000000
H       3.806830000000000     -0.430871000000000      4.470905000000000
H       3.196815000000000      0.731003000000000      2.388947000000000
N       0.571440000000000      1.660328000000000      1.916043000000000
H       1.078246000000000      4.233848000000000      2.062559000000000
H       2.756027000000000      5.475168000000000      0.732118000000000
H       4.231771000000000      4.246388000000000     -0.859735000000000
H       3.949625000000000      1.826325000000000     -1.160876000000000
H       2.422614000000000      0.544463000000000     -2.911971000000000
H       4.217455000000000      0.004166000000000     -4.517474000000000
H       6.097768000000000     -1.471542000000000     -3.832162000000000
H       6.174877000000000     -2.368246000000000     -1.519490000000000
H       4.408392000000000     -1.790991000000000      0.099093000000000
Rh     -0.268655000000000     -0.524078000000000     -1.259516000000000
C      -0.201687000000000      1.182761000000000     -2.195968000000000
O      -0.183686000000000      2.195703000000000     -2.731773000000000
H      -0.449360000000000     -1.884816000000000     -0.475668000000000
H      -1.072493000000000      3.589981000000000     -0.260089000000000
H      -0.862110000000000      2.039430000000000      0.390814000000000
H      -3.255025000000000     -0.265478000000000     -2.271769000000000
H      -3.934479000000000     -1.421068000000000     -3.290070000000000
H       1.444770000000000     -4.086476000000000      0.668626000000000
H       1.131881000000000     -2.677649000000000     -0.197899000000000
H       0.762987000000000      0.714047000000000      2.225054000000000
H       0.084256000000000      2.201447000000000      2.619263000000000
C       0.514457000000000     -1.895126000000000     -2.771427000000000
C      -0.856335000000000     -1.696329000000000     -3.015396000000000
C      -1.230726000000000     -0.906871000000000     -4.242124000000000
O      -1.261740000000000     -1.763437000000000     -5.410446000000000
C      -2.357169000000000     -2.502460000000000     -5.592561000000000
C      -2.216033000000000     -3.404116000000000     -6.790289000000000
O      -3.338690000000000     -2.457021000000000     -4.882945000000000
H       1.241959000000000     -1.425712000000000     -3.428408000000000
H       0.873302000000000     -2.804451000000000     -2.298119000000000
H      -1.582840000000000     -2.444015000000000     -2.702079000000000
H      -0.455438000000000     -0.174412000000000     -4.478406000000000
H      -2.193945000000000     -0.398144000000000     -4.169856000000000
H      -1.426908000000000     -4.135881000000000     -6.597542000000000
H      -1.919968000000000     -2.820332000000000     -7.664604000000000
H      -3.160142000000000     -3.914591000000000     -6.972997000000000
