95

P      -2.039314000000000     -0.500682000000000      0.325682000000000
C      -1.791298000000000      1.283860000000000      0.678588000000000
C      -3.129609000000000     -0.999469000000000      1.724884000000000
C      -3.228986000000000     -0.449131000000000     -1.071175000000000
C      -0.770096000000000      1.657558000000000      1.562880000000000
C      -0.539417000000000      2.985739000000000      1.876808000000000
C      -1.319098000000000      3.996901000000000      1.297986000000000
C      -2.349252000000000      3.633259000000000      0.424601000000000
C      -2.581063000000000      2.294212000000000      0.124642000000000
C      -3.540728000000000     -2.335090000000000      1.799879000000000
C      -4.362577000000000     -2.771535000000000      2.833565000000000
C      -4.783824000000000     -1.872471000000000      3.812102000000000
C      -4.383902000000000     -0.541234000000000      3.745281000000000
C      -3.563501000000000     -0.103019000000000      2.706029000000000
C      -2.735854000000000     -0.331023000000000     -2.376073000000000
C      -3.586083000000000     -0.228944000000000     -3.466990000000000
C      -4.975750000000000     -0.254645000000000     -3.286739000000000
C      -5.478050000000000     -0.370483000000000     -1.984178000000000
C      -4.617799000000000     -0.461258000000000     -0.897641000000000
H      -0.134641000000000      0.890020000000000      1.998040000000000
H       0.267474000000000      3.252785000000000      2.554164000000000
N      -1.092420000000000      5.332290000000000      1.632920000000000
H      -2.972485000000000      4.404790000000000     -0.021677000000000
H      -3.386512000000000      2.040470000000000     -0.558739000000000
H      -3.218482000000000     -3.050954000000000      1.051541000000000
H      -4.649777000000000     -3.817036000000000      2.868215000000000
H      -5.419647000000000     -2.209626000000000      4.625324000000000
H      -4.709972000000000      0.165206000000000      4.502914000000000
H      -3.263984000000000      0.939353000000000      2.663641000000000
H      -1.662391000000000     -0.321244000000000     -2.546361000000000
H      -3.176388000000000     -0.137721000000000     -4.469528000000000
N      -5.836115000000000     -0.113024000000000     -4.372296000000000
H      -6.553403000000000     -0.386572000000000     -1.826319000000000
H      -5.036857000000000     -0.545069000000000      0.100860000000000
P       1.856164000000000     -0.492622000000000     -0.208233000000000
C       3.147076000000000     -0.652170000000000      1.084269000000000
C       1.716110000000000      1.323732000000000     -0.417155000000000
C       2.815004000000000     -0.961719000000000     -1.716521000000000
C       4.508231000000000     -0.482616000000000      0.797417000000000
C       5.468990000000000     -0.558934000000000      1.795193000000000
C       5.098131000000000     -0.809096000000000      3.124268000000000
C       3.739025000000000     -0.977732000000000      3.418282000000000
C       2.785251000000000     -0.904121000000000      2.412053000000000
C       0.704174000000000      1.802115000000000     -1.260788000000000
C       0.522787000000000      3.156370000000000     -1.475126000000000
C       1.342389000000000      4.090626000000000     -0.824135000000000
C       2.356212000000000      3.623374000000000      0.018046000000000
C       2.540588000000000      2.257068000000000      0.213049000000000
C       3.113014000000000     -2.318136000000000     -1.901849000000000
C       3.835212000000000     -2.741866000000000     -3.010962000000000
C       4.262663000000000     -1.814912000000000     -3.961291000000000
C       3.969907000000000     -0.466624000000000     -3.787773000000000
C       3.253976000000000     -0.038846000000000     -2.668907000000000
H       4.823939000000000     -0.287787000000000     -0.224273000000000
H       6.519353000000000     -0.424441000000000      1.549861000000000
N       6.054439000000000     -0.837723000000000      4.134319000000000
H       3.433406000000000     -1.175235000000000      4.442508000000000
H       1.737927000000000     -1.058486000000000      2.656593000000000
H       0.032000000000000      1.093225000000000     -1.739966000000000
H      -0.276845000000000      3.503870000000000     -2.123878000000000
N       1.169045000000000      5.454429000000000     -1.059225000000000
H       3.005554000000000      4.335269000000000      0.522312000000000
H       3.332363000000000      1.922143000000000      0.876856000000000
H       2.772245000000000     -3.041296000000000     -1.165131000000000
H       4.058765000000000     -3.796658000000000     -3.138261000000000
H       4.819456000000000     -2.144873000000000     -4.832864000000000
H       4.300277000000000      0.261554000000000     -4.522383000000000
H       3.040851000000000      1.017898000000000     -2.539685000000000
Rh     -0.088108000000000     -1.799131000000000      0.105951000000000
C      -0.194961000000000     -2.347947000000000     -1.761628000000000
O      -0.233532000000000     -2.659617000000000     -2.863222000000000
H      -0.020779000000000     -1.344803000000000      1.619018000000000
H      -0.139302000000000      5.536184000000000      1.905456000000000
H      -1.445329000000000      6.004550000000000      0.964560000000000
H      -5.446002000000000     -0.398018000000000     -5.261190000000000
H      -6.761432000000000     -0.497031000000000     -4.231490000000000
H       0.227511000000000      5.716862000000000     -1.321271000000000
H       1.545608000000000      6.062535000000000     -0.343972000000000
H       6.988871000000000     -1.077340000000000      3.830013000000000
H       5.784745000000000     -1.354527000000000      4.961025000000000
C       0.813177000000000     -3.626359000000000      0.878927000000000
C      -0.591802000000000     -3.752981000000000      0.927969000000000
C      -1.276665000000000     -4.679499000000000     -0.039203000000000
O      -1.371821000000000     -6.021575000000000      0.498567000000000
C      -2.397782000000000     -6.257481000000000      1.322685000000000
C      -2.345907000000000     -7.663254000000000      1.864800000000000
O      -3.250838000000000     -5.444655000000000      1.595171000000000
H       1.360143000000000     -4.189394000000000      0.124390000000000
H       1.384812000000000     -3.397855000000000      1.773109000000000
H      -1.113606000000000     -3.608541000000000      1.871893000000000
H      -0.678452000000000     -4.800325000000000     -0.945542000000000
H      -2.282351000000000     -4.350850000000000     -0.313549000000000
H      -1.454884000000000     -7.776732000000000      2.488092000000000
H      -2.267764000000000     -8.378454000000000      1.042877000000000
H      -3.239814000000000     -7.857414000000000      2.455521000000000
