95

P      -1.968163000000000     -0.852082000000000      0.148855000000000
C      -2.051159000000000      0.979456000000000      0.232477000000000
C      -3.092295000000000     -1.364069000000000      1.520087000000000
C      -3.031717000000000     -1.190845000000000     -1.320456000000000
C      -1.277351000000000      1.669067000000000     -0.700937000000000
C      -1.278061000000000      3.066758000000000     -0.715983000000000
C      -2.055044000000000      3.758830000000000      0.222112000000000
C      -2.831197000000000      3.070857000000000      1.155350000000000
C      -2.830850000000000      1.666339000000000      1.158648000000000
C      -4.480986000000000     -1.412710000000000      1.346608000000000
C      -5.316245000000000     -1.748242000000000      2.409065000000000
C      -4.777598000000000     -2.035335000000000      3.660841000000000
C      -3.398501000000000     -1.986343000000000      3.844874000000000
C      -2.562048000000000     -1.657437000000000      2.780899000000000
C      -3.782256000000000     -0.204816000000000     -1.967499000000000
C      -4.583632000000000     -0.535487000000000     -3.059589000000000
C      -4.650739000000000     -1.850444000000000     -3.509861000000000
C      -3.911319000000000     -2.840516000000000     -2.865378000000000
C      -3.104595000000000     -2.510763000000000     -1.781758000000000
H      -0.638037000000000      1.121796000000000     -1.391638000000000
N      -0.526883000000000      3.773791000000000     -1.655189000000000
H      -2.052938000000000      4.846467000000000      0.213195000000000
N      -3.654273000000000      3.766991000000000      2.042479000000000
H      -3.446732000000000      1.132732000000000      1.876389000000000
H      -4.914275000000000     -1.183680000000000      0.377563000000000
H      -6.390455000000000     -1.785046000000000      2.256208000000000
H      -5.429776000000000     -2.299606000000000      4.487606000000000
H      -2.969153000000000     -2.212212000000000      4.816217000000000
H      -1.486150000000000     -1.631365000000000      2.924888000000000
H      -3.743028000000000      0.823334000000000     -1.620768000000000
H      -5.156605000000000      0.240786000000000     -3.557357000000000
H      -5.274263000000000     -2.103719000000000     -4.361663000000000
H      -3.956131000000000     -3.868475000000000     -3.211458000000000
H      -2.520470000000000     -3.280673000000000     -1.283945000000000
P       2.146031000000000     -0.652033000000000      0.337280000000000
C       2.423738000000000      1.120138000000000     -0.118975000000000
C       3.461419000000000     -1.530891000000000     -0.605835000000000
C       2.894210000000000     -0.611642000000000      2.030350000000000
C       1.624763000000000      2.066453000000000      0.530430000000000
C       1.867184000000000      3.429226000000000      0.337034000000000
C       2.886180000000000      3.838239000000000     -0.530004000000000
C       3.680008000000000      2.897522000000000     -1.185630000000000
C       3.445217000000000      1.529039000000000     -0.972817000000000
C       4.436979000000000     -2.307322000000000      0.024470000000000
C       5.272687000000000     -3.136787000000000     -0.725250000000000
C       5.151798000000000     -3.193453000000000     -2.108793000000000
C       4.199359000000000     -2.401139000000000     -2.749609000000000
C       3.359090000000000     -1.583067000000000     -2.003958000000000
C       4.013835000000000      0.192841000000000      2.284532000000000
C       4.629414000000000      0.177111000000000      3.531084000000000
C       4.138208000000000     -0.644433000000000      4.545051000000000
C       3.029015000000000     -1.447150000000000      4.303249000000000
C       2.410184000000000     -1.429849000000000      3.053131000000000
H       0.825143000000000      1.745655000000000      1.195585000000000
N       1.056622000000000      4.407204000000000      0.937206000000000
H       3.057412000000000      4.900455000000000     -0.691564000000000
N       4.740677000000000      3.304572000000000     -1.993111000000000
H       4.096280000000000      0.803454000000000     -1.449934000000000
H       4.533732000000000     -2.289432000000000      1.105622000000000
H       6.010901000000000     -3.750505000000000     -0.218030000000000
H       5.778663000000000     -3.864346000000000     -2.686308000000000
H       4.091624000000000     -2.443699000000000     -3.828701000000000
H       2.599263000000000     -0.992220000000000     -2.511100000000000
H       4.406744000000000      0.833895000000000      1.499954000000000
H       5.494788000000000      0.807526000000000      3.711175000000000
H       4.619107000000000     -0.655870000000000      5.518378000000000
H       2.637831000000000     -2.089032000000000      5.086643000000000
H       1.540489000000000     -2.052129000000000      2.871261000000000
Rh      0.123538000000000     -1.876339000000000      0.091597000000000
C       0.135249000000000     -2.070454000000000     -1.859864000000000
O       0.099495000000000     -2.139683000000000     -3.001546000000000
H       0.036711000000000     -1.638684000000000      1.639327000000000
H       0.219151000000000      3.210148000000000     -2.050477000000000
H      -0.125827000000000      4.614309000000000     -1.249333000000000
H      -3.871930000000000      3.263879000000000      2.892771000000000
H      -3.363879000000000      4.716808000000000      2.233954000000000
H       0.423965000000000      4.026748000000000      1.632225000000000
H       1.581089000000000      5.188225000000000      1.314850000000000
H       5.022678000000000      2.626205000000000     -2.688668000000000
H       4.641670000000000      4.228854000000000     -2.392075000000000
C      -0.407561000000000     -3.929822000000000      0.640765000000000
C       0.991843000000000     -3.858281000000000      0.532543000000000
C       1.699837000000000     -4.482359000000000     -0.635478000000000
O       2.177803000000000     -5.780923000000000     -0.218644000000000
C       3.008128000000000     -6.392218000000000     -1.074774000000000
C       3.482606000000000     -7.711095000000000     -0.515616000000000
O       3.327267000000000     -5.938350000000000     -2.146954000000000
H      -0.966787000000000     -4.435161000000000     -0.144126000000000
H      -0.897877000000000     -3.914462000000000      1.609232000000000
H       1.598545000000000     -3.788371000000000      1.433470000000000
H       2.559247000000000     -3.906231000000000     -0.981213000000000
H       1.016744000000000     -4.619061000000000     -1.483136000000000
H       4.023972000000000     -7.540763000000000      0.418594000000000
H       4.131131000000000     -8.199598000000000     -1.241296000000000
H       2.623905000000000     -8.347080999999999     -0.287324000000000
