135

P      -2.096783000000000     -0.508729000000000     -1.225293000000000
C      -3.212931000000000     -1.363624000000000     -0.032033000000000
C      -3.138063000000000     -0.480371000000000     -2.749343000000000
C      -2.200624000000000      1.253801000000000     -0.705902000000000
C      -4.220294000000000     -0.719562000000000      0.687694000000000
C      -5.024596000000000     -1.422495000000000      1.584199000000000
C      -4.863187000000000     -2.794716000000000      1.784806000000000
C      -3.867048000000000     -3.439780000000000      1.037533000000000
C      -3.058586000000000     -2.743251000000000      0.149617000000000
C      -2.610825000000000     -0.955074000000000     -3.950382000000000
C      -3.374660000000000     -0.929071000000000     -5.118130000000000
C      -4.670878000000000     -0.428072000000000     -5.090053000000000
C      -5.206307000000000      0.048989000000000     -3.892533000000000
C      -4.444945000000000      0.023296000000000     -2.730765000000000
C      -2.178983000000000      2.279231000000000     -1.660842000000000
C      -2.082230000000000      3.610392000000000     -1.270709000000000
C      -2.011217000000000      3.978427000000000      0.080955000000000
C      -2.026126000000000      2.949153000000000      1.023477000000000
C      -2.115932000000000      1.612438000000000      0.641125000000000
H      -4.375040000000000      0.349289000000000      0.574774000000000
H      -5.784240000000000     -0.874626000000000      2.130884000000000
C      -5.716023000000000     -3.599516000000000      2.767253000000000
H      -3.710847000000000     -4.509027000000000      1.153983000000000
H      -2.281460000000000     -3.268687000000000     -0.399156000000000
H      -1.600171000000000     -1.351004000000000     -3.961455000000000
H      -2.952893000000000     -1.301947000000000     -6.046320000000000
H      -5.267119000000000     -0.407456000000000     -5.997091000000000
H      -6.218206000000000      0.441502000000000     -3.866959000000000
H      -4.866206000000000      0.399936000000000     -1.802345000000000
H      -2.238181000000000      2.036975000000000     -2.719387000000000
H      -2.070562000000000      4.377414000000000     -2.041069000000000
C      -1.927566000000000      5.455223000000000      0.471976000000000
H      -1.967639000000000      3.169097000000000      2.083895000000000
H      -2.132303000000000      0.848895000000000      1.413332000000000
P       1.216948000000000     -0.381339000000000      0.431418000000000
C       1.930158000000000      1.302459000000000      0.252735000000000
C       2.678822000000000     -1.366903000000000      0.928752000000000
C       0.229010000000000     -0.249089000000000      1.981365000000000
C       3.097722000000000      1.706705000000000      0.913445000000000
C       3.615267000000000      2.979745000000000      0.715154000000000
C       3.004413000000000      3.896238000000000     -0.154006000000000
C       1.824399000000000      3.494348000000000     -0.783901000000000
C       1.291796000000000      2.222010000000000     -0.578796000000000
C       3.780919000000000     -1.398059000000000      0.063102000000000
C       4.839603000000000     -2.262351000000000      0.299038000000000
C       4.833930000000000     -3.151380000000000      1.386050000000000
C       3.733222000000000     -3.107802000000000      2.241805000000000
C       2.675520000000000     -2.222571000000000      2.026925000000000
C      -0.704393000000000     -1.253880000000000      2.264819000000000
C      -1.574465000000000     -1.136134000000000      3.344960000000000
C      -1.517982000000000     -0.008897000000000      4.162493000000000
C      -0.573766000000000      0.983575000000000      3.905920000000000
C       0.295482000000000      0.866042000000000      2.822994000000000
H       3.611678000000000      1.015833000000000      1.576308000000000
H       4.525014000000000      3.258477000000000      1.240119000000000
C       3.638765000000000      5.271867000000000     -0.371001000000000
H       1.302854000000000      4.164315000000000     -1.459416000000000
H       0.370227000000000      1.946435000000000     -1.084138000000000
H       3.800655000000000     -0.747172000000000     -0.809199000000000
H       5.683263000000000     -2.250739000000000     -0.385664000000000
C       6.025866000000000     -4.081677000000000      1.620125000000000
H       3.674184000000000     -3.780774000000000      3.089200000000000
H       1.834245000000000     -2.225219000000000      2.714075000000000
H      -0.777637000000000     -2.116625000000000      1.610548000000000
H      -2.312469000000000     -1.913934000000000      3.521439000000000
H      -2.207192000000000      0.097219000000000      4.994669000000000
H      -0.520534000000000      1.861549000000000      4.543162000000000
H       1.002864000000000      1.663111000000000      2.615249000000000
Rh      0.124858000000000     -1.343796000000000     -1.419567000000000
C       0.742446000000000     -0.104666000000000     -2.805623000000000
O       1.112348000000000      0.582129000000000     -3.642677000000000
H      -0.314749000000000     -2.402676000000000     -0.347116000000000
C      -6.753386000000000     -2.727285000000000      3.481169000000000
H      -6.277713000000000     -1.930562000000000      4.062975000000000
H      -7.450872000000000     -2.268803000000000      2.772265000000000
H      -7.336332000000000     -3.343797000000000      4.172837000000000
C      -6.458642000000000     -4.709309000000000      2.003820000000000
H      -7.078252000000000     -5.291952000000000      2.694564000000000
H      -7.109139000000000     -4.281550000000000      1.234207000000000
H      -5.763495000000000     -5.397502000000000      1.513791000000000
C      -4.803889000000000     -4.234186000000000      3.830696000000000
H      -5.398021000000000     -4.833263000000000      4.529772000000000
H      -4.052060000000000     -4.889201000000000      3.380302000000000
H      -4.280525000000000     -3.461354000000000      4.404253000000000
C      -0.625561000000000      6.050299000000000     -0.086128000000000
H      -0.581489000000000      5.966206000000000     -1.177851000000000
H      -0.545911000000000      7.112233000000000      0.174856000000000
H       0.240364000000000      5.522476000000000      0.328626000000000
C      -3.131823000000000      6.211381000000000     -0.112986000000000
H      -3.155753000000000      6.151889000000000     -1.205150000000000
H      -4.071306000000000      5.798439000000000      0.268548000000000
H      -3.082949000000000      7.270259000000000      0.164432000000000
C      -1.927520000000000      5.649934000000000      1.991679000000000
H      -2.837990000000000      5.248545000000000      2.449026000000000
H      -1.062982000000000      5.166407000000000      2.458817000000000
H      -1.877966000000000      6.718755000000000      2.223359000000000
C       7.237196000000000     -3.225973000000000      2.028586000000000
H       7.023594000000000     -2.662843000000000      2.943143000000000
H       8.108967000000000     -3.864465000000000      2.212047000000000
H       7.499821000000000     -2.508733000000000      1.243746000000000
C       5.740277000000000     -5.106972000000000      2.722300000000000
H       5.583504000000000     -4.627259000000000      3.694159000000000
H       4.856851000000000     -5.704600000000000      2.474085000000000
H       6.596502000000000     -5.782239000000000      2.823007000000000
C       6.361163000000000     -4.860300000000000      0.337954000000000
H       5.522242000000000     -5.506010000000000      0.065725000000000
H       6.583366000000000     -4.198735000000000     -0.504703000000000
H       7.241792000000000     -5.490290000000000      0.506682000000000
C       2.917218000000000      6.078505000000000     -1.455725000000000
H       2.916604000000000      5.548549000000000     -2.414165000000000
H       1.880567000000000      6.296614000000000     -1.180447000000000
H       3.429724000000000      7.035194000000000     -1.599851000000000
C       3.584656000000000      6.061817000000000      0.947541000000000
H       4.048563000000000      7.046339000000000      0.819466000000000
H       2.548115000000000      6.210263000000000      1.269230000000000
H       4.115608000000000      5.538282000000000      1.748933000000000
C       5.104926000000000      5.100828000000000     -0.804142000000000
H       5.698764000000000      4.585526000000000     -0.043811000000000
H       5.169834000000000      4.524263000000000     -1.732542000000000
H       5.561206000000000      6.082053000000000     -0.975536000000000
C       0.155631000000000     -3.026377000000000     -2.789176000000000
C       1.377144000000000     -2.978125000000000     -2.074245000000000
C       1.683090000000000     -3.994657000000000     -1.013205000000000
O       2.406277000000000     -5.078966000000000     -1.645861000000000
C       3.046513000000000     -5.916127000000000     -0.825378000000000
C       3.807476000000000     -6.960519000000000     -1.605287000000000
O       3.028121000000000     -5.834047000000000      0.381815000000000
H      -0.584131000000000     -3.780691000000000     -2.529659000000000
H       0.131249000000000     -2.716953000000000     -3.830744000000000
H       2.266180000000000     -2.604139000000000     -2.581403000000000
H       0.763112000000000     -4.402379000000000     -0.579361000000000
H       2.303825000000000     -3.605463000000000     -0.205902000000000
H       4.605384000000000     -6.475588000000000     -2.175095000000000
H       3.144075000000000     -7.454497000000000     -2.318811000000000
H       4.234909000000000     -7.687903000000000     -0.916055000000000
