87

P      -1.868859000000000      0.069355000000000      0.804936000000000
C      -2.363390000000000     -1.225401000000000     -0.409969000000000
C      -1.735984000000000      1.568296000000000     -0.249814000000000
C      -3.494235000000000      0.309496000000000      1.644657000000000
C      -1.709378000000000     -2.455108000000000     -0.408139000000000
C      -2.081990000000000     -3.468583000000000     -1.291036000000000
C      -3.114878000000000     -3.234721000000000     -2.187025000000000
C      -3.791350000000000     -2.015025000000000     -2.205755000000000
C      -3.417520000000000     -1.021565000000000     -1.311773000000000
C      -1.429971000000000      1.498352000000000     -1.610333000000000
C      -1.143305000000000      2.652212000000000     -2.339535000000000
C      -1.180290000000000      3.884640000000000     -1.701951000000000
C      -1.504660000000000      3.985398000000000     -0.350365000000000
C      -1.769869000000000      2.826678000000000      0.368076000000000
C      -3.800330000000000     -0.562555000000000      2.695626000000000
C      -5.027141000000000     -0.501934000000000      3.345698000000000
C      -5.956602000000000      0.453321000000000      2.945695000000000
C      -5.679605000000000      1.331277000000000      1.905186000000000
C      -4.450701000000000      1.250614000000000      1.254321000000000
H      -0.891213000000000     -2.627743000000000      0.283681000000000
H      -1.566090000000000     -4.422725000000000     -1.291519000000000
Br     -3.621967000000000     -4.591258000000000     -3.400260000000000
H      -4.601994000000000     -1.855863000000000     -2.907740000000000
H      -3.950965000000000     -0.074066000000000     -1.319500000000000
H      -1.396887000000000      0.536107000000000     -2.112902000000000
H      -0.886478000000000      2.592258000000000     -3.391276000000000
Br     -0.737007000000000      5.447722000000000     -2.667421000000000
H      -1.520166000000000      4.953861000000000      0.136880000000000
H      -1.975552000000000      2.902682000000000      1.433616000000000
H      -3.065416000000000     -1.299783000000000      3.009426000000000
H      -5.260376000000000     -1.181467000000000      4.157522000000000
Br     -7.622692000000000      0.557871000000000      3.833097000000000
H      -6.416966000000000      2.067015000000000      1.604675000000000
H      -4.246365000000000      1.935705000000000      0.436901000000000
P       1.888857000000000     -0.204367000000000      0.870864000000000
C       3.443613000000000     -0.877631000000000      1.601623000000000
C       2.484232000000000      1.309650000000000      0.005086000000000
C       1.630400000000000     -1.342156000000000     -0.556259000000000
C       3.689693000000000     -0.619646000000000      2.953931000000000
C       4.862907000000000     -1.055589000000000      3.564642000000000
C       5.790355000000000     -1.771231000000000      2.817333000000000
C       5.566520000000000     -2.051781000000000      1.472994000000000
C       4.395762000000000     -1.601705000000000      0.871967000000000
C       3.724588000000000      1.348107000000000     -0.647961000000000
C       4.136759000000000      2.486917000000000     -1.326630000000000
C       3.298312000000000      3.601118000000000     -1.356567000000000
C       2.067952000000000      3.590404000000000     -0.716206000000000
C       1.667076000000000      2.438582000000000     -0.039449000000000
C       1.706179000000000     -2.729297000000000     -0.375721000000000
C       1.350011000000000     -3.603892000000000     -1.396296000000000
C       0.888423000000000     -3.086416000000000     -2.603508000000000
C       0.814508000000000     -1.714928000000000     -2.812142000000000
C       1.195159000000000     -0.849083000000000     -1.789425000000000
H       2.960748000000000     -0.056601000000000      3.527877000000000
H       5.051650000000000     -0.847034000000000      4.611618000000000
Br      7.379654000000000     -2.380748000000000      3.639634000000000
H       6.298763000000000     -2.616015000000000      0.906691000000000
H       4.224543000000000     -1.832117000000000     -0.175829000000000
H       4.386475000000000      0.488128000000000     -0.623017000000000
H       5.097627000000000      2.517240000000000     -1.827553000000000
Br      3.855080000000000      5.154957000000000     -2.277823000000000
H       1.433969000000000      4.470040000000000     -0.730629000000000
H       0.718563000000000      2.438601000000000      0.484174000000000
H       2.044919000000000     -3.138209000000000      0.573776000000000
H       1.411062000000000     -4.677300000000000     -1.252782000000000
Br      0.302588000000000     -4.267991000000000     -3.955201000000000
H       0.459780000000000     -1.329338000000000     -3.761811000000000
H       1.141359000000000      0.223940000000000     -1.955313000000000
Rh     -0.024361000000000     -0.135766000000000      2.282136000000000
C       0.074406000000000     -2.065547000000000      2.657766000000000
O       0.163478000000000     -3.175564000000000      2.919299000000000
H      -0.042735000000000      1.417693000000000      2.087864000000000
C      -0.962588000000000      0.261923000000000      4.184161000000000
C       0.427449000000000      0.467401000000000      4.333150000000000
C       0.924916000000000      1.874790000000000      4.531482000000000
O       2.209684000000000      2.085997000000000      3.927413000000000
C       2.324370000000000      3.074416000000000      3.018463000000000
C       3.741801000000000      3.165700000000000      2.514594000000000
O       1.419711000000000      3.801302000000000      2.686861000000000
H      -1.628232000000000      1.120305000000000      4.117443000000000
H      -1.425764000000000     -0.630234000000000      4.596466000000000
H       1.008532000000000     -0.300626000000000      4.843178000000000
H       1.067963000000000      2.079606000000000      5.599167000000000
H       0.214928000000000      2.594226000000000      4.120577000000000
H       4.153105000000000      2.168659000000000      2.338882000000000
H       4.355653000000000      3.654578000000000      3.277621000000000
H       3.764047000000000      3.755662000000000      1.598034000000000
