105

P      -2.052480000000000      0.413203000000000     -0.092832000000000
C      -3.268052000000000      0.912995000000000     -1.379293000000000
C      -3.098430000000000      0.372097000000000      1.421872000000000
C      -1.866145000000000     -1.379436000000000     -0.465102000000000
C      -3.875958000000000      0.006519000000000     -2.251334000000000
C      -4.800129000000000      0.450263000000000     -3.196204000000000
C      -5.145221000000000      1.797982000000000     -3.293867000000000
C      -4.543496000000000      2.700468000000000     -2.410691000000000
C      -3.618437000000000      2.265239000000000     -1.471167000000000
C      -2.474268000000000      0.181928000000000      2.660383000000000
C      -3.219473000000000      0.094231000000000      3.829511000000000
C      -4.612452000000000      0.209063000000000      3.802556000000000
C      -5.232839000000000      0.398685000000000      2.567219000000000
C      -4.491728000000000      0.475846000000000      1.390073000000000
C      -0.960806000000000     -1.753455000000000     -1.466889000000000
C      -0.794626000000000     -3.086188000000000     -1.811002000000000
C      -1.517994000000000     -4.092657000000000     -1.161783000000000
C      -2.416461000000000     -3.719309000000000     -0.163756000000000
C      -2.596169000000000     -2.378626000000000      0.179904000000000
H      -3.635349000000000     -1.050664000000000     -2.198534000000000
H      -5.261153000000000     -0.269127000000000     -3.868701000000000
C      -6.122245000000000      2.280889000000000     -4.334740000000000
H      -4.780802000000000      3.759715000000000     -2.457031000000000
H      -3.170386000000000      2.995645000000000     -0.806944000000000
H      -1.391491000000000      0.099943000000000      2.711002000000000
H      -2.712513000000000     -0.056501000000000      4.779409000000000
C      -5.414338000000000      0.158512000000000      5.077316000000000
H      -6.315617000000000      0.485367000000000      2.522383000000000
H      -5.003887000000000      0.613620000000000      0.442523000000000
H      -0.370579000000000     -0.988427000000000     -1.965395000000000
H      -0.075048000000000     -3.356652000000000     -2.580093000000000
C      -1.316443000000000     -5.533928000000000     -1.550738000000000
H      -2.987893000000000     -4.485451000000000      0.355117000000000
H      -3.309139000000000     -2.117983000000000      0.956835000000000
P       1.867977000000000      0.325314000000000      0.100206000000000
C       3.055800000000000      0.479764000000000     -1.297254000000000
C       1.718737000000000     -1.498130000000000      0.280122000000000
C       2.951185000000000      0.731301000000000      1.536923000000000
C       2.576371000000000      0.700794000000000     -2.591767000000000
C       3.451131000000000      0.759789000000000     -3.672828000000000
C       4.827833000000000      0.613383000000000     -3.493952000000000
C       5.304424000000000      0.395179000000000     -2.198562000000000
C       4.435578000000000      0.328623000000000     -1.114598000000000
C       2.448194000000000     -2.425611000000000     -0.462405000000000
C       2.267102000000000     -3.794774000000000     -0.254619000000000
C       1.369995000000000     -4.266538000000000      0.701253000000000
C       0.640630000000000     -3.330407000000000      1.444660000000000
C       0.806385000000000     -1.971560000000000      1.232320000000000
C       3.235794000000000      2.081580000000000      1.780718000000000
C       4.060077000000000      2.456360000000000      2.832369000000000
C       4.617961000000000      1.498406000000000      3.686181000000000
C       4.334720000000000      0.156013000000000      3.440392000000000
C       3.516373000000000     -0.228698000000000      2.378530000000000
H       1.510000000000000      0.836523000000000     -2.749374000000000
H       3.057070000000000      0.930937000000000     -4.671539000000000
C       5.777527000000000      0.720080000000000     -4.658965000000000
H       6.372874000000000      0.275312000000000     -2.036484000000000
H       4.833815000000000      0.151458000000000     -0.119267000000000
H       3.158787000000000     -2.088345000000000     -1.211291000000000
H       2.838468000000000     -4.505178000000000     -0.847476000000000
C       1.177511000000000     -5.739727000000000      0.950680000000000
H      -0.082294000000000     -3.676335000000000      2.179485000000000
H       0.208634000000000     -1.259432000000000      1.797346000000000
H       2.804856000000000      2.841028000000000      1.133263000000000
H       4.270187000000000      3.509784000000000      3.001076000000000
C       5.480512000000000      1.916809000000000      4.848660000000000
H       4.762256000000000     -0.606263000000000      4.086966000000000
H       3.324934000000000     -1.283846000000000      2.208356000000000
Rh     -0.067611000000000      1.668947000000000     -0.046315000000000
C      -0.032545000000000      2.217378000000000      1.827791000000000
O       0.000523000000000      2.525540000000000      2.929871000000000
H      -0.133647000000000      1.218984000000000     -1.559018000000000
H      -6.685946000000000      1.450351000000000     -4.767958000000000
H      -5.600606000000000      2.792689000000000     -5.151020000000000
H      -6.834339000000000      2.993066000000000     -3.907228000000000
H      -0.249200000000000     -5.778463000000000     -1.588460000000000
H      -1.732505000000000     -5.734242000000000     -2.544255000000000
H      -1.799250000000000     -6.213018000000000     -0.842538000000000
H      -5.427421000000000      1.138250000000000      5.567735000000000
H      -4.987680000000000     -0.556906000000000      5.786169000000000
H      -6.451247000000000     -0.127950000000000      4.882857000000000
H       6.658949000000000      0.089916000000000     -4.511319000000000
H       6.127044000000000      1.751238000000000     -4.782482000000000
H       5.294489000000000      0.421700000000000     -5.593290000000000
H       1.617167000000000     -6.035397000000000      1.909700000000000
H       1.644648000000000     -6.344143000000000      0.168284000000000
H       0.112134000000000     -5.990958000000000      0.988754000000000
H       4.869436000000000      2.331701000000000      5.657796000000000
H       6.197135000000000      2.688619000000000      4.552172000000000
H       6.039138000000000      1.069274000000000      5.254012000000000
C       0.828690000000000      3.473157000000000     -0.885257000000000
C      -0.570760000000000      3.639812000000000     -0.837427000000000
C      -1.165017000000000      4.584227000000000      0.171535000000000
O      -1.266398000000000      5.926461000000000     -0.362682000000000
C      -2.329522000000000      6.174799000000000     -1.135108000000000
C      -2.291092000000000      7.581130000000000     -1.675989000000000
O      -3.202086000000000      5.369865000000000     -1.366273000000000
H       1.443909000000000      4.018943000000000     -0.171797000000000
H       1.329696000000000      3.224505000000000     -1.815747000000000
H      -1.158536000000000      3.507024000000000     -1.743162000000000
H      -0.503265000000000      4.692247000000000      1.034322000000000
H      -2.156766000000000      4.279176000000000      0.515581000000000
H      -1.424977000000000      7.691612000000000     -2.333893000000000
H      -2.176431000000000      8.293642000000000     -0.855974000000000
H      -3.206993000000000      7.781880000000000     -2.229588000000000
