111

P      -3.506823000000000     -0.753681000000000      0.261629000000000
C      -4.092582000000000     -1.526494000000000      1.826162000000000
C      -4.310235000000000     -1.827691000000000     -0.995387000000000
C      -4.537690000000000      0.771813000000000      0.193949000000000
C      -3.402313000000000     -1.228184000000000      2.999055000000000
C      -3.780565000000000     -1.768623000000000      4.233876000000000
C      -4.879846000000000     -2.633322000000000      4.265529000000000
C      -5.589403000000000     -2.927891000000000      3.104477000000000
C      -5.202068000000000     -2.380490000000000      1.884300000000000
C      -3.701903000000000     -3.057274000000000     -1.255830000000000
C      -4.215471000000000     -3.934297000000000     -2.212351000000000
C      -5.352283000000000     -3.545612000000000     -2.930139000000000
C      -5.972853000000000     -2.330561000000000     -2.672484000000000
C      -5.461502000000000     -1.468969000000000     -1.702783000000000
C      -4.339305000000000      1.641588000000000     -0.883980000000000
C      -5.060935000000000      2.829171000000000     -1.016590000000000
C      -5.989057000000000      3.157283000000000     -0.017431000000000
C      -6.200320000000000      2.301467000000000      1.053084000000000
C      -5.486221000000000      1.105845000000000      1.161647000000000
H      -2.519185000000000     -0.599339000000000      2.945859000000000
C      -3.026428000000000     -1.480574000000000      5.466488000000000
H      -5.175134000000000     -3.082017000000000      5.210436000000000
H      -6.441995000000000     -3.598637000000000      3.147480000000000
H      -5.750099000000000     -2.623603000000000      0.978828000000000
H      -2.784295000000000     -3.313149000000000     -0.731235000000000
C      -3.560751000000000     -5.219738000000000     -2.513123000000000
H      -5.742524000000000     -4.202592000000000     -3.702668000000000
H      -6.857123000000000     -2.043837000000000     -3.233276000000000
H      -5.952537000000000     -0.520311000000000     -1.508844000000000
H      -3.611796000000000      1.381934000000000     -1.651681000000000
C      -4.808908000000000      3.691578000000000     -2.185058000000000
H      -6.531636000000000      4.095977000000000     -0.073068000000000
H      -6.922625000000000      2.564728000000000      1.820102000000000
H      -5.666748000000000      0.444901000000000      2.004050000000000
P       0.179509000000000     -0.227507000000000      1.742767000000000
C       1.953941000000000     -0.209779000000000      1.259069000000000
C       0.151736000000000     -1.449199000000000      3.124701000000000
C       0.024604000000000      1.361928000000000      2.670289000000000
C       2.366670000000000      0.811227000000000      0.399288000000000
C       3.667682000000000      0.860027000000000     -0.105294000000000
C       4.568164000000000     -0.141466000000000      0.283758000000000
C       4.168327000000000     -1.164883000000000      1.132836000000000
C       2.862738000000000     -1.206411000000000      1.622381000000000
C      -0.597658000000000     -2.613186000000000      2.990034000000000
C      -0.659548000000000     -3.565190000000000      4.017682000000000
C       0.102861000000000     -3.351543000000000      5.168308000000000
C       0.867697000000000     -2.196130000000000      5.311627000000000
C       0.880364000000000     -1.237860000000000      4.305318000000000
C      -1.256606000000000      1.897022000000000      2.815162000000000
C      -1.488370000000000      3.044348000000000      3.583031000000000
C      -0.388745000000000      3.701551000000000      4.144432000000000
C       0.898534000000000      3.201741000000000      3.974356000000000
C       1.108943000000000      2.029814000000000      3.252514000000000
H       1.655891000000000      1.587496000000000      0.121874000000000
C       4.111972000000000      1.912412000000000     -1.037986000000000
H       5.585449000000000     -0.117646000000000     -0.098152000000000
H       4.874290000000000     -1.938550000000000      1.418409000000000
H       2.557904000000000     -2.010011000000000      2.285490000000000
H      -1.147912000000000     -2.779871000000000      2.069209000000000
C      -1.517582000000000     -4.758345000000000      3.909371000000000
H       0.080304000000000     -4.089427000000000      5.966468000000000
H       1.445977000000000     -2.037305000000000      6.216680000000000
H       1.467527000000000     -0.332134000000000      4.428978000000000
H      -2.092521000000000      1.430688000000000      2.296812000000000
C      -2.854863000000000      3.550279000000000      3.806520000000000
H      -0.547822000000000      4.608853000000000      4.721212000000000
H       1.743993000000000      3.725632000000000      4.409441000000000
H       2.117452000000000      1.647279000000000      3.122034000000000
Rh     -1.211349000000000     -0.463967000000000     -0.124974000000000
C      -1.200533000000000      1.448036000000000     -0.510107000000000
O      -1.118904000000000      2.570353000000000     -0.724246000000000
H      -1.137709000000000     -2.009563000000000      0.193682000000000
C      -2.190193000000000     -0.456215000000000      5.644464000000000
H      -3.191788000000000     -2.178675000000000      6.286088000000000
H      -2.000746000000000      0.289794000000000      4.875965000000000
H      -1.660217000000000     -0.327034000000000      6.582092000000000
C      -5.598269000000000      4.674208000000000     -2.619546000000000
H      -3.892268000000000      3.470908000000000     -2.730617000000000
H      -6.538266000000000      4.921609000000000     -2.134810000000000
H      -5.330943000000000      5.261453000000000     -3.491042000000000
C      -2.757508000000000     -5.893263000000000     -1.688489000000000
H      -3.778720000000000     -5.632143000000000     -3.496938000000000
H      -2.532790000000000     -5.542163000000000     -0.684676000000000
H      -2.303163000000000     -6.830556000000000     -1.990619000000000
C       3.325751000000000      2.764271000000000     -1.697453000000000
H       5.188118000000000      1.961391000000000     -1.198409000000000
H       2.243252000000000      2.754693000000000     -1.602769000000000
H       3.746720000000000      3.504707000000000     -2.368609000000000
C      -2.567505000000000     -4.877192000000000      3.094248000000000
H      -1.271967000000000     -5.577657000000000      4.583823000000000
H      -2.884911000000000     -4.072315000000000      2.434296000000000
H      -3.161781000000000     -5.784771000000000      3.076259000000000
C      -3.953463000000000      2.794178000000000      3.784836000000000
H      -2.939976000000000      4.611788000000000      4.033218000000000
H      -3.913213000000000      1.721139000000000      3.609342000000000
H      -4.935130000000000      3.222678000000000      3.956904000000000
C       0.268762000000000     -0.884319000000000     -1.681959000000000
C      -1.006824000000000     -1.202849000000000     -2.177773000000000
C      -1.706170000000000     -0.348005000000000     -3.194747000000000
O      -1.317668000000000     -0.700147000000000     -4.542677000000000
C      -1.889422000000000     -1.803562000000000     -5.049038000000000
C      -1.367967000000000     -2.090455000000000     -6.434716000000000
O      -2.706822000000000     -2.471604000000000     -4.463579000000000
H       0.766624000000000      0.028865000000000     -2.006292000000000
H       0.937639000000000     -1.665258000000000     -1.333292000000000
H      -1.318231000000000     -2.244465000000000     -2.197659000000000
H      -1.414708000000000      0.701878000000000     -3.100497000000000
H      -2.793897000000000     -0.447440000000000     -3.116279000000000
H      -0.299530000000000     -2.315508000000000     -6.379740000000000
H      -1.488247000000000     -1.210121000000000     -7.070240000000000
H      -1.905601000000000     -2.939301000000000     -6.854497000000000
