111

P      -3.985765000000000     -0.605453000000000      0.548405000000000
C      -3.034105000000000     -1.634027000000000     -0.641171000000000
C      -4.854994000000000      0.586718000000000     -0.546630000000000
C      -5.343486000000000     -1.760027000000000      1.012967000000000
C      -2.977634000000000     -1.397429000000000     -2.014585000000000
C      -2.201446000000000     -2.214029000000000     -2.836222000000000
C      -1.473616000000000     -3.287966000000000     -2.316741000000000
C      -1.556014000000000     -3.535872000000000     -0.938332000000000
C      -2.310870000000000     -2.716181000000000     -0.118807000000000
C      -4.123457000000000      1.661584000000000     -1.075211000000000
C      -4.725547000000000      2.595519000000000     -1.901850000000000
C      -6.088668000000000      2.502368000000000     -2.215386000000000
C      -6.817038000000000      1.443206000000000     -1.670830000000000
C      -6.212328000000000      0.489311000000000     -0.856895000000000
C      -6.133606000000000     -1.456453000000000      2.125752000000000
C      -7.200221000000000     -2.272292000000000      2.484411000000000
C      -7.502686000000000     -3.427404000000000      1.754658000000000
C      -6.719852000000000     -3.719511000000000      0.630075000000000
C      -5.660385000000000     -2.900375000000000      0.263205000000000
H      -3.539664000000000     -0.577535000000000     -2.451177000000000
H      -2.159384000000000     -2.012347000000000     -3.903773000000000
C      -0.650659000000000     -4.110867000000000     -3.217241000000000
H      -1.018052000000000     -4.371318000000000     -0.501479000000000
H      -2.336312000000000     -2.913633000000000      0.950480000000000
H      -3.071541000000000      1.766709000000000     -0.819861000000000
H      -4.139167000000000      3.428034000000000     -2.278376000000000
C      -6.773822000000000      3.478803000000000     -3.078515000000000
H      -7.878055000000000      1.360300000000000     -1.891855000000000
H      -6.807758000000000     -0.328389000000000     -0.462577000000000
H      -5.918785000000000     -0.567442000000000      2.712309000000000
H      -7.801823000000000     -2.018440000000000      3.353317000000000
C      -8.622780000000001     -4.280242000000000      2.188800000000000
H      -6.952463000000000     -4.588054000000000      0.021351000000000
H      -5.079048000000000     -3.145312000000000     -0.620538000000000
P      -0.682716000000000     -0.538111000000000      2.548321000000000
C      -0.570561000000000     -1.980367000000000      3.689600000000000
C       0.567394000000000      0.594289000000000      3.283231000000000
C       0.205047000000000     -1.157620000000000      1.056772000000000
C      -1.639402000000000     -2.884913000000000      3.741148000000000
C      -1.587750000000000     -4.009612000000000      4.552396000000000
C      -0.464178000000000     -4.267338000000000      5.348642000000000
C       0.592524000000000     -3.350343000000000      5.311984000000000
C       0.546304000000000     -2.225836000000000      4.494637000000000
C       0.224434000000000      1.259119000000000      4.466202000000000
C       1.126303000000000      2.115560000000000      5.081964000000000
C       2.394755000000000      2.348138000000000      4.532888000000000
C       2.724605000000000      1.695578000000000      3.339970000000000
C       1.829784000000000      0.824402000000000      2.727451000000000
C       0.064006000000000     -0.461032000000000     -0.151684000000000
C       0.740982000000000     -0.864603000000000     -1.292087000000000
C       1.588773000000000     -1.980588000000000     -1.269248000000000
C       1.702669000000000     -2.692102000000000     -0.070750000000000
C       1.028848000000000     -2.286110000000000      1.078930000000000
H      -2.533548000000000     -2.692380000000000      3.152522000000000
H      -2.441940000000000     -4.678789000000000      4.584116000000000
C      -0.358681000000000     -5.449382000000000      6.221728000000000
H       1.467279000000000     -3.524965000000000      5.933281000000000
H       1.385183000000000     -1.535330000000000      4.483605000000000
H      -0.760638000000000      1.103109000000000      4.900251000000000
H       0.846289000000000      2.619561000000000      6.003510000000000
C       3.317500000000000      3.265242000000000      5.224568000000000
H       3.689283000000000      1.873749000000000      2.874594000000000
H       2.118001000000000      0.325466000000000      1.807083000000000
H      -0.602502000000000      0.394559000000000     -0.198927000000000
H       0.587532000000000     -0.321787000000000     -2.219810000000000
C       2.356198000000000     -2.413185000000000     -2.449836000000000
H       2.343931000000000     -3.569811000000000     -0.033660000000000
H       1.149366000000000     -2.857637000000000      1.994258000000000
Rh     -2.782858000000000      0.439950000000000      2.269077000000000
C      -3.594445000000000     -0.320827000000000      3.867058000000000
O      -4.017842000000000     -0.737732000000000      4.846430000000000
H      -2.038279000000000      1.116283000000000      1.051103000000000
C       0.252057000000000     -5.020583000000000     -2.845757000000000
H      -0.799029000000000     -3.924205000000000     -4.279862000000000
H       0.471191000000000     -5.230083000000000     -1.802302000000000
H       0.817972000000000     -5.578805000000000     -3.583746000000000
C      -6.191478000000000      4.385151000000000     -3.864688000000000
H      -7.861188000000000      3.421492000000000     -3.062869000000000
H      -5.112546000000000      4.479651000000000     -3.943950000000000
H      -6.783947000000000      5.065444000000000     -4.466531000000000
C      -8.873423000000001     -5.523069000000000      1.775068000000000
H      -9.282117000000000     -3.832092000000000      2.930653000000000
H      -8.238363000000000     -6.037563000000000      1.059995000000000
H      -9.726799000000000     -6.075452000000000      2.152598000000000
C      -1.169105000000000     -6.508498000000000      6.220579000000000
H       0.480613000000000     -5.434246000000000      6.915465000000000
H      -2.011257000000000     -6.598418000000000      5.541015000000000
H      -1.007814000000000     -7.334018000000000      6.904959000000000
C       4.613402000000000      3.436160000000000      4.959594000000000
H       2.871615000000000      3.837165000000000      6.037092000000000
H       5.127470000000000      2.883099000000000      4.179152000000000
H       5.210565000000000      4.139457000000000      5.529373000000000
C       2.591667000000000     -1.682981000000000     -3.540752000000000
H       2.773413000000000     -3.417183000000000     -2.388565000000000
H       2.225578000000000     -0.666421000000000     -3.649281000000000
H       3.173942000000000     -2.081260000000000     -4.364380000000000
C      -2.677170000000000      2.433198000000000      3.167291000000000
C      -3.796743000000000      2.365286000000000      2.316338000000000
C      -5.200010000000000      2.298576000000000      2.846791000000000
O      -5.761428000000000      3.618698000000000      3.020509000000000
C      -6.225596000000000      4.200721000000000      1.902039000000000
C      -6.747008000000000      5.585336000000000      2.192955000000000
O      -6.218228000000000      3.676173000000000      0.815233000000000
H      -2.825136000000000      2.403174000000000      4.245725000000000
H      -1.762907000000000      2.922125000000000      2.845569000000000
H      -3.732883000000000      2.795433000000000      1.319542000000000
H      -5.226197000000000      1.857084000000000      3.847254000000000
H      -5.855009000000000      1.740643000000000      2.170618000000000
H      -5.926320000000000      6.215600000000000      2.545625000000000
H      -7.496148000000000      5.543643000000000      2.987079000000000
H      -7.177290000000000      6.006538000000000      1.285646000000000
