99

P      -2.065241000000000      0.031846000000000     -0.399056000000000
C      -1.865673000000000      0.512539000000000      1.371418000000000
C      -2.941991000000000     -1.579207000000000     -0.372734000000000
C      -3.398159000000000      1.224185000000000     -0.854669000000000
C      -0.925799000000000      1.510078000000000      1.629658000000000
C      -0.709627000000000      1.968165000000000      2.927424000000000
C      -1.432771000000000      1.421855000000000      3.990260000000000
C      -2.383076000000000      0.437531000000000      3.742557000000000
C      -2.605048000000000     -0.009114000000000      2.438608000000000
C      -2.547232000000000     -2.588612000000000      0.511278000000000
C      -3.065798000000000     -3.877090000000000      0.384520000000000
C      -3.969631000000000     -4.181586000000000     -0.635078000000000
C      -4.354721000000000     -3.188440000000000     -1.525527000000000
C      -3.844577000000000     -1.896653000000000     -1.395972000000000
C      -4.721021000000000      1.038723000000000     -0.453471000000000
C      -5.687859000000000      1.996454000000000     -0.761413000000000
C      -5.339112000000000      3.152004000000000     -1.461695000000000
C      -4.018747000000000      3.354346000000000     -1.846855000000000
C      -3.055234000000000      2.393740000000000     -1.544236000000000
H      -0.338320000000000      1.930273000000000      0.816979000000000
C       0.312816000000000      3.009642000000000      3.171800000000000
H      -1.250349000000000      1.771359000000000      5.004123000000000
H      -2.957347000000000      0.012134000000000      4.559231000000000
H      -3.353207000000000     -0.776282000000000      2.260737000000000
H      -1.833371000000000     -2.391639000000000      1.309547000000000
C      -2.644393000000000     -4.933344000000000      1.343230000000000
H      -4.348427000000000     -5.196032000000000     -0.708827000000000
H      -5.049251000000000     -3.407475000000000     -2.329747000000000
H      -4.155109000000000     -1.136073000000000     -2.107584000000000
H      -5.032237000000000      0.154430000000000      0.097657000000000
C      -7.092301000000000      1.784355000000000     -0.329612000000000
H      -6.102916000000000      3.889420000000000     -1.697235000000000
H      -3.735186000000000      4.253893000000000     -2.383238000000000
H      -2.020533000000000      2.548017000000000     -1.835168000000000
P       1.877564000000000     -0.078236000000000     -0.577746000000000
C       1.867970000000000     -0.113691000000000      1.268163000000000
C       2.942603000000000      1.375831000000000     -0.942345000000000
C       3.018917000000000     -1.484058000000000     -0.933816000000000
C       0.983627000000000     -1.006858000000000      1.876768000000000
C       0.907281000000000     -1.093067000000000      3.266060000000000
C       1.716408000000000     -0.280729000000000      4.065223000000000
C       2.604815000000000      0.605147000000000      3.470579000000000
C       2.681361000000000      0.685723000000000      2.078898000000000
C       2.529739000000000      2.635200000000000     -0.488695000000000
C       3.277126000000000      3.770745000000000     -0.782350000000000
C       4.435423000000000      3.674773000000000     -1.561560000000000
C       4.843952000000000      2.433502000000000     -2.022608000000000
C       4.107416000000000      1.286712000000000     -1.706359000000000
C       3.939741000000000     -1.956081000000000     -0.000104000000000
C       4.798562000000000     -3.006984000000000     -0.329540000000000
C       4.751668000000000     -3.588079000000000     -1.595971000000000
C       3.843124000000000     -3.117015000000000     -2.538555000000000
C       2.980588000000000     -2.075878000000000     -2.204977000000000
H       0.333070000000000     -1.635734000000000      1.270865000000000
C      -0.054687000000000     -2.016429000000000      3.905590000000000
H       1.643502000000000     -0.348235000000000      5.148359000000000
H       3.242483000000000      1.236998000000000      4.080259000000000
H       3.379845000000000      1.383788000000000      1.628191000000000
H       1.637578000000000      2.740072000000000      0.127450000000000
C       2.837305000000000      5.089944000000000     -0.256954000000000
H       4.991085000000000      4.580762000000000     -1.782082000000000
H       5.742690000000000      2.341521000000000     -2.623985000000000
H       4.451791000000000      0.319965000000000     -2.061638000000000
H       4.012904000000000     -1.530062000000000      0.996805000000000
C       5.767804000000000     -3.503125000000000      0.680014000000000
H       5.423807000000000     -4.407920000000000     -1.838173000000000
H       3.796858000000000     -3.562305000000000     -3.526799000000000
H       2.267420000000000     -1.707499000000000     -2.937452000000000
Rh     -0.155521000000000     -0.035707000000000     -1.729971000000000
C      -0.326443000000000     -1.973737000000000     -2.050863000000000
O      -0.422775000000000     -3.102068000000000     -2.195045000000000
H      -0.032556000000000      1.509662000000000     -1.433624000000000
O       0.983182000000000      3.523500000000000      2.303486000000000
H       0.441591000000000      3.307895000000000      4.232519000000000
O      -7.468487000000000      0.821656000000000      0.294956000000000
H      -7.799953000000000      2.588560000000000     -0.620475000000000
O      -3.038589000000000     -6.075389000000000      1.287696000000000
H      -1.937766000000000     -4.603180000000000      2.128499000000000
O      -0.828659000000000     -2.725975000000000      3.302398000000000
H      -0.033238000000000     -2.025372000000000      5.014397000000000
O       3.410554000000000      6.127078000000000     -0.497017000000000
H       1.937852000000000      5.062174000000000      0.388758000000000
O       5.874073000000000     -3.048785000000000      1.793870000000000
H       6.411398000000000     -4.341583000000000      0.341336000000000
C       0.547366000000000      0.399507000000000     -3.767648000000000
C      -0.824886000000000      0.688644000000000     -3.680371000000000
C      -1.888133000000000     -0.187631000000000     -4.268025000000000
O      -2.156423000000000      0.249553000000000     -5.615512000000000
C      -3.245401000000000     -0.296657000000000     -6.182019000000000
C      -3.447671000000000      0.223448000000000     -7.582096000000000
O      -3.955808000000000     -1.097668000000000     -5.624731000000000
H       0.866571000000000     -0.505817000000000     -4.281144000000000
H       1.277429000000000      1.203264000000000     -3.749816000000000
H      -1.119118000000000      1.731353000000000     -3.594314000000000
H      -2.820438000000000     -0.120015000000000     -3.700439000000000
H      -1.584545000000000     -1.240637000000000     -4.299118000000000
H      -3.551349000000000      1.311126000000000     -7.560746000000000
H      -4.338722000000000     -0.231777000000000     -8.011433000000000
H      -2.572366000000000     -0.012199000000000     -8.192505000000001
