99

P       2.060825000000000      0.299814000000000     -0.053226000000000
C       1.788870000000000      0.156128000000000      1.767184000000000
C       3.097468000000000      1.817142000000000     -0.205536000000000
C       3.302489000000000     -1.025762000000000     -0.362637000000000
C       2.472412000000000     -0.751586000000000      2.580912000000000
C       2.142005000000000     -0.867985000000000      3.930409000000000
C       1.133369000000000     -0.077860000000000      4.475496000000000
C       0.456631000000000      0.846138000000000      3.673744000000000
C       0.776934000000000      0.949905000000000      2.331207000000000
C       3.948662000000000      1.926163000000000     -1.314737000000000
C       4.646237000000000      3.107045000000000     -1.540899000000000
C       4.502570000000000      4.187669000000000     -0.670371000000000
C       3.662707000000000      4.080162000000000      0.439124000000000
C       2.965689000000000      2.901426000000000      0.671563000000000
C       2.894589000000000     -2.225854000000000     -0.948382000000000
C       3.815243000000000     -3.246740000000000     -1.171895000000000
C       5.148542000000000     -3.074343000000000     -0.812398000000000
C       5.564852000000000     -1.881141000000000     -0.214855000000000
C       4.647990000000000     -0.866309000000000      0.009677000000000
H       3.249361000000000     -1.384473000000000      2.165742000000000
H       2.654935000000000     -1.594485000000000      4.556249000000000
C       0.707651000000000     -0.272229000000000      5.882415000000000
H      -0.338570000000000      1.439499000000000      4.114460000000000
H       0.210597000000000      1.623854000000000      1.692675000000000
H       4.076389000000000      1.084966000000000     -1.993360000000000
H       5.309879000000000      3.187777000000000     -2.398977000000000
C       5.246602000000000      5.446692000000000     -0.916765000000000
H       3.574826000000000      4.928958000000000      1.110338000000000
H       2.328239000000000      2.824562000000000      1.546710000000000
H       1.856422000000000     -2.354446000000000     -1.237485000000000
H       3.496141000000000     -4.177379000000000     -1.635391000000000
C       6.130901000000000     -4.159087000000000     -1.062011000000000
H       6.608879000000000     -1.772873000000000      0.062138000000000
H       4.973806000000000      0.059702000000000      0.474814000000000
P      -1.861652000000000      0.138813000000000     -0.323512000000000
C      -1.847710000000000     -0.626568000000000      1.356855000000000
C      -3.080614000000000     -0.912886000000000     -1.217895000000000
C      -2.860802000000000      1.661637000000000     -0.022147000000000
C      -0.955311000000000     -1.685216000000000      1.591516000000000
C      -0.863021000000000     -2.263168000000000      2.847401000000000
C      -1.658360000000000     -1.785523000000000      3.893271000000000
C      -2.557372000000000     -0.746720000000000      3.667830000000000
C      -2.655198000000000     -0.169425000000000      2.402923000000000
C      -3.607844000000000     -2.096502000000000     -0.689224000000000
C      -4.498142000000000     -2.860598000000000     -1.436034000000000
C      -4.879001000000000     -2.442166000000000     -2.710872000000000
C      -4.363166000000000     -1.257307000000000     -3.240621000000000
C      -3.463023000000000     -0.501668000000000     -2.502067000000000
C      -4.259415000000000      1.668792000000000     -0.079899000000000
C      -4.964731000000000      2.835254000000000      0.200952000000000
C      -4.283413000000000      4.000740000000000      0.547832000000000
C      -2.888426000000000      4.002592000000000      0.612554000000000
C      -2.185934000000000      2.841129000000000      0.324698000000000
H      -0.311914000000000     -2.029737000000000      0.786575000000000
H      -0.160791000000000     -3.066155000000000      3.049671000000000
C      -1.487362000000000     -2.345316000000000      5.257453000000000
H      -3.163952000000000     -0.371276000000000      4.488584000000000
H      -3.349440000000000      0.649215000000000      2.243309000000000
H      -3.325980000000000     -2.421713000000000      0.307214000000000
H      -4.915491000000000     -3.783231000000000     -1.044507000000000
C      -5.833903000000000     -3.256120000000000     -3.503004000000000
H      -4.664112000000000     -0.933907000000000     -4.234459000000000
H      -3.049221000000000      0.414976000000000     -2.915469000000000
H      -4.798544000000000      0.762533000000000     -0.338220000000000
H      -6.051301000000000      2.839406000000000      0.153753000000000
C      -5.039797000000000      5.243173000000000      0.849332000000000
H      -2.378289000000000      4.922544000000000      0.880887000000000
H      -1.100014000000000      2.848462000000000      0.359684000000000
Rh      0.168920000000000      0.315128000000000     -1.452510000000000
C       0.189175000000000      2.233819000000000     -1.851364000000000
O       0.221731000000000      3.354180000000000     -2.074806000000000
H       0.138946000000000     -1.234255000000000     -1.148174000000000
O      -0.283127000000000      0.241999000000000      6.351359000000000
H       1.339175000000000     -0.953521000000000      6.485736000000000
O       7.300579000000000     -4.089502000000000     -0.770188000000000
H       5.715374000000000     -5.067154000000000     -1.546397000000000
O       5.180081000000000      6.421020000000000     -0.205727000000000
H       5.889816000000000      5.442762000000000     -1.821427000000000
O      -0.610426000000000     -3.127387000000000      5.546364000000000
H      -2.205008000000000     -1.980501000000000      6.018059000000000
O      -6.327122000000000     -4.287326000000000     -3.113053000000000
H      -6.078095000000000     -2.849950000000000     -4.506773000000000
O      -4.519885000000000      6.287069000000000      1.160896000000000
H      -6.143121000000000      5.153605000000000      0.770844000000000
C      -0.318852000000000     -0.383007000000000     -3.478956000000000
C       1.074838000000000     -0.259880000000000     -3.364992000000000
C       1.805977000000000      0.854203000000000     -4.070109000000000
O       2.520099000000000      0.345502000000000     -5.214968000000000
C       3.686270000000000     -0.255576000000000     -4.936054000000000
C       4.337791000000000     -0.789039000000000     -6.184052000000000
O       4.141775000000000     -0.352991000000000     -3.819118000000000
H      -0.868940000000000      0.361108000000000     -4.051665000000000
H      -0.808047000000000     -1.347464000000000     -3.388407000000000
H       1.685657000000000     -1.138774000000000     -3.175025000000000
H       2.522302000000000      1.368580000000000     -3.428164000000000
H       1.099871000000000      1.582996000000000     -4.477454000000000
H       3.693949000000000     -1.549683000000000     -6.633291000000000
H       5.305523000000000     -1.219352000000000     -5.931746000000000
H       4.456523000000000      0.015051000000000     -6.914062000000000
