87

P      -1.996696000000000     -0.429485000000000     -0.126700000000000
C      -1.827620000000000      1.394532000000000     -0.347984000000000
C      -2.601267000000000     -0.538263000000000      1.616286000000000
C      -3.549645000000000     -0.768154000000000     -1.057194000000000
C      -1.089525000000000      1.857194000000000     -1.443291000000000
C      -0.962561000000000      3.222405000000000     -1.657185000000000
C      -1.555913000000000      4.150356000000000     -0.805262000000000
C      -2.290511000000000      3.686582000000000      0.279351000000000
C      -2.424475000000000      2.318892000000000      0.513292000000000
C      -3.959071000000000     -0.445998000000000      1.938293000000000
C      -4.350957000000000     -0.489617000000000      3.272282000000000
C      -3.423105000000000     -0.619289000000000      4.300417000000000
C      -2.073665000000000     -0.714790000000000      3.976434000000000
C      -1.665854000000000     -0.681906000000000      2.646392000000000
C      -4.370164000000000      0.249383000000000     -1.552938000000000
C      -5.545043000000000     -0.089078000000000     -2.217187000000000
C      -5.923638000000000     -1.414655000000000     -2.398317000000000
C      -5.099270000000000     -2.423045000000000     -1.906752000000000
C      -3.919654000000000     -2.104105000000000     -1.241233000000000
H      -0.601627000000000      1.156980000000000     -2.113812000000000
Cl     -0.026285000000000      3.787868000000000     -3.015156000000000
H      -1.436193000000000      5.211844000000000     -0.992594000000000
H      -2.750754000000000      4.395972000000000      0.959240000000000
H      -2.991791000000000      1.980530000000000      1.374191000000000
H      -4.712438000000000     -0.339121000000000      1.164068000000000
Cl     -6.045084000000000     -0.375359000000000      3.663069000000000
H      -3.758416000000000     -0.651583000000000      5.330978000000000
H      -1.337216000000000     -0.825072000000000      4.765643000000000
H      -0.611299000000000     -0.785923000000000      2.406722000000000
H      -4.110587000000000      1.295567000000000     -1.429289000000000
Cl     -6.563127000000000      1.184289000000000     -2.837788000000000
H      -6.841806000000000     -1.646699000000000     -2.926492000000000
H      -5.353055000000000     -3.464634000000000     -2.068091000000000
H      -3.267313000000000     -2.902040000000000     -0.896019000000000
P       1.831708000000000     -0.559288000000000     -0.176586000000000
C       2.799419000000000     -1.174134000000000      1.269499000000000
C       1.763153000000000      1.252652000000000      0.153560000000000
C       3.105115000000000     -0.624452000000000     -1.510140000000000
C       3.400695000000000     -0.332483000000000      2.208197000000000
C       4.125671000000000     -0.888601000000000      3.259081000000000
C       4.280603000000000     -2.263386000000000      3.389791000000000
C       3.693346000000000     -3.097313000000000      2.441311000000000
C       2.953955000000000     -2.560455000000000      1.393608000000000
C       0.986316000000000      1.680939000000000      1.237307000000000
C       0.885202000000000      3.033705000000000      1.522731000000000
C       1.519270000000000      3.989433000000000      0.730781000000000
C       2.278190000000000      3.562315000000000     -0.350951000000000
C       2.409016000000000      2.203048000000000     -0.638310000000000
C       4.469917000000000     -0.703151000000000     -1.219538000000000
C       5.392813000000000     -0.699664000000000     -2.260394000000000
C       4.991520000000000     -0.605938000000000     -3.588377000000000
C       3.631691000000000     -0.518322000000000     -3.872188000000000
C       2.693199000000000     -0.535106000000000     -2.844484000000000
H       3.318152000000000      0.746509000000000      2.132096000000000
Cl      4.861847000000000      0.169940000000000      4.430980000000000
H       4.851177000000000     -2.667652000000000      4.218361000000000
H       3.809586000000000     -4.172725000000000      2.527295000000000
H       2.496599000000000     -3.217588000000000      0.658371000000000
H       0.458018000000000      0.966439000000000      1.861595000000000
Cl     -0.054108000000000      3.545147000000000      2.898485000000000
H       1.414401000000000      5.042884000000000      0.966007000000000
H       2.772404000000000      4.294081000000000     -0.981440000000000
H       3.013226000000000      1.893852000000000     -1.484429000000000
H       4.824538000000000     -0.764777000000000     -0.195851000000000
Cl      7.091616000000000     -0.808612000000000     -1.887190000000000
H       5.733123000000000     -0.604844000000000     -4.379378000000000
H       3.302835000000000     -0.445155000000000     -4.903774000000000
H       1.632775000000000     -0.481288000000000     -3.073176000000000
Rh     -0.135960000000000     -1.746346000000000     -0.660713000000000
C      -0.242819000000000     -2.932576000000000      0.894492000000000
O      -0.319497000000000     -3.674948000000000      1.759218000000000
H      -0.132042000000000     -0.867937000000000     -1.973768000000000
C       0.706204000000000     -3.340366000000000     -1.882003000000000
C      -0.695703000000000     -3.357975000000000     -2.031258000000000
C      -1.334192000000000     -2.882299000000000     -3.306646000000000
O      -1.532078000000000     -3.983749000000000     -4.225595000000000
C      -2.555526000000000     -4.800114000000000     -3.948311000000000
C      -2.665194000000000     -5.901577000000000     -4.970888000000000
O      -3.289338000000000     -4.664249000000000     -2.995817000000000
H       1.327716000000000     -2.929399000000000     -2.674355000000000
H       1.197424000000000     -4.093516000000000     -1.271101000000000
H      -1.271650000000000     -4.117933000000000     -1.507172000000000
H      -0.669379000000000     -2.198325000000000     -3.837981000000000
H      -2.299840000000000     -2.400750000000000     -3.140513000000000
H      -1.749115000000000     -6.497759000000000     -4.964321000000000
H      -2.771835000000000     -5.471263000000000     -5.969542000000000
H      -3.522640000000000     -6.530211000000000     -4.736101000000000
