93

P      -3.739601000000000     -1.751958000000000      0.044809000000000
C      -3.769290000000000      0.089754000000000     -0.029127000000000
C      -5.521836000000000     -2.110888000000000      0.338395000000000
C      -3.554960000000000     -2.188484000000000     -1.737170000000000
C      -3.749164000000000      0.787427000000000      1.185671000000000
C      -3.803770000000000      2.172683000000000      1.210489000000000
C      -3.866508000000000      2.883231000000000      0.005762000000000
C      -3.882698000000000      2.200554000000000     -1.213014000000000
C      -3.840832000000000      0.809066000000000     -1.225673000000000
C      -6.508346000000000     -1.119369000000000      0.377018000000000
C      -7.837059000000000     -1.459449000000000      0.607095000000000
C      -8.190578000000000     -2.799142000000000      0.793031000000000
C      -7.214509000000000     -3.800157000000000      0.745242000000000
C      -5.890642000000000     -3.448303000000000      0.520007000000000
C      -2.268407000000000     -2.154825000000000     -2.290527000000000
C      -2.059236000000000     -2.445809000000000     -3.630893000000000
C      -3.149549000000000     -2.789339000000000     -4.437998000000000
C      -4.438138000000000     -2.830247000000000     -3.899182000000000
C      -4.637150000000000     -2.525502000000000     -2.556634000000000
H      -3.681503000000000      0.234719000000000      2.119252000000000
H      -3.787684000000000      2.711460000000000      2.151912000000000
C      -3.910100000000000      4.321514000000000      0.035469000000000
H      -3.934565000000000      2.759644000000000     -2.141218000000000
H      -3.869083000000000      0.288848000000000     -2.177957000000000
H      -6.250567000000000     -0.076167000000000      0.228649000000000
H      -8.602262000000000     -0.691479000000000      0.641962000000000
C      -9.566523999999999     -3.146748000000000      1.035856000000000
H      -7.473991000000000     -4.841935000000000      0.896464000000000
H      -5.148183000000000     -4.237241000000000      0.493342000000000
H      -1.417455000000000     -1.900130000000000     -1.664523000000000
H      -1.061529000000000     -2.418503000000000     -4.055290000000000
C      -2.941545000000000     -3.101068000000000     -5.827717000000000
H      -5.277154000000000     -3.096398000000000     -4.532868000000000
H      -5.643263000000000     -2.551721000000000     -2.151028000000000
P      -0.643055000000000     -1.191112000000000      2.396917000000000
C      -0.584618000000000      0.542295000000000      1.776003000000000
C       1.104552000000000     -1.719147000000000      2.112340000000000
C      -0.634111000000000     -0.935300000000000      4.223640000000000
C      -0.522264000000000      1.667896000000000      2.600519000000000
C      -0.474724000000000      2.946055000000000      2.048240000000000
C      -0.475686000000000      3.103152000000000      0.660734000000000
C      -0.541122000000000      1.980815000000000     -0.175863000000000
C      -0.605779000000000      0.715862000000000      0.385520000000000
C       2.103980000000000     -0.869565000000000      1.627960000000000
C       3.401194000000000     -1.338349000000000      1.443257000000000
C       3.712165000000000     -2.664091000000000      1.754101000000000
C       2.722661000000000     -3.521372000000000      2.249249000000000
C       1.430329000000000     -3.047409000000000      2.419049000000000
C       0.549381000000000     -0.675030000000000      4.926074000000000
C       0.523387000000000     -0.444466000000000      6.295796000000000
C      -0.696840000000000     -0.467598000000000      6.979043000000000
C      -1.885279000000000     -0.724310000000000      6.289379000000000
C      -1.847252000000000     -0.961200000000000      4.920385000000000
H      -0.507690000000000      1.557768000000000      3.680182000000000
H      -0.428450000000000      3.821446000000000      2.687220000000000
C      -0.404311000000000      4.416847000000000      0.077060000000000
H      -0.552108000000000      2.112644000000000     -1.252580000000000
H      -0.681005000000000     -0.155826000000000     -0.260865000000000
H       1.880203000000000      0.166181000000000      1.394431000000000
H       4.174939000000000     -0.679788000000000      1.063690000000000
C       5.054055000000000     -3.149641000000000      1.566686000000000
H       2.971626000000000     -4.549221000000000      2.489682000000000
H       0.659286000000000     -3.713977000000000      2.795373000000000
H       1.500453000000000     -0.648037000000000      4.402880000000000
H       1.440419000000000     -0.245622000000000      6.839701000000000
C      -0.728173000000000     -0.228930000000000      8.398313000000000
H      -2.826468000000000     -0.745648000000000      6.827969000000000
H      -2.766783000000000     -1.182171000000000      4.386703000000000
Rh     -2.250329000000000     -2.698884000000000      1.578785000000000
C      -1.027612000000000     -3.624189000000000      0.355962000000000
O      -0.303957000000000     -4.144300000000000     -0.359086000000000
H      -3.268441000000000     -1.966594000000000      2.538862000000000
N      -3.949361000000000      5.476926000000000      0.076118000000000
N     -10.672988999999999     -3.422940000000000      1.229896000000000
N      -2.773233000000000     -3.348583000000000     -6.944988000000000
N      -0.333443000000000      5.465326000000000     -0.406270000000000
N       6.132779000000000     -3.539735000000000      1.418048000000000
N      -0.753744000000000     -0.035192000000000      9.538323000000000
C      -2.180212000000000     -4.178741000000000      3.200620000000000
C      -3.211611000000000     -4.532093000000000      2.314764000000000
C      -3.041332000000000     -5.728922000000000      1.414988000000000
O      -3.544498000000000     -6.924065000000000      2.044962000000000
C      -4.869819000000000     -7.113303000000000      1.973990000000000
C      -5.282729000000000     -8.371877000000000      2.686892000000000
O      -5.621832000000000     -6.355937000000000      1.404066000000000
H      -1.263989000000000     -4.766282000000000      3.198329000000000
H      -2.397782000000000     -3.679833000000000      4.139634000000000
H      -4.240763000000000     -4.290183000000000      2.570636000000000
H      -1.981428000000000     -5.937409000000000      1.249145000000000
H      -3.538381000000000     -5.613140000000000      0.447777000000000
H      -5.032162000000000     -8.287722000000000      3.747535000000000
H      -4.731225000000000     -9.224340000000000      2.283609000000000
H      -6.354293000000000     -8.521668999999999      2.566496000000000
