105

P      -1.395598000000000      1.257618000000000      0.254396000000000
C      -2.577399000000000      2.569820000000000      0.765330000000000
C      -2.025567000000000     -0.219056000000000      1.151477000000000
C      -1.920864000000000      0.915073000000000     -1.477229000000000
C      -3.535643000000000      2.391359000000000      1.761878000000000
C      -4.333537000000000      3.468073000000000      2.161700000000000
C      -4.191673000000000      4.718406000000000      1.564271000000000
C      -3.245349000000000      4.896777000000000      0.558854000000000
C      -2.439702000000000      3.832566000000000      0.169914000000000
C      -2.960460000000000     -1.090140000000000      0.593221000000000
C      -3.396919000000000     -2.204400000000000      1.312017000000000
C      -2.911334000000000     -2.457550000000000      2.595276000000000
C      -1.975993000000000     -1.592078000000000      3.154090000000000
C      -1.528709000000000     -0.487777000000000      2.434242000000000
C      -1.056285000000000      0.125572000000000     -2.232024000000000
C      -1.367783000000000     -0.249414000000000     -3.534796000000000
C      -2.532467000000000      0.223458000000000     -4.136047000000000
C      -3.403418000000000      1.017288000000000     -3.392458000000000
C      -3.113836000000000      1.347111000000000     -2.067375000000000
H      -3.668455000000000      1.426092000000000      2.239206000000000
C      -5.360175000000000      3.324753000000000      3.230638000000000
H      -4.825434000000000      5.532317000000000      1.900086000000000
H      -3.127161000000000      5.866548000000000      0.086868000000000
H      -1.686687000000000      3.978142000000000     -0.602365000000000
H      -3.344704000000000     -0.938526000000000     -0.411083000000000
C      -4.299582000000000     -3.165975000000000      0.625694000000000
H      -3.243216000000000     -3.342230000000000      3.127475000000000
H      -1.573249000000000     -1.790467000000000      4.141791000000000
H      -0.772170000000000      0.166514000000000      2.858872000000000
H      -0.102277000000000     -0.188813000000000     -1.821652000000000
C      -0.416306000000000     -1.198938000000000     -4.177832000000000
H      -2.759214000000000     -0.042346000000000     -5.163469000000000
H      -4.323453000000000      1.374895000000000     -3.843182000000000
H      -3.816333000000000      1.948519000000000     -1.497145000000000
P       2.240359000000000     -0.048331000000000      0.298250000000000
C       3.756360000000000      0.084515000000000      1.326494000000000
C       2.927645000000000     -0.309653000000000     -1.392035000000000
C       1.566861000000000     -1.688648000000000      0.802899000000000
C       3.631470000000000      0.797513000000000      2.516002000000000
C       4.740225000000000      1.060319000000000      3.314434000000000
C       5.991074000000000      0.560697000000000      2.954624000000000
C       6.115222000000000     -0.200990000000000      1.795230000000000
C       5.008703000000000     -0.429297000000000      0.974604000000000
C       2.687811000000000     -1.437782000000000     -2.171437000000000
C       3.028170000000000     -1.429629000000000     -3.529588000000000
C       3.653145000000000     -0.328716000000000     -4.103772000000000
C       3.977421000000000      0.766435000000000     -3.304383000000000
C       3.599025000000000      0.782319000000000     -1.968414000000000
C       0.468954000000000     -2.226362000000000      0.120678000000000
C      -0.135670000000000     -3.400087000000000      0.562355000000000
C       0.339301000000000     -4.055015000000000      1.699723000000000
C       1.431930000000000     -3.533965000000000      2.378332000000000
C       2.041763000000000     -2.359366000000000      1.935081000000000
H       2.666478000000000      1.196159000000000      2.799872000000000
C       4.604285000000000      2.006460000000000      4.462548000000000
H       6.850216000000000      0.794456000000000      3.575396000000000
H       7.084118000000000     -0.598253000000000      1.510299000000000
H       5.125707000000000     -0.993112000000000      0.052647000000000
H       2.182136000000000     -2.307808000000000     -1.767253000000000
C       2.606021000000000     -2.552608000000000     -4.407672000000000
H       3.874020000000000     -0.337480000000000     -5.166218000000000
H       4.488563000000000      1.622343000000000     -3.732460000000000
H       3.799796000000000      1.664013000000000     -1.361560000000000
H       0.063775000000000     -1.751499000000000     -0.765532000000000
C      -1.362682000000000     -3.928208000000000     -0.098481000000000
H      -0.165874000000000     -4.955482000000000      2.033506000000000
H       1.815217000000000     -4.035007000000000      3.261390000000000
H       2.890452000000000     -1.963657000000000      2.483850000000000
Rh      0.847313000000000      1.867333000000000      0.484708000000000
C       1.015188000000000      2.521028000000000     -1.354850000000000
O       1.108897000000000      2.922297000000000     -2.420701000000000
H       0.718881000000000      1.373434000000000      1.980225000000000
O      -6.084944000000000      4.213458000000000      3.607918000000000
O      -5.407522000000000      2.083526000000000      3.750117000000000
H      -6.102619000000000      2.099653000000000      4.430716000000000
O       0.164288000000000     -2.046989000000000     -3.534310000000000
O      -0.246706000000000     -1.021133000000000     -5.487718000000000
H       0.489829000000000     -1.609612000000000     -5.766875000000000
O      -4.482100000000000     -3.194963000000000     -0.575065000000000
O      -4.896835000000000     -4.021495000000000      1.460921000000000
H      -5.379993000000000     -4.658877000000000      0.906074000000000
O       5.525698000000000      2.418023000000000      5.124369000000000
O       3.328440000000000      2.386607000000000      4.620181000000000
H       3.259126000000000      3.183933000000000      5.176819000000000
O       2.308239000000000     -2.429178000000000     -5.581072000000000
O       2.581041000000000     -3.728450000000000     -3.779712000000000
H       2.191531000000000     -4.371143000000000     -4.398387000000000
O      -2.012798000000000     -4.853723000000000      0.337782000000000
O      -1.709776000000000     -3.238533000000000     -1.190586000000000
H      -2.627523000000000     -3.493092000000000     -1.417255000000000
C       2.141540000000000      3.472663000000000      1.235153000000000
C       0.792152000000000      3.850829000000000      1.386074000000000
C       0.158387000000000      3.872934000000000      2.751279000000000
O       0.209962000000000      5.218965000000000      3.286361000000000
C       1.148779000000000      5.507612000000000      4.192505000000000
C       1.109620000000000      6.969554000000000      4.556742000000000
O       1.925408000000000      4.706999000000000      4.661791000000000
H       2.705426000000000      3.175653000000000      2.114993000000000
H       2.739801000000000      3.888753000000000      0.428689000000000
H       0.356778000000000      4.566481000000000      0.689217000000000
H       0.677388000000000      3.196895000000000      3.434906000000000
H      -0.906511000000000      3.629914000000000      2.717262000000000
H       1.379228000000000      7.566051000000000      3.681075000000000
H       1.811113000000000      7.161703000000000      5.366989000000000
H       0.096931000000000      7.253520000000000      4.851424000000000
