105

P       2.034112000000000      0.074992000000000     -0.308869000000000
C       3.197089000000000      1.506903000000000     -0.356294000000000
C       3.195408000000000     -1.334015000000000     -0.560749000000000
C       1.665368000000000     -0.053870000000000      1.486200000000000
C       3.683667000000000      2.144363000000000      0.789994000000000
C       4.566128000000000      3.213731000000000      0.675339000000000
C       4.977685000000000      3.649075000000000     -0.583034000000000
C       4.505210000000000      3.014547000000000     -1.733886000000000
C       3.616616000000000      1.954169000000000     -1.616109000000000
C       2.691177000000000     -2.556613000000000     -1.020141000000000
C       3.530253000000000     -3.655120000000000     -1.163089000000000
C       4.885950000000000     -3.538828000000000     -0.857222000000000
C       5.401256000000000     -2.324035000000000     -0.402896000000000
C       4.557490000000000     -1.228740000000000     -0.253705000000000
C       2.123504000000000     -1.089249000000000      2.305709000000000
C       1.661365000000000     -1.196686000000000      3.614258000000000
C       0.757454000000000     -0.261918000000000      4.114385000000000
C       0.342366000000000      0.811451000000000      3.322488000000000
C       0.790988000000000      0.903695000000000      2.014656000000000
H       3.378698000000000      1.806238000000000      1.775121000000000
H       4.949979000000000      3.721051000000000      1.554393000000000
C       5.924580000000000      4.795986000000000     -0.645787000000000
H       4.828700000000000      3.357161000000000     -2.710448000000000
H       3.239830000000000      1.463168000000000     -2.509390000000000
H       1.638064000000000     -2.639039000000000     -1.272526000000000
H       3.153778000000000     -4.609208000000000     -1.517241000000000
C       5.743586000000000     -4.743341000000000     -1.033762000000000
H       6.456233000000000     -2.241044000000000     -0.166462000000000
H       4.963133000000000     -0.288664000000000      0.107910000000000
H       2.811872000000000     -1.832951000000000      1.916644000000000
H       1.959859000000000     -2.025062000000000      4.248756000000000
C       0.118802000000000     -0.536530000000000      5.430732000000000
H      -0.369130000000000      1.528736000000000      3.715923000000000
H       0.425683000000000      1.704067000000000      1.374782000000000
P      -1.883767000000000      0.145383000000000     -0.785412000000000
C      -3.113232000000000     -0.962779000000000     -1.600743000000000
C      -2.832364000000000      1.722126000000000     -0.656605000000000
C      -1.986049000000000     -0.482786000000000      0.947857000000000
C      -3.879291000000000     -1.904793000000000     -0.902902000000000
C      -4.796595000000000     -2.699281000000000     -1.581405000000000
C      -4.964166000000000     -2.557313000000000     -2.958481000000000
C      -4.213590000000000     -1.614732000000000     -3.663368000000000
C      -3.294293000000000     -0.826119000000000     -2.981575000000000
C      -4.188847000000000      1.824608000000000     -0.981543000000000
C      -4.857493000000000      3.037810000000000     -0.840958000000000
C      -4.176347000000000      4.156310000000000     -0.362573000000000
C      -2.824325000000000      4.063567000000000     -0.027696000000000
C      -2.159283000000000      2.855653000000000     -0.180846000000000
C      -2.796091000000000      0.102480000000000      1.927011000000000
C      -2.887851000000000     -0.465534000000000      3.194490000000000
C      -2.197859000000000     -1.641439000000000      3.484296000000000
C      -1.385459000000000     -2.233761000000000      2.512821000000000
C      -1.269876000000000     -1.645840000000000      1.259813000000000
H      -3.767371000000000     -2.023882000000000      0.169259000000000
H      -5.394847000000000     -3.435985000000000     -1.055287000000000
C      -5.959424000000000     -3.437652000000000     -3.628358000000000
H      -4.326281000000000     -1.498088000000000     -4.735148000000000
H      -2.717490000000000     -0.101692000000000     -3.544372000000000
H      -4.730088000000000      0.956835000000000     -1.344057000000000
H      -5.908099000000000      3.116444000000000     -1.097634000000000
C      -4.845100000000000      5.474814000000000     -0.188906000000000
H      -2.313726000000000      4.946846000000000      0.341564000000000
H      -1.104155000000000      2.790369000000000      0.070493000000000
H      -3.361315000000000      1.001940000000000      1.704415000000000
H      -3.495523000000000     -0.010396000000000      3.969877000000000
C      -2.295410000000000     -2.197877000000000      4.861822000000000
H      -0.832868000000000     -3.135891000000000      2.751729000000000
H      -0.621611000000000     -2.091976000000000      0.509391000000000
Rh      0.228236000000000      0.226740000000000     -1.806429000000000
C       0.393571000000000      2.158854000000000     -2.083073000000000
O       0.496108000000000      3.288629000000000     -2.224901000000000
H       0.050496000000000     -1.327243000000000     -1.579389000000000
O       6.365815000000000      5.373520000000000      0.317831000000000
O       6.252326000000000      5.135901000000000     -1.906812000000000
H       6.866153000000000      5.887548000000000     -1.835587000000000
O       0.323324000000000     -1.531484000000000      6.088508000000000
O      -0.783084000000000      0.394307000000000      5.775571000000000
H      -1.317334000000000      0.013992000000000      6.497909000000000
O       5.346802000000000     -5.815263000000000     -1.421009000000000
O       7.032059000000000     -4.520883000000000     -0.712080000000000
H       7.498743000000000     -5.361887000000000     -0.859769000000000
O      -6.634615000000000     -4.265014000000000     -3.063763000000000
O      -6.043904000000000     -3.222352000000000     -4.954717000000000
H      -6.714974000000000     -3.843702000000000     -5.286463000000000
O      -4.301203000000000      6.468485000000000      0.227866000000000
O      -6.143279000000000      5.455477000000000     -0.545784000000000
H      -6.480648000000000      6.355519000000000     -0.394350000000000
O      -2.801669000000000     -1.618485000000000      5.798556000000000
O      -1.736622000000000     -3.409140000000000      4.976685000000000
H      -1.722687000000000     -3.619438000000000      5.927168000000000
C       1.271150000000000     -0.417944000000000     -3.625604000000000
C      -0.089515000000000     -0.241515000000000     -3.929954000000000
C      -0.510313000000000      0.937189000000000     -4.767618000000000
O      -0.508842000000000      0.602154000000000     -6.172543000000000
C      -1.594882000000000     -0.038284000000000     -6.624667000000000
C      -1.461214000000000     -0.375155000000000     -8.086024000000000
O      -2.551440000000000     -0.306531000000000     -5.935089000000000
H       1.988609000000000      0.318261000000000     -3.983606000000000
H       1.682323000000000     -1.408633000000000     -3.460241000000000
H      -0.742714000000000     -1.109182000000000     -3.990000000000000
H       0.219208000000000      1.746590000000000     -4.685085000000000
H      -1.500836000000000      1.319750000000000     -4.507048000000000
H      -0.631569000000000     -1.073987000000000     -8.221780000000001
H      -1.230658000000000      0.527086000000000     -8.657022000000000
H      -2.387895000000000     -0.823754000000000     -8.440135000000000
