87

P       1.948664000000000     -0.130382000000000      0.223292000000000
C       2.768526000000000     -1.045472000000000     -1.154090000000000
C       3.346522000000000      0.046638000000000      1.409029000000000
C       1.834427000000000      1.573537000000000     -0.474630000000000
C       4.158499000000000     -1.099146000000000     -1.295000000000000
C       4.698415000000000     -1.784930000000000     -2.372583000000000
C       3.910664000000000     -2.418006000000000     -3.322616000000000
C       2.528099000000000     -2.361724000000000     -3.176559000000000
C       1.959812000000000     -1.686548000000000     -2.099143000000000
C       4.015342000000000      1.252404000000000      1.621146000000000
C       5.056608000000000      1.287427000000000      2.539888000000000
C       5.467620000000000      0.167083000000000      3.242404000000000
C       4.799261000000000     -1.035399000000000      3.017617000000000
C       3.742011000000000     -1.096121000000000      2.116816000000000
C       0.951963000000000      2.477475000000000      0.124320000000000
C       0.861365000000000      3.765255000000000     -0.376124000000000
C       1.628069000000000      4.200957000000000     -1.447441000000000
C       2.507378000000000      3.299058000000000     -2.036913000000000
C       2.609853000000000      1.992384000000000     -1.561147000000000
H       4.826983000000000     -0.620620000000000     -0.586146000000000
F       6.031420000000000     -1.834202000000000     -2.500888000000000
H       4.384222000000000     -2.944567000000000     -4.143401000000000
H       1.890047000000000     -2.858639000000000     -3.900060000000000
H       0.879672000000000     -1.672909000000000     -1.978582000000000
H       3.749426000000000      2.162010000000000      1.092980000000000
F       5.691737000000000      2.450099000000000      2.743679000000000
H       6.288209000000000      0.248825000000000      3.945974000000000
H       5.102949000000000     -1.926800000000000      3.556895000000000
H       3.212469000000000     -2.031937000000000      1.957652000000000
H       0.316979000000000      2.183450000000000      0.953285000000000
F      -0.015193000000000      4.613357000000000      0.179475000000000
H       1.516520000000000      5.218743000000000     -1.804572000000000
H       3.116345000000000      3.614828000000000     -2.878037000000000
H       3.298207000000000      1.303465000000000     -2.039156000000000
P      -1.909483000000000     -0.401150000000000      0.043820000000000
C      -2.721179000000000     -1.594571000000000     -1.106434000000000
C      -1.809437000000000      1.105256000000000     -1.010734000000000
C      -3.293278000000000      0.001447000000000      1.189768000000000
C      -2.734766000000000     -2.942831000000000     -0.736666000000000
C      -3.385797000000000     -3.861920000000000     -1.543368000000000
C      -4.023313000000000     -3.493241000000000     -2.718890000000000
C      -4.010188000000000     -2.149956000000000     -3.080725000000000
C      -3.370564000000000     -1.202957000000000     -2.282317000000000
C      -2.492318000000000      2.283590000000000     -0.712245000000000
C      -2.305348000000000      3.393289000000000     -1.527518000000000
C      -1.486119000000000      3.366505000000000     -2.642944000000000
C      -0.811886000000000      2.182335000000000     -2.939925000000000
C      -0.962255000000000      1.066089000000000     -2.127201000000000
C      -3.010333000000000      0.819119000000000      2.290098000000000
C      -4.027266000000000      1.140427000000000      3.171361000000000
C      -5.322927000000000      0.672573000000000      3.010431000000000
C      -5.595810000000000     -0.143781000000000      1.920717000000000
C      -4.594250000000000     -0.476049000000000      1.008778000000000
H      -2.256598000000000     -3.288011000000000      0.174461000000000
F      -3.394974000000000     -5.150097000000000     -1.176565000000000
H      -4.512842000000000     -4.249873000000000     -3.321458000000000
H      -4.507506000000000     -1.836487000000000     -3.993005000000000
H      -3.382966000000000     -0.158454000000000     -2.574563000000000
H      -3.161770000000000      2.364602000000000      0.137228000000000
F      -2.953124000000000      4.525662000000000     -1.226015000000000
H      -1.374920000000000      4.260790000000000     -3.245919000000000
H      -0.148827000000000      2.141812000000000     -3.798201000000000
H      -0.409047000000000      0.158108000000000     -2.353801000000000
H      -2.008470000000000      1.196832000000000      2.472985000000000
F      -3.745714000000000      1.924005000000000      4.221121000000000
H      -6.080179000000000      0.936932000000000      3.739405000000000
H      -6.600484000000000     -0.528102000000000      1.777306000000000
H      -4.833484000000000     -1.108383000000000      0.160594000000000
Rh      0.039716000000000     -1.086429000000000      1.146826000000000
C       0.310442000000000     -2.871163000000000      0.409321000000000
O       0.539080000000000     -3.916005000000000      0.002164000000000
H      -0.062587000000000      0.347886000000000      1.803605000000000
C       0.600716000000000     -1.751489000000000      3.160772000000000
C      -0.800332000000000     -1.686158000000000      3.070331000000000
C      -1.659792000000000     -2.916093000000000      3.000171000000000
O      -2.054002000000000     -3.354172000000000      4.317725000000000
C      -3.072143000000000     -2.673588000000000      4.871131000000000
C      -3.374103000000000     -3.187001000000000      6.255424000000000
O      -3.655428000000000     -1.770958000000000      4.321021000000000
H       1.092704000000000     -2.722702000000000      3.143107000000000
H       1.162506000000000     -0.961652000000000      3.649478000000000
H      -1.315119000000000     -0.823793000000000      3.485943000000000
H      -1.109780000000000     -3.764037000000000      2.581598000000000
H      -2.569667000000000     -2.733158000000000      2.420073000000000
H      -2.510088000000000     -3.014532000000000      6.902605000000000
H      -3.553694000000000     -4.264107000000000      6.223534000000000
H      -4.245230000000000     -2.667265000000000      6.651135000000000
