135

P      -1.676069000000000     -0.030724000000000     -0.113214000000000
C      -2.111920000000000     -0.929077000000000     -1.662025000000000
C      -1.662592000000000      1.730369000000000     -0.647689000000000
C      -3.230556000000000     -0.118280000000000      0.864360000000000
C      -2.391936000000000     -2.291434000000000     -1.532881000000000
C      -2.662529000000000     -3.099217000000000     -2.649664000000000
C      -2.593799000000000     -2.493485000000000     -3.922323000000000
C      -2.317028000000000     -1.139716000000000     -4.043425000000000
C      -2.084865000000000     -0.338275000000000     -2.925344000000000
C      -0.519132000000000      2.195719000000000     -1.299037000000000
C      -0.392907000000000      3.541664000000000     -1.692251000000000
C      -1.461540000000000      4.413477000000000     -1.394155000000000
C      -2.602850000000000      3.938212000000000     -0.764092000000000
C      -2.724629000000000      2.600919000000000     -0.387698000000000
C      -3.148768000000000      0.297280000000000      2.194118000000000
C      -4.267563000000000      0.263949000000000      3.045646000000000
C      -5.472648000000000     -0.235981000000000      2.511486000000000
C      -5.550648000000000     -0.630085000000000      1.183685000000000
C      -4.443081000000000     -0.570684000000000      0.340120000000000
H      -2.398033000000000     -2.721960000000000     -0.536166000000000
N      -2.989590000000000     -4.439048000000000     -2.502872000000000
H      -2.761080000000000     -3.078362000000000     -4.818440000000000
H      -2.283622000000000     -0.697297000000000     -5.035111000000000
H      -1.877819000000000      0.720264000000000     -3.039714000000000
H       0.311042000000000      1.515425000000000     -1.458008000000000
N       0.737648000000000      3.993850000000000     -2.334338000000000
H      -1.400418000000000      5.459565000000000     -1.672969000000000
H      -3.417059000000000      4.627583000000000     -0.558850000000000
H      -3.621574000000000      2.248661000000000      0.109078000000000
H      -2.183747000000000      0.620351000000000      2.567280000000000
N      -4.192017000000000      0.703229000000000      4.358511000000000
H      -6.353959000000000     -0.319876000000000      3.135075000000000
H      -6.497881000000000     -0.997971000000000      0.799443000000000
H      -4.523321000000000     -0.877542000000000     -0.696644000000000
P       2.286340000000000     -0.205542000000000      0.290877000000000
C       2.758982000000000      1.573476000000000      0.388754000000000
C       2.720416000000000     -0.607638000000000     -1.463235000000000
C       3.641158000000000     -1.038508000000000      1.213567000000000
C       1.788470000000000      2.485929000000000      0.786599000000000
C       2.027066000000000      3.876309000000000      0.759037000000000
C       3.303811000000000      4.308091000000000      0.357974000000000
C       4.282212000000000      3.386588000000000     -0.008968000000000
C       4.026405000000000      2.021825000000000     -0.004580000000000
C       4.037288000000000     -0.837523000000000     -1.863571000000000
C       4.359356000000000     -1.121864000000000     -3.203440000000000
C       3.304015000000000     -1.172154000000000     -4.136822000000000
C       1.994654000000000     -0.952747000000000     -3.731948000000000
C       1.687364000000000     -0.680133000000000     -2.401097000000000
C       3.838483000000000     -2.399759000000000      0.968945000000000
C       4.774214000000000     -3.150149000000000      1.699634000000000
C       5.486910000000000     -2.488823000000000      2.722027000000000
C       5.276573000000000     -1.139729000000000      2.966754000000000
C       4.362004000000000     -0.397407000000000      2.220220000000000
H       0.828528000000000      2.097648000000000      1.100157000000000
N       1.025006000000000      4.778036000000000      1.099762000000000
H       3.547664000000000      5.363677000000000      0.337963000000000
H       5.261447000000000      3.750965000000000     -0.305833000000000
H       4.796160000000000      1.318486000000000     -0.304331000000000
H       4.818029000000000     -0.828146000000000     -1.113104000000000
N       5.675404000000000     -1.348697000000000     -3.583876000000000
H       3.500702000000000     -1.403610000000000     -5.176546000000000
H       1.191570000000000     -1.019301000000000     -4.460580000000000
H       0.652231000000000     -0.558356000000000     -2.095669000000000
H       3.249020000000000     -2.875115000000000      0.191905000000000
N       4.991316000000000     -4.493501000000000      1.416210000000000
H       6.203373000000000     -3.027420000000000      3.329951000000000
H       5.838512000000000     -0.656190000000000      3.760595000000000
H       4.211846000000000      0.657942000000000      2.422833000000000
Rh      0.188240000000000     -0.972003000000000      1.005173000000000
C       0.355495000000000     -2.593664000000000     -0.063528000000000
O       0.554221000000000     -3.560203000000000     -0.647553000000000
H       0.135004000000000      0.325007000000000      1.912183000000000
C      -2.794502000000000     -5.055833000000000     -1.205513000000000
H      -3.095468000000000     -6.102815000000000     -1.263451000000000
H      -1.748792000000000     -5.007666000000000     -0.865714000000000
H      -3.424106000000000     -4.572389000000000     -0.451222000000000
C      -2.926811000000000     -5.292222000000000     -3.670941000000000
H      -1.932938000000000     -5.291754000000000     -4.144245000000000
H      -3.170430000000000     -6.313973000000000     -3.376710000000000
H      -3.662715000000000     -4.980911000000000     -4.419538000000000
C      -2.880572000000000      0.965108000000000      4.916895000000000
H      -3.003290000000000      1.353865000000000      5.929659000000000
H      -2.255357000000000      0.061686000000000      4.957924000000000
H      -2.361847000000000      1.731273000000000      4.332501000000000
C      -5.202565000000000      0.227381000000000      5.284602000000000
H      -6.189458000000000      0.619898000000000      5.019005000000000
H      -5.245490000000000     -0.869916000000000      5.314439000000000
H      -4.963746000000000      0.597089000000000      6.283279000000000
C       1.747282000000000      3.055546000000000     -2.781552000000000
H       1.280227000000000      2.222375000000000     -3.318484000000000
H       2.416157000000000      3.565865000000000     -3.477714000000000
H       2.347973000000000      2.640964000000000     -1.961478000000000
C       1.051135000000000      5.404800000000000     -2.306069000000000
H       0.852129000000000      5.819193000000000     -1.309449000000000
H       2.112816000000000      5.537599000000000     -2.524125000000000
H       0.473868000000000      5.979486000000000     -3.044578000000000
C       1.428858000000000      6.125509000000000      1.450013000000000
H       1.883492000000000      6.632582000000000      0.592621000000000
H       0.542931000000000      6.695271000000000      1.734645000000000
H       2.148106000000000      6.150777000000000      2.283707000000000
C      -0.148854000000000      4.263913000000000      1.786136000000000
H      -0.640968000000000      3.495948000000000      1.185808000000000
H       0.093676000000000      3.841418000000000      2.774684000000000
H      -0.864022000000000      5.078590000000000      1.913326000000000
C       5.923354000000000     -1.915110000000000     -4.892820000000000
H       6.997815000000000     -2.051312000000000     -5.022864000000000
H       5.426283000000000     -2.886773000000000     -5.038533000000000
H       5.580321000000000     -1.235473000000000     -5.679552000000000
C       6.651692000000000     -1.598823000000000     -2.542068000000000
H       6.792324000000000     -0.709307000000000     -1.918774000000000
H       6.363871000000000     -2.432140000000000     -1.882335000000000
H       7.611591000000000     -1.833090000000000     -3.003960000000000
C       4.024500000000000     -5.172690000000000      0.575920000000000
H       3.001212000000000     -5.128195000000000      0.981494000000000
H       4.009407000000000     -4.734909000000000     -0.427257000000000
H       4.316017000000000     -6.219175000000000      0.475807000000000
C       5.693691000000000     -5.291340000000000      2.400277000000000
H       5.743701000000000     -6.323039000000000      2.049265000000000
H       6.721695000000000     -4.936340000000000      2.524192000000000
H       5.204671000000000     -5.279556000000000      3.386629000000000
C       0.749520000000000     -2.061802000000000      2.801471000000000
C      -0.649118000000000     -1.886313000000000      2.797935000000000
C      -1.609688000000000     -3.001840000000000      2.511878000000000
O      -1.888508000000000     -3.801187000000000      3.693198000000000
C      -2.704341000000000     -3.258807000000000      4.601034000000000
C      -2.885448000000000     -4.178131000000000      5.783575000000000
O      -3.224652000000000     -2.172221000000000      4.488035000000000
H       1.180743000000000     -3.030935000000000      2.553118000000000
H       1.380217000000000     -1.436967000000000      3.426801000000000
H      -1.071162000000000     -1.104809000000000      3.421891000000000
H      -1.187824000000000     -3.724839000000000      1.808544000000000
H      -2.562047000000000     -2.615655000000000      2.131596000000000
H      -1.924270000000000     -4.316374000000000      6.285758000000000
H      -3.225962000000000     -5.159516000000000      5.445416000000000
H      -3.606952000000000     -3.743341000000000      6.473880000000000
