93

P      -3.586367000000000     -0.661082000000000     -0.030088000000000
C      -4.678928000000000     -1.360494000000000      1.286561000000000
C      -4.212314000000000     -1.507013000000000     -1.539530000000000
C      -4.286687000000000      1.038429000000000     -0.253105000000000
C      -4.501009000000000     -2.699963000000000      1.696984000000000
C      -5.277837000000000     -3.233076000000000      2.731778000000000
C      -6.238333000000000     -2.451041000000000      3.365080000000000
C      -6.431929000000000     -1.131466000000000      2.966448000000000
C      -5.659324000000000     -0.602695000000000      1.936163000000000
C      -3.680780000000000     -1.136625000000000     -2.783904000000000
C      -4.089981000000000     -1.762835000000000     -3.957394000000000
C      -5.026840000000000     -2.788784000000000     -3.901901000000000
C      -5.568190000000000     -3.170346000000000     -2.680763000000000
C      -5.166248000000000     -2.526283000000000     -1.513740000000000
C      -4.146113000000000      1.987070000000000      0.776441000000000
C      -4.654134000000000      3.280485000000000      0.632981000000000
C      -5.313325000000000      3.648584000000000     -0.532058000000000
C      -5.474090000000000      2.720493000000000     -1.557350000000000
C      -4.969097000000000      1.432793000000000     -1.410236000000000
O      -3.625658000000000     -3.543830000000000      1.106777000000000
H      -5.111502000000000     -4.270364000000000      3.004498000000000
H      -6.837005000000000     -2.878160000000000      4.163965000000000
H      -7.181845000000000     -0.513199000000000      3.447835000000000
H      -5.832164000000000      0.421244000000000      1.627033000000000
O      -2.761542000000000     -0.127395000000000     -2.788471000000000
H      -3.659368000000000     -1.455243000000000     -4.907820000000000
H      -5.326132000000000     -3.289206000000000     -4.816825000000000
H      -6.298073000000000     -3.970416000000000     -2.629856000000000
H      -5.605137000000000     -2.822333000000000     -0.567572000000000
O      -3.610597000000000      1.678557000000000      1.981547000000000
H      -4.529125000000000      3.966181000000000      1.464749000000000
H      -5.707529000000000      4.654924000000000     -0.634650000000000
H      -6.001404000000000      2.989965000000000     -2.466289000000000
H      -5.131510000000000      0.716213000000000     -2.206298000000000
P      -0.318539000000000     -0.152056000000000      2.294546000000000
C       0.870736000000000     -1.243599000000000      3.165166000000000
C      -1.471787000000000      0.372453000000000      3.629839000000000
C       0.681797000000000      1.378156000000000      2.039867000000000
C       2.020342000000000     -1.684924000000000      2.483131000000000
C       2.940696000000000     -2.520834000000000      3.116321000000000
C       2.719339000000000     -2.935737000000000      4.422717000000000
C       1.579906000000000     -2.519068000000000      5.107731000000000
C       0.669323000000000     -1.676782000000000      4.479292000000000
C      -2.483040000000000     -0.505353000000000      4.060388000000000
C      -3.491602000000000     -0.065017000000000      4.918040000000000
C      -3.478439000000000      1.240212000000000      5.390603000000000
C      -2.452524000000000      2.107301000000000      5.025411000000000
C      -1.465776000000000      1.673271000000000      4.148234000000000
C       0.125241000000000      2.428511000000000      1.290450000000000
C       0.858293000000000      3.577652000000000      1.004451000000000
C       2.160171000000000      3.700776000000000      1.477593000000000
C       2.724985000000000      2.683603000000000      2.239666000000000
C       1.985864000000000      1.536269000000000      2.515530000000000
O       2.326142000000000     -1.269412000000000      1.227068000000000
H       3.818676000000000     -2.828646000000000      2.558450000000000
H       3.439195000000000     -3.588941000000000      4.906135000000000
H       1.402407000000000     -2.841284000000000      6.128106000000000
H      -0.209280000000000     -1.342117000000000      5.020230000000000
O      -2.410533000000000     -1.796797000000000      3.655058000000000
H      -4.277478000000000     -0.758283000000000      5.207447000000000
H      -4.268626000000000      1.575393000000000      6.055039000000000
H      -2.429144000000000      3.122716000000000      5.405617000000000
H      -0.683627000000000      2.361443000000000      3.844796000000000
O      -1.165335000000000      2.282679000000000      0.885502000000000
H       0.403111000000000      4.371425000000000      0.417194000000000
H       2.728028000000000      4.597456000000000      1.250772000000000
H       3.737184000000000      2.777184000000000      2.617239000000000
H       2.430562000000000      0.747133000000000      3.112726000000000
Rh     -1.172857000000000     -1.141451000000000      0.302426000000000
C      -0.525998000000000      0.193143000000000     -1.010049000000000
O      -0.140827000000000      0.989491000000000     -1.733769000000000
H      -1.602554000000000     -2.149194000000000      1.413946000000000
H      -2.847896000000000     -3.039627000000000      0.785569000000000
H      -2.441996000000000      0.025215000000000     -3.689928000000000
H      -2.832898000000000      1.102960000000000      1.869623000000000
H       1.500498000000000     -1.055855000000000      0.750300000000000
H      -3.276179000000000     -2.229540000000000      3.755017000000000
H      -1.469710000000000      3.065074000000000      0.401417000000000
C       0.182259000000000     -2.781097000000000     -0.142242000000000
C      -0.945901000000000     -2.906142000000000     -0.978362000000000
C      -0.764280000000000     -2.670399000000000     -2.451678000000000
O      -0.272892000000000     -3.865575000000000     -3.100887000000000
C      -1.204182000000000     -4.787986000000000     -3.393997000000000
C      -0.574673000000000     -6.008452000000000     -4.016585000000000
O      -2.383403000000000     -4.648281000000000     -3.177479000000000
H       1.121668000000000     -2.490866000000000     -0.609221000000000
H       0.297812000000000     -3.392302000000000      0.748372000000000
H      -1.716498000000000     -3.642582000000000     -0.754476000000000
H       0.013042000000000     -1.923022000000000     -2.632770000000000
H      -1.690118000000000     -2.382886000000000     -2.944935000000000
H       0.074450000000000     -6.493306000000000     -3.282482000000000
H       0.047037000000000     -5.718960000000000     -4.866851000000000
H      -1.356624000000000     -6.697491000000000     -4.332070000000000
