93

P       2.190389000000000      0.589715000000000      0.329615000000000
C       3.503855000000000      0.684021000000000     -0.950824000000000
C       3.154236000000000      0.156859000000000      1.835528000000000
C       1.852334000000000      2.375282000000000      0.610423000000000
C       4.001480000000000     -0.511096000000000     -1.489605000000000
C       5.001450000000000     -0.513893000000000     -2.449018000000000
C       5.524825000000000      0.700913000000000     -2.897175000000000
C       5.046934000000000      1.900351000000000     -2.372196000000000
C       4.046441000000000      1.888956000000000     -1.403181000000000
C       2.460294000000000     -0.152678000000000      3.009532000000000
C       3.131447000000000     -0.444763000000000      4.190667000000000
C       4.526794000000000     -0.443558000000000      4.210477000000000
C       5.237854000000000     -0.137608000000000      3.050019000000000
C       4.554354000000000      0.163295000000000      1.878700000000000
C       0.963116000000000      3.034795000000000     -0.252062000000000
C       0.706011000000000      4.389714000000000     -0.124347000000000
C       1.333056000000000      5.118141000000000      0.890252000000000
C       2.218594000000000      4.482054000000000      1.757565000000000
C       2.476876000000000      3.119843000000000      1.611606000000000
H       3.606745000000000     -1.466400000000000     -1.162654000000000
H       5.363452000000000     -1.447849000000000     -2.863627000000000
O       6.497154000000000      0.655339000000000     -3.846859000000000
H       5.454649000000000      2.847051000000000     -2.720361000000000
H       3.692250000000000      2.834570000000000     -1.005308000000000
H       1.373328000000000     -0.167164000000000      3.005987000000000
H       2.572608000000000     -0.686797000000000      5.091829000000000
O       5.243292000000000     -0.731741000000000      5.328603000000000
H       6.321931000000000     -0.143812000000000      3.085369000000000
H       5.120075000000000      0.404951000000000      0.983955000000000
H       0.458939000000000      2.467088000000000     -1.030381000000000
H       0.009767000000000      4.899982000000000     -0.780999000000000
O       1.033373000000000      6.440621000000000      0.985269000000000
H       2.713133000000000      5.049565000000000      2.543557000000000
H       3.179629000000000      2.642437000000000      2.288211000000000
P      -1.732936000000000      0.257646000000000      0.221900000000000
C      -2.820794000000000     -0.696853000000000      1.361641000000000
C      -2.830853000000000      0.464882000000000     -1.237764000000000
C      -1.793039000000000      1.925082000000000      0.986204000000000
C      -3.580447000000000     -0.110748000000000      2.381445000000000
C      -4.401055000000000     -0.879601000000000      3.198272000000000
C      -4.482484000000000     -2.257571000000000      3.000506000000000
C      -3.740761000000000     -2.858509000000000      1.982166000000000
C      -2.916748000000000     -2.080642000000000      1.179066000000000
C      -2.276689000000000      0.767164000000000     -2.489034000000000
C      -3.079310000000000      0.993319000000000     -3.598348000000000
C      -4.467018000000000      0.909667000000000     -3.475791000000000
C      -5.038186000000000      0.603458000000000     -2.240425000000000
C      -4.223354000000000      0.385844000000000     -1.134362000000000
C      -2.579332000000000      2.978898000000000      0.510604000000000
C      -2.562982000000000      4.222718000000000      1.133060000000000
C      -1.760600000000000      4.425161000000000      2.254341000000000
C      -0.979558000000000      3.378911000000000      2.752082000000000
C      -0.992559000000000      2.149171000000000      2.111794000000000
H      -3.533737000000000      0.962230000000000      2.542075000000000
H      -4.986230000000000     -0.431034000000000      3.993863000000000
O      -5.297653000000000     -2.963825000000000      3.827119000000000
H      -3.800643000000000     -3.933184000000000      1.825676000000000
H      -2.336279000000000     -2.556062000000000      0.392509000000000
H      -1.196367000000000      0.814838000000000     -2.593317000000000
H      -2.652636000000000      1.224474000000000     -4.568380000000000
O      -5.209337000000000      1.131159000000000     -4.591376000000000
H      -6.119365000000000      0.533759000000000     -2.143537000000000
H      -4.684461000000000      0.154335000000000     -0.178428000000000
H      -3.209560000000000      2.834508000000000     -0.361926000000000
H      -3.159092000000000      5.049318000000000      0.761609000000000
O      -1.771440000000000      5.658136000000000      2.824342000000000
H      -0.340093000000000      3.539381000000000      3.617234000000000
H      -0.354306000000000      1.349073000000000      2.481052000000000
Rh      0.348678000000000     -0.758371000000000     -0.215562000000000
C       0.310106000000000     -1.934049000000000      1.336871000000000
O       0.277114000000000     -2.613711000000000      2.258623000000000
H       0.421210000000000      0.212267000000000     -1.461937000000000
H       6.756916000000000      1.558650000000000     -4.077013000000000
H       1.566747000000000      6.838967000000000      1.687542000000000
H       4.635422000000000     -0.951317000000000      6.048908000000000
H      -5.253642000000000     -3.901798000000000      3.592813000000000
H      -6.147744000000000      1.035650000000000     -4.374785000000000
H      -1.143184000000000      5.669853000000000      3.560040000000000
C      -0.309750000000000     -2.217920000000000     -1.702171000000000
C       1.095407000000000     -2.271464000000000     -1.607082000000000
C       1.743672000000000     -3.458097000000000     -0.947352000000000
O       2.016068000000000     -4.507571000000000     -1.906474000000000
C       3.134051000000000     -4.368960000000000     -2.628539000000000
C       3.276541000000000     -5.485426000000000     -3.630532000000000
O       3.920383000000000     -3.460901000000000     -2.489557000000000
H      -0.894813000000000     -3.030886000000000     -1.275082000000000
H      -0.794364000000000     -1.696665000000000     -2.521810000000000
H       1.703259000000000     -1.774836000000000     -2.360259000000000
H       1.058837000000000     -3.922739000000000     -0.233647000000000
H       2.678645000000000     -3.210457000000000     -0.437767000000000
H       2.460897000000000     -5.425579000000000     -4.356062000000000
H       3.201099000000000     -6.451665000000000     -3.126620000000000
H       4.234620000000000     -5.394798000000000     -4.139906000000000
