113

P      -3.509352000000000     -0.837910000000000      0.541753000000000
C      -5.216679000000000     -0.673104000000000     -0.172665000000000
C      -4.005786000000000     -1.195863000000000      2.283348000000000
C      -2.938268000000000     -2.423482000000000     -0.225290000000000
C      -6.025336000000000      0.351258000000000      0.349628000000000
C      -7.337099000000000      0.529456000000000     -0.090629000000000
C      -7.861028000000000     -0.307703000000000     -1.070307000000000
C      -7.073919000000000     -1.323380000000000     -1.603874000000000
C      -5.768033000000000     -1.502484000000000     -1.152227000000000
C      -4.972547000000000     -2.163141000000000      2.600051000000000
C      -5.434413000000000     -2.304103000000000      3.908096000000000
C      -4.921485000000000     -1.489961000000000      4.917672000000000
C      -3.946299000000000     -0.544915000000000      4.622064000000000
C      -3.496352000000000     -0.403338000000000      3.310131000000000
C      -2.601029000000000     -3.606763000000000      0.453712000000000
C      -2.156547000000000     -4.730449000000000     -0.250357000000000
C      -2.017230000000000     -4.684381000000000     -1.633299000000000
C      -2.312813000000000     -3.512729000000000     -2.322914000000000
C      -2.758498000000000     -2.401697000000000     -1.613993000000000
O      -5.474332000000000      1.177557000000000      1.287015000000000
H      -7.933242000000000      1.335462000000000      0.325027000000000
H      -8.879770000000001     -0.161708000000000     -1.415558000000000
H      -7.476104000000000     -1.987711000000000     -2.362188000000000
H      -5.185874000000000     -2.328944000000000     -1.544906000000000
O      -5.402089000000000     -2.995650000000000      1.601548000000000
H      -6.176263000000000     -3.062509000000000      4.137903000000000
H      -5.284994000000000     -1.606987000000000      5.934256000000000
H      -3.537666000000000      0.094009000000000      5.398553000000000
H      -2.752194000000000      0.351888000000000      3.080672000000000
O      -2.679248000000000     -3.602889000000000      1.809180000000000
H      -1.905041000000000     -5.636265000000000      0.290559000000000
H      -1.666286000000000     -5.562974000000000     -2.165597000000000
H      -2.196486000000000     -3.458309000000000     -3.400030000000000
H      -2.996386000000000     -1.489054000000000     -2.156100000000000
P      -0.214281000000000      1.043142000000000      1.583541000000000
C       1.451305000000000      1.058898000000000      0.775146000000000
C       0.169952000000000     -0.279753000000000      2.815301000000000
C      -0.290942000000000      2.633455000000000      2.504791000000000
C       1.768353000000000     -0.070287000000000     -0.011786000000000
C       2.981543000000000     -0.150264000000000     -0.693685000000000
C       3.907450000000000      0.884460000000000     -0.571414000000000
C       3.633587000000000      1.981232000000000      0.234537000000000
C       2.412567000000000      2.058520000000000      0.905598000000000
C       1.162527000000000     -0.129764000000000      3.802657000000000
C       1.483673000000000     -1.187984000000000      4.651395000000000
C       0.817673000000000     -2.408459000000000      4.516349000000000
C      -0.152702000000000     -2.576364000000000      3.540380000000000
C      -0.461312000000000     -1.509898000000000      2.694593000000000
C      -0.733815000000000      2.725694000000000      3.832511000000000
C      -0.827670000000000      3.960762000000000      4.471512000000000
C      -0.537597000000000      5.129689000000000      3.771604000000000
C      -0.169896000000000      5.065743000000000      2.432639000000000
C      -0.055325000000000      3.823281000000000      1.812700000000000
O       0.834872000000000     -1.054877000000000     -0.025436000000000
H       3.210798000000000     -1.013122000000000     -1.307852000000000
H       4.850730000000000      0.817958000000000     -1.104842000000000
H       4.361982000000000      2.777550000000000      0.346226000000000
H       2.211063000000000      2.907884000000000      1.549018000000000
O       1.751975000000000      1.092770000000000      3.879630000000000
H       2.244693000000000     -1.073012000000000      5.414685000000000
H       1.074273000000000     -3.226380000000000      5.183173000000000
H      -0.670042000000000     -3.521719000000000      3.420053000000000
H      -1.199339000000000     -1.642185000000000      1.910595000000000
O      -1.111786000000000      1.565504000000000      4.446041000000000
H      -1.155128000000000      4.008254000000000      5.505051000000000
H      -0.626000000000000      6.088511000000000      4.273324000000000
H       0.017453000000000      5.961605000000000      1.851261000000000
H       0.217562000000000      3.798133000000000      0.762498000000000
Rh     -2.065486000000000      0.970489000000000      0.108278000000000
C      -1.129923000000000      0.245720000000000     -1.458161000000000
O      -0.589926000000000     -0.121752000000000     -2.400484000000000
H      -2.796848000000000      1.622919000000000      1.332764000000000
C      -6.197725000000000      1.336679000000000      2.494693000000000
H      21.179722000000002   -405.185874000000013    177.872764999999987
H      -6.440210000000000      0.358255000000000      2.929131000000000
H      -7.116839000000000      1.914666000000000      2.345280000000000
C      -6.807299000000000     -3.123672000000000      1.463358000000000
H      -7.277459000000000     -2.135740000000000      1.379712000000000
H      21.028701000000002   -405.906834000000003    177.850313999999997
H      -6.973939000000000     -3.678972000000000      0.539677000000000
C      -3.004324000000000     -4.811505000000000      2.462098000000000
H      -2.138759000000000     -5.482310000000000      2.527847000000000
H      -3.317331000000000     -4.528563000000000      3.469236000000000
H      -3.829451000000000     -5.316579000000000      1.948468000000000
C       1.059617000000000     -2.211831000000000     -0.799560000000000
H       1.949439000000000     -2.749535000000000     -0.450805000000000
H       0.173763000000000     -2.836170000000000     -0.664205000000000
H       1.169141000000000     -1.960608000000000     -1.861001000000000
C       2.887859000000000      1.236039000000000      4.699368000000000
H       3.252148000000000      2.249905000000000      4.532327000000000
H       2.637547000000000      1.111616000000000      5.760805000000000
H       3.666595000000000      0.514215000000000      4.426169000000000
C      -0.837559000000000      1.430814000000000      5.822633000000000
H      -1.580396000000000      1.952955000000000      6.438727000000000
H      -0.876706000000000      0.360064000000000      6.035849000000000
H       0.162660000000000      1.816003000000000      6.056282000000000
H      -5.536641000000000      1.879138000000000      3.171474000000000
H      -7.250516000000000     -3.675398000000000      2.300232000000000
C      -3.347091000000000      2.300717000000000     -1.025502000000000
C      -2.163166000000000      2.992225000000000     -0.684348000000000
C      -1.138320000000000      3.307482000000000     -1.737734000000000
O      -1.397111000000000      4.594862000000000     -2.353126000000000
C      -0.934135000000000      5.669726000000000     -1.709412000000000
C      -1.341560000000000      6.939204000000000     -2.414196000000000
O      -0.277554000000000      5.628472000000000     -0.694006000000000
H      -3.492347000000000      1.967063000000000     -2.052161000000000
H      -4.259445000000000      2.460362000000000     -0.460166000000000
H      -2.175092000000000      3.685970000000000      0.154521000000000
H      -1.204454000000000      2.601989000000000     -2.569075000000000
H      -0.115126000000000      3.313483000000000     -1.350735000000000
H      -2.428803000000000      7.044272000000000     -2.366296000000000
H      -1.060302000000000      6.889063000000000     -3.468444000000000
H      -0.864708000000000      7.791214000000000     -1.931959000000000
