147

P      -3.605028000000000     -0.728459000000000      0.775406000000000
C      -5.421451000000000     -0.498367000000000      0.598598000000000
C      -3.612252000000000     -2.321911000000000      1.704618000000000
C      -3.006352000000000     -1.165485000000000     -0.902349000000000
C      -6.165966000000000     -0.985291000000000     -0.476958000000000
C      -7.557414000000000     -0.836420000000000     -0.521460000000000
C      -8.199787000000001     -0.199722000000000      0.545215000000000
C      -7.469519000000000      0.271855000000000      1.630890000000000
C      -6.086546000000000      0.126785000000000      1.658393000000000
C      -2.835815000000000     -2.395344000000000      2.856096000000000
C      -2.733079000000000     -3.570424000000000      3.610353000000000
C      -3.511834000000000     -4.664327000000000      3.229226000000000
C      -4.328502000000000     -4.593074000000000      2.099571000000000
C      -4.366257000000000     -3.438970000000000      1.322924000000000
C      -1.913174000000000     -2.024561000000000     -1.011382000000000
C      -1.170362000000000     -2.108636000000000     -2.193488000000000
C      -1.574865000000000     -1.352458000000000     -3.297733000000000
C      -2.687774000000000     -0.519924000000000     -3.209081000000000
C      -3.389190000000000     -0.402974000000000     -2.012394000000000
H      -5.663798000000000     -1.467821000000000     -1.311113000000000
C      -8.331239000000000     -1.346533000000000     -1.679968000000000
H      -9.280932000000000     -0.097269000000000      0.532402000000000
H      -7.979721000000000      0.753001000000000      2.459409000000000
H      -5.515270000000000      0.498182000000000      2.506474000000000
H      -2.237408000000000     -1.532956000000000      3.137169000000000
C      -1.717138000000000     -3.637980000000000      4.687540000000000
H      -3.465992000000000     -5.581942000000000      3.809479000000000
H      -4.931703000000000     -5.451508000000000      1.818181000000000
H      -4.991274000000000     -3.398334000000000      0.434353000000000
H      -1.569519000000000     -2.577763000000000     -0.141267000000000
C       0.054432000000000     -2.943532000000000     -2.243245000000000
H      -1.009827000000000     -1.418563000000000     -4.223267000000000
H      -2.999862000000000      0.062444000000000     -4.071598000000000
H      -4.210834000000000      0.304642000000000     -1.933665000000000
P       0.027214000000000      0.397935000000000      1.891946000000000
C       1.013988000000000      1.550796000000000      0.843402000000000
C       0.942667000000000     -1.163614000000000      1.475839000000000
C       0.656780000000000      0.704912000000000      3.598337000000000
C       0.886536000000000      1.370116000000000     -0.538248000000000
C       1.608750000000000      2.145758000000000     -1.443745000000000
C       2.460219000000000      3.142054000000000     -0.944758000000000
C       2.587082000000000      3.333255000000000      0.424230000000000
C       1.875921000000000      2.534496000000000      1.323747000000000
C       0.365816000000000     -2.416478000000000      1.696376000000000
C       1.084585000000000     -3.599759000000000      1.479929000000000
C       2.401737000000000     -3.510365000000000      1.020496000000000
C       2.989886000000000     -2.271236000000000      0.802296000000000
C       2.272383000000000     -1.103909000000000      1.036363000000000
C       1.380620000000000     -0.247586000000000      4.315845000000000
C       1.838415000000000      0.011235000000000      5.615378000000000
C       1.552580000000000      1.252977000000000      6.190654000000000
C       0.803644000000000      2.199106000000000      5.496077000000000
C       0.344919000000000      1.925815000000000      4.212549000000000
H       0.240181000000000      0.578996000000000     -0.917776000000000
C       1.476557000000000      1.897329000000000     -2.899786000000000
H       3.005454000000000      3.776792000000000     -1.637373000000000
H       3.246874000000000      4.108188000000000      0.802234000000000
H       2.009043000000000      2.677350000000000      2.391433000000000
H      -0.651456000000000     -2.485208000000000      2.065569000000000
C       0.479304000000000     -4.934581000000000      1.708830000000000
H       2.953584000000000     -4.419596000000000      0.801623000000000
H       4.009990000000000     -2.212478000000000      0.435406000000000
H       2.752082000000000     -0.145433000000000      0.871678000000000
H       1.572928000000000     -1.221633000000000      3.877168000000000
C       2.607304000000000     -1.020176000000000      6.356697000000000
H       1.931311000000000      1.488625000000000      7.180663000000000
H       0.580181000000000      3.156090000000000      5.957257000000000
H      -0.249538000000000      2.660740000000000      3.674935000000000
Rh     -2.250320000000000      1.015955000000000      1.580372000000000
C      -2.814827000000000      1.059776000000000      3.464915000000000
O      -3.119566000000000      1.070739000000000      4.568897000000000
H      -1.789205000000000      0.997608000000000      0.087548000000000
C      -9.407945000000000     -0.615193000000000     -2.194364000000000
C      -8.000271000000000     -2.565300000000000     -2.283216000000000
C      -9.796554000000000     -2.304692000000000     -3.872843000000000
C      -8.725841000000001     -3.040397000000000     -3.370658000000000
C     -10.134835000000001     -1.090177000000000     -3.280922000000000
H      -9.656257999999999      0.346429000000000     -1.754495000000000
H     -10.961368999999999     -0.505256000000000     -3.672317000000000
H     -10.362984000000001     -2.675130000000000     -4.721352000000000
H      -8.458821000000000     -3.990971000000000     -3.821851000000000
H      -7.180615000000000     -3.154449000000000     -1.880823000000000
C       0.046117000000000     -4.254167000000000     -1.756914000000000
C       1.245093000000000     -2.417528000000000     -2.758694000000000
C       2.380874000000000     -4.500175000000000     -2.303638000000000
C       2.400198000000000     -3.192957000000000     -2.787195000000000
C       1.201097000000000     -5.029101000000000     -1.785116000000000
H      -0.877810000000000     -4.672126000000000     -1.367527000000000
H       1.176116000000000     -6.042640000000000     -1.394437000000000
H       3.284201000000000     -5.102531000000000     -2.326938000000000
H       3.319609000000000     -2.771272000000000     -3.181874000000000
H       1.264030000000000     -1.389684000000000     -3.116402000000000
C      -1.454714000000000     -2.524181000000000      5.495755000000000
C      -0.921514000000000     -4.780448000000000      4.832075000000000
C       0.390295000000000     -3.681910000000000      6.537659000000000
C       0.125981000000000     -4.798554000000000      5.748705000000000
C      -0.413063000000000     -2.549068000000000      6.415610000000000
H      -2.074015000000000     -1.635148000000000      5.405946000000000
H      -0.219412000000000     -1.675533000000000      7.030847000000000
H       1.222641000000000     -3.684449000000000      7.235962000000000
H       0.751086000000000     -5.683107000000000      5.826849000000000
H      -1.091452000000000     -5.640041000000000      4.188156000000000
C       0.232646000000000      1.571905000000000     -3.453782000000000
C       2.593034000000000      1.957139000000000     -3.742026000000000
C       1.228643000000000      1.375107000000000     -5.645494000000000
C       2.470813000000000      1.697532000000000     -5.103281000000000
C       0.111267000000000      1.314300000000000     -4.815957000000000
H      -0.645974000000000      1.532182000000000     -2.814573000000000
H      -0.863372000000000      1.073205000000000     -5.230850000000000
H       1.132419000000000      1.172996000000000     -6.707526000000000
H       3.348745000000000      1.738743000000000     -5.740539000000000
H       3.567779000000000      2.182882000000000     -3.318504000000000
C      -0.852029000000000     -5.202990000000000      1.374367000000000
C       1.251915000000000     -5.972034000000000      2.248892000000000
C      -0.600041000000000     -7.506887000000000      2.059819000000000
C       0.718864000000000     -7.243587000000000      2.427928000000000
C      -1.382148000000000     -6.480852000000000      1.536269000000000
H      -1.485321000000000     -4.411416000000000      0.979234000000000
H      -2.414526000000000     -6.667116000000000      1.256526000000000
H      -1.015385000000000     -8.501663000000001      2.186792000000000
H       1.332665000000000     -8.030054000000000      2.856300000000000
H       2.273800000000000     -5.767061000000000      2.554757000000000
C       2.516542000000000     -1.118193000000000      7.751116000000000
C       3.424523000000000     -1.933096000000000      5.678613000000000
C       4.025499000000000     -3.001719000000000      7.759423000000000
C       4.122922000000000     -2.915722000000000      6.372428000000000
C       3.220002000000000     -2.096336000000000      8.447100000000001
H       1.865271000000000     -0.439319000000000      8.294598000000001
H       3.129312000000000     -2.157860000000000      9.527199000000000
H       4.572488000000000     -3.767449000000000      8.300324000000000
H       4.751939000000000     -3.612308000000000      5.826934000000000
H       3.525411000000000     -1.864633000000000      4.599226000000000
C      -1.926250000000000      3.158737000000000      1.384719000000000
C      -3.203772000000000      2.838780000000000      0.881151000000000
C      -4.449702000000000      3.237829000000000      1.617002000000000
O      -4.878658000000000      4.565369000000000      1.232382000000000
C      -5.511840000000000      4.647008000000000      0.052182000000000
C      -5.885814000000000      6.074137000000000     -0.260509000000000
O      -5.742602000000000      3.698849000000000     -0.658951000000000
H      -1.855584000000000      3.669582000000000      2.344440000000000
H      -1.094937000000000      3.336730000000000      0.708243000000000
H      -3.340631000000000      2.753522000000000     -0.193801000000000
H      -4.266550000000000      3.312090000000000      2.692740000000000
H      -5.275061000000000      2.550504000000000      1.423090000000000
H      -4.976739000000000      6.672096000000000     -0.366323000000000
H      -6.465927000000000      6.497762000000000      0.562600000000000
H      -6.460213000000000      6.103083000000000     -1.185146000000000
