111

P      -3.291339000000000     -2.009793000000000      1.151274000000000
C      -4.246470000000000     -1.124343000000000     -0.160609000000000
C      -4.567667000000000     -3.144957000000000      1.830220000000000
C      -2.250472000000000     -3.157317000000000      0.142964000000000
C      -3.787217000000000      0.134911000000000     -0.564102000000000
C      -4.409293000000000      0.831804000000000     -1.602354000000000
C      -5.519051000000000      0.254835000000000     -2.233784000000000
C      -5.993973000000000     -0.982172000000000     -1.820598000000000
C      -5.367458000000000     -1.676664000000000     -0.786676000000000
C      -5.730202000000000     -2.559319000000000      2.350820000000000
C      -6.703801000000000     -3.339442000000000      2.966859000000000
C      -6.501341000000000     -4.724306000000000      3.079049000000000
C      -5.346677000000000     -5.300263000000000      2.575183000000000
C      -4.374486000000000     -4.518640000000000      1.944088000000000
C      -2.776000000000000     -3.831724000000000     -0.960148000000000
C      -1.972619000000000     -4.665557000000000     -1.744242000000000
C      -0.621184000000000     -4.817302000000000     -1.418888000000000
C      -0.097152000000000     -4.152142000000000     -0.314096000000000
C      -0.904306000000000     -3.335693000000000      0.472309000000000
H      -2.942337000000000      0.573147000000000     -0.045615000000000
S      -3.900678000000000      2.426472000000000     -2.168964000000000
H      -6.012798000000000      0.786955000000000     -3.041960000000000
H      -6.862512000000000     -1.412678000000000     -2.309403000000000
H      -5.757590000000000     -2.637985000000000     -0.465909000000000
H      -5.851351000000000     -1.482954000000000      2.266587000000000
S      -8.209258999999999     -2.695148000000000      3.641554000000000
H      -7.254240000000000     -5.339569000000000      3.563378000000000
H      -5.199431000000000     -6.372060000000000      2.665652000000000
H      -3.478132000000000     -4.983016000000000      1.545227000000000
H      -3.818292000000000     -3.695189000000000     -1.237238000000000
S      -2.761612000000000     -5.446939000000000     -3.126061000000000
H       0.027408000000000     -5.448094000000000     -2.016364000000000
H       0.953566000000000     -4.267082000000000     -0.065845000000000
H      -0.490688000000000     -2.826592000000000      1.334605000000000
P      -0.065199000000000     -0.093985000000000      2.492728000000000
C       0.178693000000000      1.727993000000000      2.626046000000000
C       0.734655000000000     -0.505752000000000      0.879776000000000
C       1.169640000000000     -0.721175000000000      3.704517000000000
C       0.227483000000000      2.559402000000000      1.511040000000000
C       0.265662000000000      3.953831000000000      1.659081000000000
C       0.253561000000000      4.510045000000000      2.937441000000000
C       0.214807000000000      3.672602000000000      4.052814000000000
C       0.177740000000000      2.292427000000000      3.911150000000000
C       0.002253000000000     -0.251710000000000     -0.283798000000000
C       0.524858000000000     -0.528091000000000     -1.546811000000000
C       1.784264000000000     -1.123125000000000     -1.647931000000000
C       2.508667000000000     -1.410809000000000     -0.494617000000000
C       1.997344000000000     -1.094074000000000      0.763067000000000
C       0.896529000000000     -1.917930000000000      4.370519000000000
C       1.812668000000000     -2.460803000000000      5.272584000000000
C       3.018716000000000     -1.791464000000000      5.504671000000000
C       3.294577000000000     -0.602594000000000      4.840086000000000
C       2.378676000000000     -0.060883000000000      3.940947000000000
H       0.249143000000000      2.138135000000000      0.508832000000000
S       0.349576000000000      4.896075000000000      0.159865000000000
H       0.282451000000000      5.584137000000000      3.079822000000000
H       0.217320000000000      4.107260000000000      5.047962000000000
H       0.158870000000000      1.657212000000000      4.794168000000000
H      -0.998960000000000      0.162920000000000     -0.205673000000000
S      -0.383029000000000     -0.082031000000000     -3.019012000000000
H       2.186796000000000     -1.353881000000000     -2.629144000000000
H       3.486452000000000     -1.876396000000000     -0.573755000000000
H       2.583019000000000     -1.312268000000000      1.650187000000000
H      -0.050594000000000     -2.406709000000000      4.179387000000000
S       1.527145000000000     -3.965918000000000      6.160941000000000
H       3.734840000000000     -2.199473000000000      6.212409000000000
H       4.232024000000000     -0.089236000000000      5.029898000000000
H       2.602094000000000      0.871149000000000      3.430080000000000
Rh     -2.294192000000000     -0.775342000000000      2.848216000000000
C      -3.103981000000000      0.969313000000000      2.519073000000000
O      -3.555004000000000      2.001770000000000      2.314889000000000
H      -1.660398000000000     -2.202972000000000      3.093315000000000
C      -2.417819000000000      2.755652000000000     -1.185565000000000
H      -2.636035000000000      2.778117000000000     -0.114275000000000
H      -1.634834000000000      2.027595000000000     -1.417476000000000
H      -2.073173000000000      3.746049000000000     -1.487123000000000
C      -1.367169000000000     -6.205383000000000     -3.992187000000000
H      -0.903922000000000     -6.996212000000000     -3.398384000000000
H      -1.782243000000000     -6.645726000000000     -4.900333000000000
H      -0.621638000000000     -5.456656000000000     -4.270663000000000
C      -8.082426999999999     -0.931843000000000      3.260446000000000
H      -7.233095000000000     -0.471475000000000      3.771029000000000
H      -8.010225000000000     -0.761464000000000      2.183713000000000
H      -9.003551000000000     -0.478495000000000      3.630343000000000
C       0.268887000000000      6.598835000000000      0.762144000000000
H      -0.653394000000000      6.778562000000000      1.319008000000000
H       1.136203000000000      6.847011000000000      1.377730000000000
H       0.275283000000000      7.231888000000000     -0.126750000000000
C      -1.604343000000000     -1.431434000000000     -3.056254000000000
H      -1.100841000000000     -2.400196000000000     -3.079549000000000
H      -2.270961000000000     -1.380071000000000     -2.193262000000000
H      -2.191690000000000     -1.299366000000000     -3.967638000000000
C      -0.149041000000000     -4.407951000000000      5.640224000000000
H      -0.867034000000000     -3.626359000000000      5.902235000000000
H      -0.197793000000000     -4.613943000000000      4.568115000000000
H      -0.401489000000000     -5.318023000000000      6.187115000000000
C      -3.519422000000000     -1.393917000000000      4.556325000000000
C      -2.443828000000000     -0.626328000000000      5.033772000000000
C      -2.683610000000000      0.770214000000000      5.545142000000000
O      -2.685024000000000      0.790015000000000      6.988969000000000
C      -1.472918000000000      0.822676000000000      7.560907000000000
C      -1.578779000000000      0.781517000000000      9.063027000000000
O      -0.435355000000000      0.871351000000000      6.941522000000000
H      -4.514703000000000     -0.954131000000000      4.526498000000000
H      -3.507030000000000     -2.478794000000000      4.597701000000000
H      -1.564172000000000     -1.110308000000000      5.453579000000000
H      -3.680577000000000      1.116834000000000      5.259262000000000
H      -1.938906000000000      1.487909000000000      5.198503000000000
H      -2.003596000000000     -0.178529000000000      9.368199000000001
H      -2.252443000000000      1.567108000000000      9.412573999999999
H      -0.588653000000000      0.904350000000000      9.498913999999999
