159

P      -2.847810000000000     -0.916197000000000     -0.248133000000000
C      -2.730678000000000     -2.597193000000000     -0.994253000000000
C      -3.716467000000000      0.069913000000000     -1.538859000000000
C      -4.212140000000000     -1.177953000000000      0.970453000000000
C      -1.805130000000000     -2.795170000000000     -2.026379000000000
C      -1.628847000000000     -4.043943000000000     -2.633619000000000
C      -2.413331000000000     -5.107087000000000     -2.171136000000000
C      -3.333218000000000     -4.925534000000000     -1.143476000000000
C      -3.499911000000000     -3.676753000000000     -0.550866000000000
C      -4.236253000000000      1.307922000000000     -1.147709000000000
C      -4.895912000000000      2.156700000000000     -2.040777000000000
C      -4.971161000000000      1.753402000000000     -3.378760000000000
C      -4.432361000000000      0.537283000000000     -3.788847000000000
C      -3.821266000000000     -0.317555000000000     -2.875698000000000
C      -3.884619000000000     -1.654559000000000      2.242388000000000
C      -4.866108000000000     -2.019236000000000      3.177358000000000
C      -6.202902000000000     -1.854367000000000      2.808135000000000
C      -6.546390000000000     -1.358558000000000      1.550968000000000
C      -5.562640000000000     -1.033610000000000      0.626026000000000
H      -1.223817000000000     -1.944033000000000     -2.371888000000000
C      -0.627149000000000     -4.209891000000000     -3.779135000000000
H      -2.301919000000000     -6.096044000000000     -2.602016000000000
H      -3.923315000000000     -5.767849000000000     -0.793892000000000
H      -4.220712000000000     -3.552706000000000      0.250994000000000
H      -4.150157000000000      1.602885000000000     -0.100914000000000
C      -5.515982000000000      3.456745000000000     -1.522617000000000
H      -5.457760000000000      2.385525000000000     -4.113252000000000
H      -4.496652000000000      0.244424000000000     -4.832368000000000
H      -3.418770000000000     -1.266336000000000     -3.212935000000000
H      -2.833151000000000     -1.767688000000000      2.501643000000000
C      -4.447969000000000     -2.595582000000000      4.532918000000000
H      -6.996498000000000     -2.111789000000000      3.500826000000000
H      -7.593343000000000     -1.240062000000000      1.287983000000000
H      -5.842669000000000     -0.678722000000000     -0.360508000000000
P      -0.251316000000000     -0.233515000000000      2.581302000000000
C      -0.302731000000000     -1.943113000000000      3.283560000000000
C      -1.142517000000000      0.788505000000000      3.832007000000000
C       1.502462000000000      0.209452000000000      2.920316000000000
C      -0.303666000000000     -3.023170000000000      2.395811000000000
C      -0.185730000000000     -4.346962000000000      2.833695000000000
C      -0.083364000000000     -4.567095000000000      4.211421000000000
C      -0.101598000000000     -3.504842000000000      5.111777000000000
C      -0.207828000000000     -2.194421000000000      4.655931000000000
C      -2.424317000000000      1.247887000000000      3.523360000000000
C      -3.171761000000000      2.032238000000000      4.414290000000000
C      -2.598616000000000      2.321617000000000      5.653758000000000
C      -1.316869000000000      1.874502000000000      5.978100000000000
C      -0.579781000000000      1.126775000000000      5.070330000000000
C       2.467729000000000     -0.750307000000000      3.207054000000000
C       3.820468000000000     -0.416905000000000      3.374620000000000
C       4.180829000000000      0.923591000000000      3.250913000000000
C       3.221694000000000      1.898631000000000      2.960362000000000
C       1.891490000000000      1.549872000000000      2.786724000000000
H      -0.392052000000000     -2.809751000000000      1.337233000000000
C      -0.234799000000000     -5.517438000000000      1.849648000000000
H      -0.003634000000000     -5.579479000000000      4.596354000000000
H      -0.031651000000000     -3.700246000000000      6.177792000000000
H      -0.215305000000000     -1.376046000000000      5.368980000000000
H      -2.846618000000000      0.987964000000000      2.554673000000000
C      -4.533797000000000      2.581970000000000      3.979337000000000
H      -3.139180000000000      2.919036000000000      6.379635000000000
H      -0.887589000000000      2.131398000000000      6.941819000000000
H       0.434500000000000      0.819484000000000      5.310992000000000
H       2.166901000000000     -1.789183000000000      3.302775000000000
C       4.817336000000000     -1.533517000000000      3.692476000000000
H       5.214141000000000      1.228429000000000      3.375242000000000
H       3.524814000000000      2.936954000000000      2.864690000000000
H       1.149925000000000      2.309748000000000      2.547661000000000
Rh     -0.792281000000000      0.109327000000000      0.336351000000000
C      -1.380433000000000      1.961056000000000      0.548414000000000
O      -1.608475000000000      3.076021000000000      0.685307000000000
H      -0.174707000000000     -1.322181000000000      0.143649000000000
C       0.660128000000000     -3.420503000000000     -3.487401000000000
H       1.077679000000000     -3.691840000000000     -2.510953000000000
H       1.409344000000000     -3.639213000000000     -4.256332000000000
H       0.480751000000000     -2.341994000000000     -3.505296000000000
C      -0.250171000000000     -5.681659000000000     -3.989899000000000
H       0.141559000000000     -6.129989000000000     -3.069637000000000
H      -1.101824000000000     -6.279007000000000     -4.330579000000000
H       0.524958000000000     -5.753143000000000     -4.759591000000000
C      -1.265208000000000     -3.666293000000000     -5.069602000000000
H      -1.489772000000000     -2.599960000000000     -4.971435000000000
H      -0.575196000000000     -3.793781000000000     -5.912709000000000
H      -2.190671000000000     -4.205289000000000     -5.300342000000000
C      -3.593792000000000     -3.850882000000000      4.288618000000000
H      -2.692395000000000     -3.617079000000000      3.713940000000000
H      -3.274620000000000     -4.285410000000000      5.243147000000000
H      -4.164289000000000     -4.607142000000000      3.737065000000000
C      -3.618487000000000     -1.561000000000000      5.309414000000000
H      -3.275980000000000     -1.992977000000000      6.257452000000000
H      -2.735977000000000     -1.248304000000000      4.746192000000000
H      -4.206830000000000     -0.664082000000000      5.532180000000000
C      -5.655360000000000     -2.987149000000000      5.390082000000000
H      -6.285311000000000     -2.120667000000000      5.620316000000000
H      -6.274034000000000     -3.745080000000000      4.897456000000000
H      -5.305818000000000     -3.405512000000000      6.339392000000000
C      -4.412155000000000      4.363506000000000     -0.955564000000000
H      -3.870819000000000      3.881743000000000     -0.137425000000000
H      -3.684074000000000      4.619428000000000     -1.733009000000000
H      -4.846898000000000      5.293282000000000     -0.570577000000000
C      -6.252916000000000      4.222993000000000     -2.625347000000000
H      -7.061534000000000      3.625888000000000     -3.060326000000000
H      -6.695307000000000      5.132104000000000     -2.205399000000000
H      -5.573362000000000      4.524087000000000     -3.429654000000000
C      -6.526102000000000      3.118428000000000     -0.411561000000000
H      -7.333452000000000      2.488936000000000     -0.801414000000000
H      -6.053639000000000      2.582523000000000      0.418425000000000
H      -6.968965000000000      4.037593000000000     -0.010630000000000
C       0.011939000000000     -5.055727000000000      0.407842000000000
H       0.017266000000000     -5.924772000000000     -0.259426000000000
H      -0.773026000000000     -4.381965000000000      0.051815000000000
H       0.977129000000000     -4.543809000000000      0.313377000000000
C       0.826722000000000     -6.569499000000000      2.205442000000000
H       1.829522000000000     -6.128996000000000      2.202251000000000
H       0.654423000000000     -7.019218000000000      3.187681000000000
H       0.806089000000000     -7.378580000000000      1.467620000000000
C      -1.635833000000000     -6.147432000000000      1.932983000000000
H      -2.400590000000000     -5.409747000000000      1.665754000000000
H      -1.716949000000000     -6.991830000000000      1.238142000000000
H      -1.847296000000000     -6.508986000000000      2.945795000000000
C      -5.463583000000000      1.436738000000000      3.551763000000000
H      -6.423979000000000      1.842678000000000      3.211899000000000
H      -5.040150000000000      0.851151000000000      2.728993000000000
H      -5.660164000000000      0.751062000000000      4.383081000000000
C      -5.218695000000000      3.374194000000000      5.096832000000000
H      -5.390075000000000      2.752545000000000      5.982503000000000
H      -4.629826000000000      4.248115000000000      5.394867000000000
H      -6.191635000000000      3.732412000000000      4.745617000000000
C      -4.317218000000000      3.514679000000000      2.776236000000000
H      -3.892554000000000      2.964701000000000      1.930112000000000
H      -5.270417000000000      3.949776000000000      2.452926000000000
H      -3.627128000000000      4.328894000000000      3.022115000000000
C       4.794855000000000     -2.574275000000000      2.559417000000000
H       5.066565000000000     -2.113149000000000      1.604194000000000
H       5.509862000000000     -3.377339000000000      2.771033000000000
H       3.804568000000000     -3.026985000000000      2.446457000000000
C       6.247388000000000     -1.004573000000000      3.836167000000000
H       6.327518000000000     -0.277174000000000      4.651042000000000
H       6.925218000000000     -1.834379000000000      4.060959000000000
H       6.594535000000000     -0.528984000000000      2.912692000000000
C       4.412545000000000     -2.211238000000000      5.013264000000000
H       5.112344000000000     -3.019881000000000      5.252715000000000
H       4.425005000000000     -1.490312000000000      5.837482000000000
H       3.407195000000000     -2.641074000000000      4.955256000000000
C       1.071379000000000      0.773400000000000     -0.545453000000000
C       0.175990000000000      0.420927000000000     -1.579774000000000
C      -0.504097000000000      1.447172000000000     -2.442121000000000
O       0.133489000000000      1.544345000000000     -3.741795000000000
C      -0.158874000000000      0.555686000000000     -4.588786000000000
C       0.558323000000000      0.722752000000000     -5.903157000000000
O      -0.902443000000000     -0.364502000000000     -4.322035000000000
H       1.270491000000000      1.823959000000000     -0.339121000000000
H       1.869675000000000      0.098221000000000     -0.252616000000000
H       0.306899000000000     -0.543911000000000     -2.061190000000000
H      -0.407527000000000      2.448083000000000     -2.012945000000000
H      -1.559570000000000      1.220651000000000     -2.611430000000000
H       1.635957000000000      0.638693000000000     -5.738500000000000
H       0.362665000000000      1.716046000000000     -6.313148000000000
H       0.227728000000000     -0.048979000000000     -6.596832000000000
