87

P      -1.714931000000000     -1.126589000000000     -0.701378000000000
C      -3.108476000000000     -0.750397000000000      0.454040000000000
C      -2.612526000000000     -1.932701000000000     -2.087523000000000
C      -1.361581000000000      0.548918000000000     -1.400709000000000
C      -2.798670000000000     -0.510662000000000      1.794581000000000
C      -3.808823000000000     -0.175886000000000      2.688074000000000
C      -5.135121000000000     -0.090441000000000      2.281972000000000
C      -5.429714000000000     -0.348907000000000      0.947152000000000
C      -4.438174000000000     -0.675536000000000      0.028238000000000
C      -2.909405000000000     -1.296515000000000     -3.294879000000000
C      -3.604054000000000     -1.978988000000000     -4.293880000000000
C      -4.016783000000000     -3.291282000000000     -4.089675000000000
C      -3.728244000000000     -3.930269000000000     -2.883886000000000
C      -3.022178000000000     -3.258428000000000     -1.893367000000000
C      -2.277917000000000      1.600606000000000     -1.328727000000000
C      -1.960688000000000      2.826324000000000     -1.908506000000000
C      -0.746020000000000      3.040630000000000     -2.546706000000000
C       0.154140000000000      1.980764000000000     -2.609793000000000
C      -0.139250000000000      0.745076000000000     -2.051029000000000
H      -1.777144000000000     -0.605533000000000      2.149117000000000
Br     -3.368168000000000      0.154386000000000      4.493657000000000
H      -5.918538000000000      0.162302000000000      2.985629000000000
Br     -7.227414000000000     -0.247995000000000      0.373083000000000
H      -4.702623000000000     -0.868101000000000     -1.006555000000000
H      -2.602106000000000     -0.269071000000000     -3.463721000000000
H      -3.824467000000000     -1.477428000000000     -5.230804000000000
H      -4.559728000000000     -3.818314000000000     -4.867737000000000
H      -4.046136000000000     -4.954904000000000     -2.719345000000000
H      -2.779688000000000     -3.761135000000000     -0.959651000000000
H      -3.232575000000000      1.483590000000000     -0.828456000000000
Br     -3.213425000000000      4.237808000000000     -1.828389000000000
H      -0.507009000000000      4.002526000000000     -2.983672000000000
Br      1.817269000000000      2.230088000000000     -3.466723000000000
H       0.587064000000000     -0.057271000000000     -2.106010000000000
P       1.656528000000000     -0.954715000000000      1.180432000000000
C       1.573276000000000      0.852513000000000      0.816334000000000
C       3.389206000000000     -1.368714000000000      0.707155000000000
C       1.759021000000000     -0.927092000000000      3.018193000000000
C       0.386485000000000      1.502575000000000      1.172213000000000
C       0.247692000000000      2.862146000000000      0.945625000000000
C       1.266518000000000      3.605904000000000      0.352967000000000
C       2.439858000000000      2.947599000000000      0.010859000000000
C       2.608800000000000      1.580851000000000      0.232850000000000
C       3.680514000000000     -1.511586000000000     -0.654026000000000
C       4.966793000000000     -1.848867000000000     -1.047042000000000
C       5.980706000000000     -2.062339000000000     -0.120104000000000
C       5.670482000000000     -1.923677000000000      1.224428000000000
C       4.393727000000000     -1.573981000000000      1.653624000000000
C       2.147688000000000      0.210199000000000      3.735868000000000
C       2.253099000000000      0.164249000000000      5.123385000000000
C       1.983883000000000     -1.017776000000000      5.808866000000000
C       1.610680000000000     -2.158097000000000      5.102546000000000
C       1.495767000000000     -2.110665000000000      3.716201000000000
H      -0.429298000000000      0.952436000000000      1.629560000000000
Br     -1.349551000000000      3.723954000000000      1.465309000000000
H       1.149627000000000      4.668087000000000      0.175593000000000
Br      3.857421000000000      3.941278000000000     -0.745264000000000
H       3.545168000000000      1.107360000000000     -0.040259000000000
H       2.905142000000000     -1.372431000000000     -1.401142000000000
Br      5.342137000000000     -2.065262000000000     -2.886482000000000
H       6.975741000000000     -2.347119000000000     -0.437644000000000
Br      7.021721000000000     -2.226133000000000      2.512201000000000
H       4.195688000000000     -1.470280000000000      2.714341000000000
H       2.371711000000000      1.135311000000000      3.213578000000000
H       2.548834000000000      1.055174000000000      5.668064000000000
H       2.065659000000000     -1.049959000000000      6.890585000000000
H       1.402282000000000     -3.084283000000000      5.628300000000000
H       1.206547000000000     -3.004501000000000      3.171187000000000
Rh      0.076023000000000     -2.337432000000000      0.149120000000000
C      -0.877862000000000     -3.106030000000000      1.670776000000000
O      -1.498105000000000     -3.580773000000000      2.506693000000000
H       0.753037000000000     -1.792083000000000     -1.165854000000000
C       0.090789000000000     -4.265890000000000     -0.902788000000000
C       1.346927000000000     -4.051995000000000     -0.311287000000000
C       1.803560000000000     -4.806571000000000      0.905412000000000
O       2.551072000000000     -5.983777000000000      0.538050000000000
C       3.828199000000000     -5.762342000000000      0.180181000000000
C       4.511090000000000     -7.046064000000000     -0.212386000000000
O       4.342902000000000     -4.669985000000000      0.176922000000000
H      -0.599200000000000     -4.976552000000000     -0.450872000000000
H      -0.061775000000000     -4.087357000000000     -1.962470000000000
H       2.166039000000000     -3.690889000000000     -0.929072000000000
H       0.953048000000000     -5.184129000000000      1.480795000000000
H       2.443125000000000     -4.188542000000000      1.543166000000000
H       4.015576000000000     -7.466768000000000     -1.091286000000000
H       4.427117000000000     -7.775837000000000      0.596207000000000
H       5.557514000000000     -6.844036000000000     -0.435134000000000
