111

P      -2.012958000000000      0.727406000000000      0.263897000000000
C      -2.976680000000000      1.988505000000000     -0.669077000000000
C      -3.314713000000000     -0.036579000000000      1.322670000000000
C      -1.752946000000000     -0.560756000000000     -1.025025000000000
C      -3.201872000000000      3.244660000000000     -0.091010000000000
C      -3.968098000000000      4.205048000000000     -0.754264000000000
C      -4.506035000000000      3.887416000000000     -2.004898000000000
C      -4.300156000000000      2.645333000000000     -2.598588000000000
C      -3.535691000000000      1.696434000000000     -1.914387000000000
C      -2.949661000000000     -1.099583000000000      2.159674000000000
C      -3.888674000000000     -1.725227000000000      2.971471000000000
C      -5.210851000000000     -1.282422000000000      2.973679000000000
C      -5.582909000000000     -0.223090000000000      2.152897000000000
C      -4.644172000000000      0.393222000000000      1.325485000000000
C      -0.736581000000000     -0.320501000000000     -1.951642000000000
C      -0.393729000000000     -1.266539000000000     -2.915225000000000
C      -1.090270000000000     -2.475539000000000     -2.932105000000000
C      -2.124314000000000     -2.736182000000000     -2.033181000000000
C      -2.458347000000000     -1.763769000000000     -1.086635000000000
H      -2.797140000000000      3.478679000000000      0.891637000000000
C      -4.201320000000000      5.570488000000000     -0.158999000000000
H      -5.104947000000000      4.633084000000000     -2.525834000000000
C      -4.869334000000000      2.328906000000000     -3.958767000000000
H      -3.384296000000000      0.719322000000000     -2.364558000000000
H      -1.920770000000000     -1.450037000000000      2.168256000000000
H      -3.586125000000000     -2.551480000000000      3.607528000000000
H      -5.944786000000000     -1.761004000000000      3.614484000000000
H      -6.610185000000000      0.128067000000000      2.149416000000000
H      -4.951271000000000      1.212044000000000      0.682578000000000
H      -0.174243000000000      0.609283000000000     -1.897014000000000
C       0.722991000000000     -0.997278000000000     -3.890889000000000
H      -0.807435000000000     -3.242155000000000     -3.652973000000000
C      -2.825700000000000     -4.070176000000000     -2.056307000000000
H      -3.264102000000000     -1.963189000000000     -0.384473000000000
P       1.847316000000000      0.198999000000000      0.487919000000000
C       2.906987000000000      0.941453000000000     -0.822942000000000
C       1.606698000000000     -1.532074000000000     -0.111083000000000
C       3.087859000000000     -0.050933000000000      1.831146000000000
C       4.250961000000000      0.563540000000000     -0.967548000000000
C       5.031964000000000      1.072944000000000     -2.000204000000000
C       4.449328000000000      1.974355000000000     -2.900177000000000
C       3.125096000000000      2.379032000000000     -2.773475000000000
C       2.364058000000000      1.859583000000000     -1.717640000000000
C       2.347692000000000     -2.129366000000000     -1.136651000000000
C       2.093766000000000     -3.443026000000000     -1.528339000000000
C       1.095909000000000     -4.166467000000000     -0.867587000000000
C       0.346450000000000     -3.599499000000000      0.159877000000000
C       0.610775000000000     -2.275619000000000      0.518815000000000
C       3.311026000000000     -1.285416000000000      2.443781000000000
C       4.203943000000000     -1.391276000000000      3.510937000000000
C       4.887507000000000     -0.270861000000000      3.969222000000000
C       4.676307000000000      0.964636000000000      3.356570000000000
C       3.779989000000000      1.074334000000000      2.300433000000000
H       4.691472000000000     -0.139024000000000     -0.263343000000000
C       6.478516000000000      0.675483000000000     -2.152016000000000
H       5.052812000000000      2.374582000000000     -3.713237000000000
C       2.500151000000000      3.350473000000000     -3.742160000000000
H       1.338071000000000      2.193417000000000     -1.584785000000000
H       3.115323000000000     -1.564364000000000     -1.657781000000000
C       2.864111000000000     -4.076156000000000     -2.659780000000000
H       0.890940000000000     -5.191627000000000     -1.173564000000000
C      -0.752802000000000     -4.357284000000000      0.857887000000000
H       0.012211000000000     -1.807177000000000      1.297550000000000
H       2.793217000000000     -2.171258000000000      2.088623000000000
H       4.366095000000000     -2.357607000000000      3.978596000000000
H       5.583284000000000     -0.356482000000000      4.797973000000000
H       5.209093000000000      1.844370000000000      3.704403000000000
H       3.617878000000000      2.038904000000000      1.825425000000000
Rh     -0.015741000000000      1.426464000000000      1.297335000000000
C      -0.092401000000000      0.385495000000000      2.955872000000000
O      -0.094387000000000     -0.247012000000000      3.910395000000000
H       0.051202000000000      2.273089000000000     -0.027867000000000
H      -5.249040000000000      5.868699000000000     -0.268032000000000
H      -3.595333000000000      6.321593000000000     -0.679011000000000
H      -3.934839000000000      5.596128000000000      0.898451000000000
H       0.333670000000000     -0.624833000000000     -4.845449000000000
H       1.291162000000000     -1.910149000000000     -4.097293000000000
H       1.416982000000000     -0.248520000000000     -3.494464000000000
H      -4.134353000000000      2.529504000000000     -4.746330000000000
H      -5.754020000000000      2.935886000000000     -4.169742000000000
H      -5.150324000000000      1.274635000000000     -4.034386000000000
H      -2.127053000000000     -4.874398000000000     -1.794960000000000
H      -3.225256000000000     -4.295213000000000     -3.050316000000000
H      -3.652805000000000     -4.098267000000000     -1.341795000000000
H       7.139434000000000      1.534146000000000     -1.993514000000000
H       6.678734000000000      0.291016000000000     -3.157279000000000
H       6.753883000000000     -0.097767000000000     -1.430660000000000
H       3.408158000000000     -4.964783000000000     -2.322906000000000
H       3.588772000000000     -3.376706000000000     -3.084942000000000
H       2.189508000000000     -4.393899000000000     -3.462954000000000
H       1.683332000000000      2.876139000000000     -4.296906000000000
H       3.231982000000000      3.717693000000000     -4.465993000000000
H       2.077452000000000      4.212094000000000     -3.215979000000000
H      -0.819889000000000     -5.388425000000000      0.500311000000000
H      -1.720998000000000     -3.870944000000000      0.685154000000000
H      -0.588589000000000     -4.383348000000000      1.940447000000000
C       1.008903000000000      3.120675000000000      2.195332000000000
C      -0.382337000000000      3.358513000000000      2.217230000000000
C      -1.160288000000000      3.258325000000000      3.498618000000000
O      -1.206125000000000      4.530031000000000      4.193423000000000
C      -2.101156000000000      5.407868000000000      3.735404000000000
C      -2.040958000000000      6.704378000000000      4.501141000000000
O      -2.858795000000000      5.181329000000000      2.819090000000000
H       1.520894000000000      2.835392000000000      3.113116000000000
H       1.632126000000000      3.622154000000000      1.460314000000000
H      -0.805631000000000      4.039673000000000      1.483304000000000
H      -0.664992000000000      2.590855000000000      4.207043000000000
H      -2.188100000000000      2.922763000000000      3.334431000000000
H      -1.065925000000000      7.172711000000000      4.342529000000000
H      -2.144522000000000      6.510475000000000      5.571147000000000
H      -2.833050000000000      7.366999000000000      4.155875000000000
