119

P      -3.101519000000000      0.547729000000000     -0.272376000000000
C      -4.734677000000000     -0.290362000000000     -0.061206000000000
C      -3.557404000000000      2.060351000000000     -1.208813000000000
C      -2.878090000000000      1.193143000000000      1.445819000000000
C      -4.715454000000000     -1.653444000000000      0.233169000000000
C      -5.893077000000000     -2.343654000000000      0.547215000000000
C      -7.092905000000000     -1.629323000000000      0.552666000000000
C      -7.144093000000000     -0.265395000000000      0.245722000000000
C      -5.954027000000000      0.392143000000000     -0.080316000000000
C      -4.153591000000000      1.896029000000000     -2.466659000000000
C      -4.445810000000000      2.998634000000000     -3.259823000000000
C      -4.127420000000000      4.282623000000000     -2.815615000000000
C      -3.521115000000000      4.452948000000000     -1.576111000000000
C      -3.239695000000000      3.347520000000000     -0.772156000000000
C      -3.939124000000000      1.841229000000000      2.085828000000000
C      -3.843509000000000      2.240356000000000      3.419294000000000
C      -2.638713000000000      2.020461000000000      4.095117000000000
C      -1.560670000000000      1.379742000000000      3.482209000000000
C      -1.689546000000000      0.977881000000000      2.142796000000000
H      -3.765536000000000     -2.179747000000000      0.224823000000000
C      -5.902670000000000     -3.780519000000000      0.875179000000000
H      -8.016152000000000     -2.148275000000000      0.803187000000000
C      -8.440557000000000      0.436813000000000      0.291189000000000
H      -5.980747000000000      1.440580000000000     -0.364827000000000
H      -4.388640000000000      0.894438000000000     -2.822723000000000
H      -4.915994000000000      2.857100000000000     -4.227969000000000
H      -4.349004000000000      5.144102000000000     -3.437641000000000
H      -3.267026000000000      5.448561000000000     -1.225726000000000
H      -2.772132000000000      3.492831000000000      0.197208000000000
H      -4.856643000000000      2.045748000000000      1.542898000000000
C      -4.991463000000000      2.841881000000000      4.123691000000000
H      -2.550300000000000      2.326624000000000      5.135706000000000
C      -0.333677000000000      1.126066000000000      4.260127000000000
H      -0.851565000000000      0.498611000000000      1.640785000000000
P      -0.338330000000000     -2.312380000000000     -0.009131000000000
C      -1.265979000000000     -3.287633000000000      1.259770000000000
C       1.140659000000000     -1.827160000000000      0.980908000000000
C       0.339048000000000     -3.621661000000000     -1.104926000000000
C      -1.137336000000000     -4.671473000000000      1.422248000000000
C      -1.831211000000000     -5.345095000000000      2.434251000000000
C      -2.637424000000000     -4.604013000000000      3.303805000000000
C      -2.792745000000000     -3.224189000000000      3.159081000000000
C      -2.091338000000000     -2.577599000000000      2.132174000000000
C       1.757461000000000     -0.601385000000000      0.740136000000000
C       2.874810000000000     -0.198982000000000      1.483155000000000
C       3.381269000000000     -1.070141000000000      2.448834000000000
C       2.777804000000000     -2.304824000000000      2.713340000000000
C       1.661046000000000     -2.677859000000000      1.960319000000000
C      -0.552395000000000     -4.485242000000000     -1.759216000000000
C      -0.093688000000000     -5.376755000000000     -2.721124000000000
C       1.261079000000000     -5.404769000000000     -3.057513000000000
C       2.148442000000000     -4.545186000000000     -2.420242000000000
C       1.692522000000000     -3.660559000000000     -1.442466000000000
H      -0.493766000000000     -5.241131000000000      0.756742000000000
C      -1.702544000000000     -6.810627000000000      2.535256000000000
H      -3.162398000000000     -5.108946000000000      4.110807000000000
C      -3.692432000000000     -2.496881000000000      4.072538000000000
H      -2.184128000000000     -1.500190000000000      2.022249000000000
H       1.367642000000000      0.042491000000000     -0.040770000000000
C       3.499040000000000      1.121291000000000      1.281890000000000
H       4.249588000000000     -0.769417000000000      3.032340000000000
C       3.316504000000000     -3.164892000000000      3.783802000000000
H       1.202021000000000     -3.646557000000000      2.134067000000000
H      -1.612546000000000     -4.459179000000000     -1.513502000000000
H      -0.794155000000000     -6.042343000000000     -3.215984000000000
H       1.617053000000000     -6.089909000000000     -3.820489000000000
H       3.198713000000000     -4.538732000000000     -2.692529000000000
H       2.393412000000000     -2.974816000000000     -0.976865000000000
Rh     -1.407002000000000     -0.637019000000000     -1.300449000000000
C      -2.567178000000000     -1.850339000000000     -2.305844000000000
O      -3.286422000000000     -2.521297000000000     -2.891397000000000
H      -0.550526000000000      0.429233000000000     -0.519676000000000
C      -4.854476000000000     -4.604752000000000      0.839704000000000
H      -6.872775000000000     -4.175907000000000      1.172778000000000
H      -3.857938000000000     -4.278218000000000      0.552019000000000
H      -4.956169000000000     -5.651450000000000      1.107925000000000
C      -6.270379000000000      2.626081000000000      3.810984000000000
H      -4.749309000000000      3.475370000000000      4.975752000000000
H      -6.561598000000000      1.960581000000000      3.001261000000000
H      -7.071893000000000      3.095870000000000      4.370718000000000
C      -8.615705000000000      1.758257000000000      0.341089000000000
H      -9.316846999999999     -0.209604000000000      0.307607000000000
H      -7.782698000000000      2.455942000000000      0.356271000000000
H      -9.610374999999999      2.188958000000000      0.374135000000000
C       0.528124000000000      0.135311000000000      4.030948000000000
H      -0.165852000000000      1.796554000000000      5.101725000000000
H       0.379022000000000     -0.589664000000000      3.234887000000000
H       1.408662000000000      0.001394000000000      4.650441000000000
C      -2.544720000000000     -7.626517000000000      3.170630000000000
H      -0.849888000000000     -7.238599000000000      2.010129000000000
H      -3.432038000000000     -7.261117000000000      3.679748000000000
H      -2.377479000000000     -8.697768000000000      3.190867000000000
C       2.887826000000000      2.183706000000000      0.756821000000000
H       4.528625000000000      1.213788000000000      1.624304000000000
H       1.848172000000000      2.152371000000000      0.440321000000000
H       3.407601000000000      3.128270000000000      0.639749000000000
C      -4.200596000000000     -1.282749000000000      3.856701000000000
H      -3.964692000000000     -3.034423000000000      4.979647000000000
H      -3.993028000000000     -0.716061000000000      2.953139000000000
H      -4.861606000000000     -0.814176000000000      4.578756000000000
C       2.639144000000000     -4.119632000000000      4.422475000000000
H       4.347279000000000     -2.963299000000000      4.071788000000000
H       1.596633000000000     -4.334488000000000      4.203274000000000
H       3.106917000000000     -4.711270000000000      5.201768000000000
C      -0.938970000000000      0.638145000000000     -2.998294000000000
C       0.076599000000000     -0.331248000000000     -2.889927000000000
C       0.172846000000000     -1.462043000000000     -3.875989000000000
O       1.065239000000000     -1.127259000000000     -4.966105000000000
C       2.373679000000000     -1.234099000000000     -4.699809000000000
C       3.200473000000000     -0.859472000000000     -5.904428000000000
O       2.824280000000000     -1.581480000000000     -3.633478000000000
H      -1.687895000000000      0.543029000000000     -3.782863000000000
H      -0.784898000000000      1.652362000000000     -2.642817000000000
H       1.025498000000000     -0.062740000000000     -2.431455000000000
H      -0.791300000000000     -1.636718000000000     -4.361189000000000
H       0.530030000000000     -2.388257000000000     -3.421463000000000
H       3.005022000000000      0.182687000000000     -6.169972000000000
H       2.914147000000000     -1.477033000000000     -6.759099000000000
H       4.256352000000000     -0.994989000000000     -5.675299000000000
