111

P      -1.501742000000000     -0.616205000000000      0.448372000000000
C      -1.683993000000000      1.222405000000000      0.477786000000000
C      -1.487037000000000     -1.049999000000000      2.233240000000000
C      -3.228995000000000     -1.090843000000000     -0.017265000000000
C      -2.123386000000000      1.941114000000000      1.588661000000000
C      -2.127773000000000      3.338616000000000      1.572865000000000
C      -1.743966000000000      4.034971000000000      0.430793000000000
C      -1.384291000000000      3.317429000000000     -0.711446000000000
C      -1.328910000000000      1.924949000000000     -0.677960000000000
C      -2.188520000000000     -2.171499000000000      2.687496000000000
C      -2.119092000000000     -2.552058000000000      4.025068000000000
C      -1.360144000000000     -1.809417000000000      4.925990000000000
C      -0.653148000000000     -0.696885000000000      4.477753000000000
C      -0.698544000000000     -0.327939000000000      3.136462000000000
C      -3.433851000000000     -2.013780000000000     -1.037819000000000
C      -4.724212000000000     -2.401958000000000     -1.407067000000000
C      -5.832342000000000     -1.865967000000000     -0.759921000000000
C      -5.632539000000000     -0.940619000000000      0.267384000000000
C      -4.344527000000000     -0.557999000000000      0.636700000000000
H      -2.408218000000000      1.432973000000000      2.503584000000000
C      -2.409424000000000      4.080666000000000      2.830645000000000
H      -1.696640000000000      5.119899000000000      0.428664000000000
C      -0.902171000000000      4.071543000000000     -1.904525000000000
H      -0.965063000000000      1.388633000000000     -1.549815000000000
H      -2.797003000000000     -2.749219000000000      1.996953000000000
H      -2.670476000000000     -3.423311000000000      4.364162000000000
H      -1.325223000000000     -2.095231000000000      5.972695000000000
H      -0.065448000000000     -0.098172000000000      5.166904000000000
H      -0.147838000000000      0.554912000000000      2.817771000000000
H      -2.589361000000000     -2.451921000000000     -1.557268000000000
C      -4.846326000000000     -3.407728000000000     -2.498136000000000
H      -6.835211000000000     -2.162358000000000     -1.044856000000000
C      -6.772461000000000     -0.329637000000000      1.006773000000000
H      -4.237905000000000      0.161595000000000      1.444613000000000
P       2.173225000000000     -0.267604000000000     -0.882886000000000
C       3.412588000000000     -0.889256000000000      0.348898000000000
C       2.074265000000000      1.549534000000000     -0.527530000000000
C       3.163993000000000     -0.272864000000000     -2.430978000000000
C       3.050822000000000     -1.000694000000000      1.698008000000000
C       3.906061000000000     -1.609814000000000      2.614866000000000
C       5.109484000000000     -2.178123000000000      2.197468000000000
C       5.458130000000000     -2.096513000000000      0.857597000000000
C       4.630489000000000     -1.438119000000000     -0.053228000000000
C       1.716583000000000      1.995882000000000      0.749827000000000
C       1.519738000000000      3.350789000000000      1.010294000000000
C       1.715964000000000      4.298935000000000      0.006458000000000
C       2.032447000000000      3.860336000000000     -1.274543000000000
C       2.174295000000000      2.498381000000000     -1.549049000000000
C       2.786111000000000     -1.106036000000000     -3.484457000000000
C       3.544819000000000     -1.160516000000000     -4.654219000000000
C       4.690062000000000     -0.383570000000000     -4.776598000000000
C       5.082509000000000      0.448451000000000     -3.726904000000000
C       4.326256000000000      0.502823000000000     -2.563538000000000
H       2.077043000000000     -0.668070000000000      2.044356000000000
C       3.545212000000000     -1.739027000000000      4.052472000000000
H       5.736307000000000     -2.694581000000000      2.915647000000000
C       6.680044000000000     -2.752331000000000      0.313751000000000
H       4.950366000000000     -1.424480000000000     -1.089478000000000
H       1.539615000000000      1.296135000000000      1.561123000000000
C       0.895716000000000      3.745796000000000      2.306666000000000
H       1.540732000000000      5.350830000000000      0.198559000000000
C       2.066608000000000      4.820062000000000     -2.411672000000000
H       2.359375000000000      2.201616000000000     -2.576658000000000
H       1.899043000000000     -1.722959000000000     -3.384029000000000
H       3.236853000000000     -1.813047000000000     -5.464751000000000
H       5.282910000000000     -0.426225000000000     -5.684658000000000
H       5.981623000000000      1.049632000000000     -3.814314000000000
H       4.642992000000000      1.145251000000000     -1.745142000000000
Rh      0.204227000000000     -1.562118000000000     -0.817961000000000
C      -0.525613000000000     -1.149900000000000     -2.607028000000000
O      -0.951836000000000     -0.900277000000000     -3.637550000000000
H       0.748354000000000     -1.897000000000000      0.607474000000000
O      -1.998369000000000      5.194562000000000      3.084732000000000
O      -3.155626000000000      3.381996000000000      3.692033000000000
H      -3.241043000000000      3.923491000000000      4.496532000000000
O      -3.908830000000000     -3.929119000000000     -3.052002000000000
O      -6.123786000000000     -3.688764000000000     -2.810844000000000
H      -6.092721000000000     -4.349663000000000     -3.524564000000000
O      -0.733143000000000      5.270157000000000     -1.917977000000000
O      -0.614553000000000      3.274088000000000     -2.939901000000000
H      -0.082232000000000      3.793446000000000     -3.576410000000000
O      -6.656253000000000      0.467337000000000      1.905110000000000
O      -7.969229000000000     -0.761457000000000      0.568319000000000
H      -8.639153000000000     -0.306403000000000      1.107832000000000
O       4.214597000000000     -2.307192000000000      4.880378000000000
O       2.371071000000000     -1.151048000000000      4.349876000000000
H       2.207257000000000     -1.326861000000000      5.292428000000000
O       0.532760000000000      2.960128000000000      3.155668000000000
O       0.696287000000000      5.063960000000000      2.385458000000000
H       0.024888000000000      5.236979000000000      3.075099000000000
O       7.051407000000000     -2.661563000000000     -0.830794000000000
O       7.345920000000000     -3.459033000000000      1.242215000000000
H       8.097011000000000     -3.870797000000000      0.781641000000000
O       1.855393000000000      4.514191000000000     -3.567872000000000
O       2.333700000000000      6.071946000000000     -2.033997000000000
H       2.227963000000000      6.632437000000000     -2.823113000000000
C      -0.244778000000000     -3.712878000000000     -0.762376000000000
C       0.987514000000000     -3.529844000000000     -1.414047000000000
C       2.309267000000000     -3.829368000000000     -0.774690000000000
O       2.618389000000000     -5.223205000000000     -0.990737000000000
C       3.857598000000000     -5.593541000000000     -0.637672000000000
C       4.081732000000000     -7.061009000000000     -0.899031000000000
O       4.676758000000000     -4.837570000000000     -0.170898000000000
H      -0.265200000000000     -4.044254000000000      0.272862000000000
H      -1.122375000000000     -3.973825000000000     -1.347086000000000
H       0.997359000000000     -3.625710000000000     -2.499521000000000
H       2.299448000000000     -3.633912000000000      0.303665000000000
H       3.116219000000000     -3.238852000000000     -1.218917000000000
H       3.921268000000000     -7.275767000000000     -1.958395000000000
H       3.359284000000000     -7.650691000000000     -0.329290000000000
H       5.096790000000000     -7.328535000000000     -0.609914000000000
