103

P      -1.729583000000000      1.224924000000000      0.487439000000000
C      -1.197671000000000      2.955609000000000      0.134714000000000
C      -2.480050000000000      1.482250000000000      2.150048000000000
C      -3.199029000000000      0.909795000000000     -0.575056000000000
C      -1.427835000000000      3.570502000000000     -1.088860000000000
C      -0.885555000000000      4.837989000000000     -1.353001000000000
C      -0.164433000000000      5.498362000000000     -0.359934000000000
C       0.085693000000000      4.872956000000000      0.862317000000000
C      -0.440054000000000      3.607312000000000      1.116021000000000
C      -2.242760000000000      0.587196000000000      3.193692000000000
C      -2.839328000000000      0.779962000000000      4.441235000000000
C      -3.679690000000000      1.867141000000000      4.651358000000000
C      -3.923272000000000      2.767913000000000      3.613062000000000
C      -3.325223000000000      2.579225000000000      2.373209000000000
C      -4.418721000000000      0.535848000000000     -0.013342000000000
C      -5.411550000000000     -0.042838000000000     -0.819046000000000
C      -5.188279000000000     -0.199218000000000     -2.186660000000000
C      -3.977594000000000      0.194741000000000     -2.758099000000000
C      -2.983926000000000      0.751198000000000     -1.946147000000000
H      -2.024693000000000      3.092426000000000     -1.857522000000000
N      -1.082988000000000      5.411842000000000     -2.610331000000000
H       0.293711000000000      6.462758000000000     -0.572566000000000
N       0.974773000000000      5.481440000000000      1.775639000000000
H      -0.248605000000000      3.132464000000000      2.074850000000000
H      -1.581555000000000     -0.257456000000000      3.026764000000000
H      -2.642771000000000      0.077786000000000      5.245679000000000
H      -4.144861000000000      2.017420000000000      5.620898000000000
H      -4.579125000000000      3.618314000000000      3.772251000000000
H      -3.513445000000000      3.282525000000000      1.565826000000000
H      -4.585676000000000      0.610956000000000      1.056642000000000
N      -6.619018000000000     -0.478298000000000     -0.265190000000000
H      -5.952694000000000     -0.668488000000000     -2.800507000000000
N      -3.755616000000000      0.049747000000000     -4.130495000000000
H      -2.023950000000000      1.004168000000000     -2.388679000000000
P       1.890063000000000      0.364173000000000      0.042366000000000
C       1.986300000000000      1.928500000000000     -0.935044000000000
C       3.194825000000000     -0.644840000000000     -0.778797000000000
C       2.703543000000000      0.859307000000000      1.620620000000000
C       1.445609000000000      1.922242000000000     -2.226194000000000
C       1.491167000000000      3.077717000000000     -3.006012000000000
C       2.099707000000000      4.231369000000000     -2.505099000000000
C       2.605014000000000      4.253092000000000     -1.206138000000000
C       2.565628000000000      3.084557000000000     -0.428307000000000
C       4.207579000000000     -0.067124000000000     -1.544924000000000
C       5.196501000000000     -0.881918000000000     -2.112167000000000
C       5.157397000000000     -2.262872000000000     -1.903503000000000
C       4.141312000000000     -2.840733000000000     -1.139055000000000
C       3.151573000000000     -2.022530000000000     -0.577899000000000
C       1.906892000000000      1.259831000000000      2.698531000000000
C       2.486740000000000      1.733125000000000      3.872754000000000
C       3.873105000000000      1.796570000000000      3.990280000000000
C       4.674693000000000      1.384473000000000      2.928751000000000
C       4.095006000000000      0.922858000000000      1.749203000000000
H       0.972400000000000      1.028680000000000     -2.623799000000000
N       0.823142000000000      3.130211000000000     -4.245613000000000
H       2.093592000000000      5.143677000000000     -3.099773000000000
N       3.153728000000000      5.410649000000000     -0.652157000000000
H       2.968768000000000      3.118813000000000      0.578881000000000
H       4.240911000000000      1.008342000000000     -1.698659000000000
N       6.248629000000000     -0.310278000000000     -2.830928000000000
H       5.922724000000000     -2.895439000000000     -2.348262000000000
N       4.072317000000000     -4.226305000000000     -0.992267000000000
H       2.337591000000000     -2.457637000000000     -0.004275000000000
H       0.826601000000000      1.182135000000000      2.620381000000000
H       1.852824000000000      2.036866000000000      4.700885000000000
H       4.327298000000000      2.157535000000000      4.908048000000000
H       5.756163000000000      1.423590000000000      3.015388000000000
H       4.728938000000000      0.614248000000000      0.923099000000000
Rh     -0.243807000000000     -0.632359000000000      0.205325000000000
C      -0.407330000000000     -0.935224000000000     -1.719393000000000
O      -0.441898000000000     -1.186875000000000     -2.838768000000000
H       0.006871000000000     -0.552108000000000      1.751242000000000
H      -0.451084000000000      6.180456000000000     -2.800119000000000
H      -1.029758000000000      4.724836000000000     -3.358119000000000
H      -6.889110000000000     -1.381503000000000     -0.643114000000000
H      -6.572866000000000     -0.544705000000000      0.745441000000000
H       0.959496000000000      5.034867000000000      2.686621000000000
H       0.809393000000000      6.477225000000000      1.881667000000000
H      -4.327324000000000     -0.668094000000000     -4.558610000000000
H      -2.778952000000000     -0.084761000000000     -4.365323000000000
H       1.286104000000000      3.727841000000000     -4.921829000000000
H       0.670550000000000      2.212038000000000     -4.648413000000000
H       6.032292000000000      0.596896000000000     -3.223907000000000
H       6.663055000000000     -0.921227000000000     -3.523041000000000
H       2.907028000000000      5.509832000000000      0.331067000000000
H       2.914154000000000      6.252081000000000     -1.162858000000000
H       3.548044000000000     -4.530048000000000     -0.181769000000000
H       4.963268000000000     -4.701642000000000     -1.055493000000000
C      -0.212512000000000     -2.758472000000000      0.589272000000000
C      -1.538221000000000     -2.272073000000000      0.734248000000000
C      -2.612207000000000     -2.590386000000000     -0.266158000000000
O      -3.285754000000000     -3.800028000000000      0.171448000000000
C      -4.581670000000000     -3.937243000000000     -0.119190000000000
C      -5.116856000000000     -5.235575000000000      0.434644000000000
O      -5.240652000000000     -3.134403000000000     -0.740350000000000
H       0.040325000000000     -3.343761000000000     -0.294078000000000
H       0.375792000000000     -2.993344000000000      1.470827000000000
H      -1.927645000000000     -2.127671000000000      1.740606000000000
H      -2.188668000000000     -2.796969000000000     -1.256053000000000
H      -3.356673000000000     -1.797066000000000     -0.359719000000000
H      -4.965423000000000     -5.266056000000000      1.516428000000000
H      -4.565141000000000     -6.073931000000000      0.002122000000000
H      -6.176393000000000     -5.322968000000000      0.198623000000000
