167

P      -1.899372000000000     -1.543160000000000      1.035742000000000
C      -1.870624000000000      0.258985000000000      1.426980000000000
C      -2.407769000000000     -2.257016000000000      2.652137000000000
C      -3.461338000000000     -1.546854000000000      0.049970000000000
C      -0.668921000000000      0.955487000000000      1.501038000000000
C      -0.657495000000000      2.337822000000000      1.746610000000000
C      -1.873823000000000      3.002733000000000      1.909383000000000
C      -3.094555000000000      2.320630000000000      1.844690000000000
C      -3.075487000000000      0.944776000000000      1.618430000000000
C      -2.476736000000000     -1.498073000000000      3.825091000000000
C      -2.827243000000000     -2.100235000000000      5.032208000000000
C      -3.117397000000000     -3.460599000000000      5.082325000000000
C      -3.048156000000000     -4.226150000000000      3.920128000000000
C      -2.688593000000000     -3.627126000000000      2.716898000000000
C      -4.633264000000000     -2.207410000000000      0.405213000000000
C      -5.791252000000000     -2.073520000000000     -0.377360000000000
C      -5.759208000000000     -1.252362000000000     -1.505500000000000
C      -4.590437000000000     -0.576952000000000     -1.878721000000000
C      -3.447995000000000     -0.751775000000000     -1.099478000000000
H       0.263195000000000      0.428381000000000      1.312460000000000
C       0.620516000000000      3.086342000000000      1.782127000000000
H      -1.872131000000000      4.077767000000000      2.067198000000000
C      -4.387733000000000      3.035760000000000      1.974873000000000
H      -4.014525000000000      0.398787000000000      1.593346000000000
H      -2.254879000000000     -0.436166000000000      3.804226000000000
H      -2.873654000000000     -1.498819000000000      5.935033000000000
H      -3.389343000000000     -3.924655000000000      6.025475000000000
H      -3.249804000000000     -5.291724000000000      3.934346000000000
H      -2.622741000000000     -4.246318000000000      1.828180000000000
H      -4.662915000000000     -2.833322000000000      1.291922000000000
C      -7.037788000000000     -2.782032000000000      0.006119000000000
H      -6.660026000000000     -1.130113000000000     -2.100996000000000
C      -4.557306000000000      0.351120000000000     -3.035799000000000
H      -2.542434000000000     -0.210535000000000     -1.364792000000000
P       1.710361000000000     -1.365719000000000     -0.962762000000000
C       3.283495000000000     -1.549917000000000     -0.024445000000000
C       1.700498000000000      0.462745000000000     -1.199441000000000
C       2.239567000000000     -1.940268000000000     -2.641726000000000
C       4.349150000000000     -2.321219000000000     -0.479145000000000
C       5.555051000000000     -2.374363000000000      0.235437000000000
C       5.678869000000000     -1.625384000000000      1.406255000000000
C       4.613228000000000     -0.855444000000000      1.886801000000000
C       3.414110000000000     -0.844440000000000      1.174911000000000
C       0.496766000000000      1.079238000000000     -1.536322000000000
C       0.437301000000000      2.456308000000000     -1.774204000000000
C       1.606957000000000      3.211769000000000     -1.647205000000000
C       2.825202000000000      2.620142000000000     -1.300995000000000
C       2.856577000000000      1.238408000000000     -1.094017000000000
C       3.060986000000000     -1.157392000000000     -3.463396000000000
C       3.513049000000000     -1.645347000000000     -4.685558000000000
C       3.153659000000000     -2.924226000000000     -5.107379000000000
C       2.336276000000000     -3.709903000000000     -4.301814000000000
C       1.881864000000000     -3.219096000000000     -3.078884000000000
H       4.252970000000000     -2.894432000000000     -1.396840000000000
C       6.685240000000000     -3.192660000000000     -0.268969000000000
H       6.619753000000000     -1.631005000000000      1.950422000000000
C       4.756629000000000     -0.006953000000000      3.094960000000000
H       2.598005000000000     -0.213716000000000      1.521988000000000
H      -0.406949000000000      0.476734000000000     -1.612939000000000
C      -0.853908000000000      3.105276000000000     -2.106892000000000
H       1.546530000000000      4.291623000000000     -1.752126000000000
C       4.061203000000000      3.422699000000000     -1.126873000000000
H       3.805019000000000      0.763845000000000     -0.864527000000000
H       3.347628000000000     -0.158106000000000     -3.151291000000000
H       4.144911000000000     -1.022283000000000     -5.311048000000000
H       3.506366000000000     -3.303055000000000     -6.061578000000000
H       2.046282000000000     -4.705633000000000     -4.622209000000000
H       1.246914000000000     -3.839565000000000     -2.455300000000000
Rh     -0.074395000000000     -2.524889000000000      0.014615000000000
C      -1.015151000000000     -2.905883000000000     -1.653542000000000
O      -1.618055000000000     -3.026547000000000     -2.619711000000000
H       0.576357000000000     -2.049897000000000      1.380586000000000
C       1.760997000000000      2.522836000000000      2.366388000000000
C       0.711099000000000      4.369756000000000      1.232486000000000
C       3.038514000000000      4.502966000000000      1.859182000000000
C       1.911567000000000      5.072645000000000      1.272324000000000
C       2.962091000000000      3.223090000000000      2.406385000000000
H       1.695015000000000      1.541422000000000      2.828969000000000
H       3.835162000000000      2.768719000000000      2.868868000000000
H       3.980210000000000      5.043520000000000      1.867580000000000
H       1.973039000000000      6.060707000000000      0.825717000000000
H      -0.154392000000000      4.797756000000000      0.732152000000000
C      -7.404370000000000     -2.903238000000000      1.351713000000000
C      -7.871638000000000     -3.340820000000000     -0.969171000000000
C      -9.396925000000000     -4.115696000000000      0.732468000000000
C      -9.041589000000000     -4.001718000000000     -0.609372000000000
C      -8.573741000000000     -3.564660000000000      1.711595000000000
H      -6.777738000000000     -2.456776000000000      2.118696000000000
H      -8.845390000000000     -3.643658000000000      2.759621000000000
H     -10.309130000000000     -4.632378000000000      1.013622000000000
H      -9.671984000000000     -4.436790000000000     -1.378691000000000
H      -7.584220000000000     -3.278161000000000     -2.014929000000000
C      -5.497418000000000      2.629944000000000      1.221350000000000
C      -4.528728000000000      4.125420000000000      2.840783000000000
C      -6.839762000000000      4.383365000000000      2.193976000000000
C      -5.743926000000000      4.794040000000000      2.949020000000000
C      -6.712290000000000      3.298092000000000      1.330136000000000
H      -5.399503000000000      1.795382000000000      0.530079000000000
H      -7.559138000000000      2.972708000000000      0.733906000000000
H      -7.787590000000000      4.905325000000000      2.278882000000000
H      -5.836874000000000      5.633241000000000      3.631354000000000
H      -3.685029000000000      4.435536000000000      3.450679000000000
C      -5.657331000000000      1.164095000000000     -3.330709000000000
C      -3.403137000000000      0.472435000000000     -3.819466000000000
C      -4.448041000000000      2.193819000000000     -5.147056000000000
C      -3.347283000000000      1.388738000000000     -4.863229000000000
C      -5.604602000000000      2.076160000000000     -4.380290000000000
H      -6.548932000000000      1.102074000000000     -2.712346000000000
H      -6.464214000000000      2.705636000000000     -4.589948000000000
H      -4.401662000000000      2.914212000000000     -5.957845000000000
H      -2.440633000000000      1.475834000000000     -5.453511000000000
H      -2.548809000000000     -0.168387000000000     -3.616526000000000
C       7.515955000000000     -3.889790000000000      0.615452000000000
C       6.942442000000000     -3.280668000000000     -1.642526000000000
C       8.824503999999999     -4.733453000000000     -1.227865000000000
C       8.002909000000001     -4.044990000000000     -2.117353000000000
C       8.577201000000001     -4.653403000000000      0.140348000000000
H       7.310048000000000     -3.852247000000000      1.681425000000000
H       9.206401000000000     -5.194539000000000      0.840157000000000
H       9.651818000000000     -5.330018000000000     -1.599005000000000
H       8.192059000000000     -4.097018000000000     -3.185029000000000
H       6.317854000000000     -2.728710000000000     -2.339939000000000
C      -0.921261000000000      4.131687000000000     -3.056377000000000
C      -2.032124000000000      2.701078000000000     -1.469037000000000
C      -3.304123000000000      4.323596000000000     -2.719062000000000
C      -3.247764000000000      3.307080000000000     -1.769649000000000
C      -2.137540000000000      4.733619000000000     -3.362183000000000
H      -0.016409000000000      4.439177000000000     -3.573930000000000
H      -2.175840000000000      5.520085000000000     -4.109937000000000
H      -4.254567000000000      4.788384000000000     -2.961879000000000
H      -4.150167000000000      2.983502000000000     -1.259413000000000
H      -1.989941000000000      1.922410000000000     -0.712941000000000
C       3.720719000000000      0.079195000000000      4.032666000000000
C       5.913364000000000      0.755177000000000      3.297057000000000
C       4.986113000000000      1.676448000000000      5.326693000000000
C       6.027546000000000      1.590269000000000      4.405102000000000
C       3.833047000000000      0.916999000000000      5.137977000000000
H       2.828605000000000     -0.527571000000000      3.896233000000000
H       3.019664000000000      0.974335000000000      5.854444000000000
H       5.071618000000000      2.332874000000000      6.186609000000000
H       6.926804000000000      2.182709000000000      4.542835000000000
H       6.715289000000000      0.708169000000000      2.564760000000000
C       4.267955000000000      4.601655000000000     -1.850244000000000
C       5.043202000000000      3.023300000000000     -0.209652000000000
C       6.380013000000000      4.962048000000000     -0.738067000000000
C       6.191105000000000      3.782937000000000     -0.018995000000000
C       5.413811000000000      5.367399000000000     -1.654999000000000
H       3.532928000000000      4.913729000000000     -2.586549000000000
H       5.555331000000000      6.278610000000000     -2.227965000000000
H       7.273756000000000      5.558870000000000     -0.585842000000000
H       6.932439000000000      3.460520000000000      0.706224000000000
H       4.882403000000000      2.134193000000000      0.395219000000000
C       1.219717000000000     -4.308061000000000      0.390490000000000
C      -0.073912000000000     -4.594205000000000      0.832098000000000
C      -0.931877000000000     -5.533473000000000      0.026770000000000
O      -0.728641000000000     -6.905186000000000      0.435129000000000
C      -1.426926000000000     -7.315593000000000      1.500915000000000
C      -1.085487000000000     -8.738832000000000      1.858009000000000
O      -2.223727000000000     -6.625293000000000      2.092920000000000
H       1.584627000000000     -4.755776000000000     -0.531518000000000
H       1.991952000000000     -3.995661000000000      1.085853000000000
H      -0.315981000000000     -4.519417000000000      1.889864000000000
H      -0.629187000000000     -5.518903000000000     -1.023463000000000
H      -1.999397000000000     -5.308820000000000      0.095755000000000
H      -0.035951000000000     -8.794090000000001      2.158970000000000
H      -1.213900000000000     -9.383312999999999      0.985429000000000
H      -1.725119000000000     -9.071109999999999      2.674094000000000
