87

P      -2.032877000000000      0.345818000000000     -0.278852000000000
C      -2.802688000000000      1.031875000000000      1.260366000000000
C      -3.476798000000000     -0.251026000000000     -1.260133000000000
C      -1.700882000000000      1.877367000000000     -1.258191000000000
C      -3.517318000000000      0.243532000000000      2.174637000000000
C      -3.978047000000000      0.751934000000000      3.386352000000000
C      -3.716174000000000      2.073368000000000      3.726912000000000
C      -2.992550000000000      2.875869000000000      2.852024000000000
C      -2.545632000000000      2.357240000000000      1.642257000000000
C      -4.797493000000000      0.111794000000000     -0.980333000000000
C      -5.834216000000000     -0.315149000000000     -1.804881000000000
C      -5.562760000000000     -1.102894000000000     -2.921227000000000
C      -4.248973000000000     -1.459567000000000     -3.212253000000000
C      -3.211384000000000     -1.036814000000000     -2.385360000000000
C      -0.458707000000000      2.044450000000000     -1.866361000000000
C      -0.196143000000000      3.164782000000000     -2.656216000000000
C      -1.181046000000000      4.126284000000000     -2.845282000000000
C      -2.435419000000000      3.960652000000000     -2.254948000000000
C      -2.695804000000000      2.841385000000000     -1.475120000000000
Br     -3.919004000000000     -1.581468000000000      1.834127000000000
H      -4.533446000000000      0.104200000000000      4.054902000000000
H      -4.071950000000000      2.465115000000000      4.674244000000000
H      -2.766392000000000      3.905493000000000      3.109192000000000
H      -1.965313000000000      2.992366000000000      0.981680000000000
H      -5.023066000000000      0.719248000000000     -0.107303000000000
H      -6.856658000000000     -0.034641000000000     -1.570933000000000
H      -6.373520000000000     -1.439343000000000     -3.559938000000000
H      -4.025799000000000     -2.076290000000000     -4.077117000000000
H      -2.187344000000000     -1.321454000000000     -2.612700000000000
H       0.300349000000000      1.283491000000000     -1.728933000000000
H       0.779712000000000      3.277839000000000     -3.118164000000000
H      -0.980867000000000      4.999965000000000     -3.457978000000000
H      -3.213235000000000      4.701650000000000     -2.411482000000000
H      -3.678998000000000      2.713269000000000     -1.029133000000000
P       1.906245000000000     -0.297758000000000      0.121209000000000
C       2.220587000000000      1.530765000000000      0.011858000000000
C       2.978648000000000     -0.910454000000000     -1.252108000000000
C       2.917886000000000     -0.749005000000000      1.592745000000000
C       1.653882000000000      2.427404000000000      0.928119000000000
C       1.755786000000000      3.806277000000000      0.772215000000000
C       2.450138000000000      4.328621000000000     -0.313073000000000
C       3.056081000000000      3.465474000000000     -1.219356000000000
C       2.939292000000000      2.088272000000000     -1.055025000000000
C       4.272775000000000     -1.394886000000000     -1.038248000000000
C       5.031486000000000     -1.878357000000000     -2.103896000000000
C       4.515660000000000     -1.867133000000000     -3.395660000000000
C       3.232331000000000     -1.371771000000000     -3.621519000000000
C       2.467613000000000     -0.906804000000000     -2.557188000000000
C       2.722587000000000     -2.013498000000000      2.156044000000000
C       3.492479000000000     -2.434227000000000      3.237327000000000
C       4.460721000000000     -1.589752000000000      3.773278000000000
C       4.661518000000000     -0.327699000000000      3.218595000000000
C       3.898749000000000      0.089734000000000      2.131410000000000
Br      0.745669000000000      1.813285000000000      2.476264000000000
H       1.295672000000000      4.459220000000000      1.505413000000000
H       2.523185000000000      5.404071000000000     -0.437611000000000
H       3.619616000000000      3.858980000000000     -2.059495000000000
H       3.412160000000000      1.430976000000000     -1.776769000000000
H       4.692283000000000     -1.406359000000000     -0.037444000000000
H       6.029249000000000     -2.263887000000000     -1.918597000000000
H       5.107226000000000     -2.246299000000000     -4.223045000000000
H       2.817909000000000     -1.363372000000000     -4.624812000000000
H       1.454890000000000     -0.555572000000000     -2.736059000000000
H       1.962659000000000     -2.669198000000000      1.740286000000000
H       3.328933000000000     -3.418948000000000      3.663701000000000
H       5.055813000000000     -1.912141000000000      4.621930000000000
H       5.414012000000000      0.335959000000000      3.633065000000000
H       4.068300000000000      1.073477000000000      1.702596000000000
Rh     -0.299200000000000     -1.193810000000000      0.058718000000000
C      -0.497706000000000     -1.318946000000000      2.014145000000000
O      -0.616281000000000     -1.368945000000000      3.148727000000000
H      -0.192606000000000     -1.080031000000000     -1.510755000000000
C      -1.307814000000000     -3.074102000000000     -0.343673000000000
C       0.068164000000000     -3.348250000000000     -0.227071000000000
C       0.909631000000000     -3.672266000000000     -1.429019000000000
O       0.793542000000000     -5.076000000000000     -1.766067000000000
C      -0.175617000000000     -5.402490000000000     -2.633700000000000
C      -0.233565000000000     -6.896851000000000     -2.831240000000000
O      -0.903290000000000     -4.608792000000000     -3.181128000000000
H      -1.769363000000000     -3.059979000000000     -1.325187000000000
H      -1.977501000000000     -3.316812000000000      0.475811000000000
H       0.417236000000000     -3.812466000000000      0.695352000000000
H       1.974937000000000     -3.524014000000000     -1.237263000000000
H       0.609943000000000     -3.079175000000000     -2.294385000000000
H      -0.553835000000000     -7.370338000000000     -1.899064000000000
H       0.758751000000000     -7.282961000000000     -3.074513000000000
H      -0.940494000000000     -7.130186000000000     -3.625983000000000
