93

P      -3.662010000000000     -1.576118000000000      1.268423000000000
C      -3.307693000000000     -0.050116000000000      2.237855000000000
C      -4.354289000000000     -2.664135000000000      2.588204000000000
C      -5.181665000000000     -1.080335000000000      0.355454000000000
C      -2.142425000000000     -0.048030000000000      3.011180000000000
C      -1.808385000000000      1.060595000000000      3.774737000000000
C      -2.621807000000000      2.194898000000000      3.771656000000000
C      -3.775202000000000      2.201763000000000      2.999515000000000
C      -4.121641000000000      1.082932000000000      2.239304000000000
C      -4.652350000000000     -2.218055000000000      3.879416000000000
C      -5.189891000000000     -3.094258000000000      4.821418000000000
C      -5.446147000000000     -4.419106000000000      4.482289000000000
C      -5.161697000000000     -4.869929000000000      3.194709000000000
C      -4.614658000000000     -4.000000000000000      2.258018000000000
C      -6.458404000000000     -1.205833000000000      0.914788000000000
C      -7.579194000000000     -0.757450000000000      0.219953000000000
C      -7.437783000000000     -0.171140000000000     -1.035174000000000
C      -6.170862000000000     -0.040338000000000     -1.598322000000000
C      -5.050777000000000     -0.499069000000000     -0.910651000000000
H      -1.485426000000000     -0.913986000000000      2.998112000000000
C      -0.591147000000000      1.027448000000000      4.652142000000000
H      -2.338467000000000      3.064790000000000      4.355641000000000
H      -4.405128000000000      3.084366000000000      2.974796000000000
H      -5.024112000000000      1.105219000000000      1.636574000000000
H      -4.469509000000000     -1.184424000000000      4.156273000000000
H      -5.409264000000000     -2.735413000000000      5.822201000000000
H      -5.863933000000000     -5.099043000000000      5.218014000000000
H      -5.357664000000000     -5.902029000000000      2.921544000000000
H      -4.384326000000000     -4.354817000000000      1.257122000000000
H      -6.579732000000000     -1.651838000000000      1.897522000000000
H      -8.564223999999999     -0.865689000000000      0.663211000000000
H      -8.312438999999999      0.179288000000000     -1.574157000000000
H      -6.051736000000000      0.412762000000000     -2.577402000000000
H      -4.066357000000000     -0.413933000000000     -1.361646000000000
P       0.043607000000000     -1.354062000000000     -0.030001000000000
C      -0.088367000000000      0.395759000000000      0.539522000000000
C       0.825773000000000     -1.120900000000000     -1.678776000000000
C       1.454852000000000     -1.954141000000000      0.988380000000000
C      -1.189629000000000      1.141461000000000      0.106927000000000
C      -1.333049000000000      2.468005000000000      0.490805000000000
C      -0.387707000000000      3.075467000000000      1.317029000000000
C       0.708291000000000      2.340183000000000      1.749336000000000
C       0.860564000000000      1.008767000000000      1.360309000000000
C       1.272272000000000      0.119698000000000     -2.145867000000000
C       1.869761000000000      0.222965000000000     -3.400958000000000
C       2.034685000000000     -0.907555000000000     -4.196329000000000
C       1.601607000000000     -2.148956000000000     -3.734633000000000
C       0.999741000000000     -2.251238000000000     -2.484621000000000
C       2.770143000000000     -1.995144000000000      0.515548000000000
C       3.804125000000000     -2.415551000000000      1.350395000000000
C       3.539619000000000     -2.784103000000000      2.666233000000000
C       2.232859000000000     -2.739414000000000      3.148071000000000
C       1.198649000000000     -2.336291000000000      2.310421000000000
H      -1.946081000000000      0.673614000000000     -0.517105000000000
C      -2.486155000000000      3.275005000000000     -0.030871000000000
H      -0.522501000000000      4.106902000000000      1.626989000000000
H       1.442464000000000      2.796344000000000      2.404639000000000
H       1.720416000000000      0.446709000000000      1.711136000000000
H       1.157880000000000      1.010284000000000     -1.536231000000000
H       2.206464000000000      1.192814000000000     -3.754338000000000
H       2.497480000000000     -0.820691000000000     -5.174652000000000
H       1.708715000000000     -3.043911000000000     -4.338066000000000
H       0.663931000000000     -3.224699000000000     -2.145709000000000
H       2.989943000000000     -1.697402000000000     -0.505067000000000
H       4.819901000000000     -2.449683000000000      0.968934000000000
H       4.347970000000000     -3.107109000000000      3.314651000000000
H       2.015869000000000     -3.023237000000000      4.172908000000000
H       0.181037000000000     -2.314732000000000      2.691274000000000
Rh     -1.957971000000000     -2.565235000000000     -0.016784000000000
C      -1.501609000000000     -3.940823000000000      1.297737000000000
O      -1.229749000000000     -4.728866000000000      2.081090000000000
H      -2.272081000000000     -1.446109000000000     -1.085002000000000
F      -0.905049000000000      0.696288000000000      5.915018000000000
F       0.014539000000000      2.225013000000000      4.708799000000000
F       0.315515000000000      0.133568000000000      4.229110000000000
F      -2.917916000000000      4.170310000000000      0.873446000000000
F      -3.532283000000000      2.506069000000000     -0.369898000000000
F      -2.143867000000000      3.971465000000000     -1.126359000000000
C      -3.227154000000000     -3.781222000000000     -1.322818000000000
C      -1.892812000000000     -3.893971000000000     -1.756084000000000
C      -1.149514000000000     -5.182230000000000     -1.526030000000000
O      -1.324816000000000     -6.091487000000000     -2.637074000000000
C      -0.533137000000000     -5.885792000000000     -3.696390000000000
C      -0.844453000000000     -6.857840000000000     -4.804555000000000
O       0.316712000000000     -5.026858000000000     -3.747286000000000
H      -3.684221000000000     -4.625804000000000     -0.810287000000000
H      -3.927240000000000     -3.127574000000000     -1.833913000000000
H      -1.554958000000000     -3.313446000000000     -2.611685000000000
H      -1.568618000000000     -5.720884000000000     -0.672542000000000
H      -0.077292000000000     -5.038264000000000     -1.368668000000000
H      -1.860576000000000     -6.679821000000000     -5.166494000000000
H      -0.802865000000000     -7.881520000000000     -4.425648000000000
H      -0.131353000000000     -6.722857000000000     -5.616215000000000
