93

P       1.628595000000000      0.187109000000000      1.047046000000000
C       2.694562000000000      0.169095000000000     -0.466402000000000
C       2.887229000000000      0.472417000000000      2.360146000000000
C       0.849439000000000      1.852672000000000      0.924460000000000
C       4.006761000000000      0.654166000000000     -0.469689000000000
C       4.761470000000000      0.647222000000000     -1.639379000000000
C       4.207098000000000      0.156266000000000     -2.817150000000000
C       2.905580000000000     -0.338110000000000     -2.830921000000000
C       2.160000000000000     -0.335786000000000     -1.658269000000000
C       3.192861000000000      1.742120000000000      2.862957000000000
C       4.184566000000000      1.892597000000000      3.830383000000000
C       4.878203000000000      0.781479000000000      4.303007000000000
C       4.574950000000000     -0.486783000000000      3.813014000000000
C       3.584217000000000     -0.638753000000000      2.847408000000000
C      -0.271338000000000      2.125616000000000      1.717889000000000
C      -0.854217000000000      3.389444000000000      1.706666000000000
C      -0.329369000000000      4.396419000000000      0.897971000000000
C       0.779657000000000      4.131309000000000      0.099852000000000
C       1.367630000000000      2.867467000000000      0.112715000000000
H       4.445214000000000      1.038391000000000      0.446317000000000
H       5.781948000000000      1.015480000000000     -1.634419000000000
C       4.995724000000000      0.202321000000000     -4.094409000000000
H       2.486698000000000     -0.740635000000000     -3.747369000000000
H       1.156686000000000     -0.755244000000000     -1.664530000000000
H       2.659033000000000      2.616150000000000      2.502880000000000
H       4.410437000000000      2.881905000000000      4.216443000000000
H       5.645168000000000      0.902234000000000      5.061864000000000
H       5.077480000000000     -1.367281000000000      4.197596000000000
H       3.329901000000000     -1.635598000000000      2.495498000000000
H      -0.693405000000000      1.335322000000000      2.332959000000000
H      -1.733177000000000      3.584455000000000      2.313656000000000
H      -0.797602000000000      5.375132000000000      0.875053000000000
H       1.188731000000000      4.908116000000000     -0.539102000000000
H       2.235927000000000      2.678004000000000     -0.511349000000000
P      -1.737443000000000     -1.410258000000000      0.064360000000000
C      -2.261341000000000      0.305591000000000     -0.359853000000000
C      -3.247371000000000     -2.040814000000000      0.910966000000000
C      -1.838266000000000     -2.270033000000000     -1.562471000000000
C      -1.429653000000000      1.067474000000000     -1.189000000000000
C      -1.718970000000000      2.396421000000000     -1.467613000000000
C      -2.838543000000000      2.985272000000000     -0.888391000000000
C      -3.686269000000000      2.241267000000000     -0.074556000000000
C      -3.404317000000000      0.903056000000000      0.180629000000000
C      -4.284227000000000     -2.674828000000000      0.219436000000000
C      -5.429778000000000     -3.091839000000000      0.894426000000000
C      -5.558326000000000     -2.869294000000000      2.262407000000000
C      -4.534229000000000     -2.229939000000000      2.958155000000000
C      -3.383340000000000     -1.825565000000000      2.288109000000000
C      -2.355611000000000     -1.691097000000000     -2.725015000000000
C      -2.403973000000000     -2.419276000000000     -3.913290000000000
C      -1.952616000000000     -3.734901000000000     -3.949741000000000
C      -1.453580000000000     -4.327015000000000     -2.790639000000000
C      -1.392531000000000     -3.597613000000000     -1.608558000000000
H      -0.527988000000000      0.626471000000000     -1.606432000000000
H      -1.054571000000000      2.984479000000000     -2.090518000000000
C      -3.133645000000000      4.442100000000000     -1.088165000000000
H      -4.558280000000000      2.710872000000000      0.371032000000000
H      -4.072615000000000      0.330921000000000      0.815336000000000
H      -4.200861000000000     -2.844805000000000     -0.849784000000000
H      -6.224105000000000     -3.588831000000000      0.346306000000000
H      -6.452054000000000     -3.194343000000000      2.785720000000000
H      -4.626154000000000     -2.053856000000000      4.025391000000000
H      -2.578217000000000     -1.336657000000000      2.830819000000000
H      -2.727489000000000     -0.671545000000000     -2.708380000000000
H      -2.801397000000000     -1.954476000000000     -4.810224000000000
H      -1.991069000000000     -4.298854000000000     -4.876309000000000
H      -1.104784000000000     -5.354656000000000     -2.808206000000000
H      -1.003504000000000     -4.062533000000000     -0.705514000000000
Rh      0.252007000000000     -1.705495000000000      1.280582000000000
C       1.279876000000000     -2.826298000000000      0.050236000000000
O       1.906473000000000     -3.514652000000000     -0.612694000000000
H      -0.503989000000000     -0.830109000000000      2.362460000000000
F       4.682100000000000     -0.815793000000000     -4.907787000000000
F       6.315460000000000      0.152669000000000     -3.867939000000000
F       4.756863000000000      1.334088000000000     -4.776153000000000
F      -4.254800000000000      4.634835000000000     -1.798524000000000
F      -2.141018000000000      5.080208000000000     -1.722390000000000
F      -3.317959000000000      5.063312000000000      0.092122000000000
C      -0.304280000000000     -3.438201000000000      2.473114000000000
C       0.892563000000000     -2.905565000000000      2.994748000000000
C       0.896864000000000     -2.154079000000000      4.295844000000000
O       1.146496000000000     -3.046585000000000      5.410561000000000
C       2.411030000000000     -3.455809000000000      5.561440000000000
C       2.545915000000000     -4.376432000000000      6.747719000000000
O       3.320711000000000     -3.128343000000000      4.834241000000000
H      -1.243764000000000     -3.264280000000000      2.991386000000000
H      -0.282941000000000     -4.349427000000000      1.880685000000000
H       1.830999000000000     -3.411256000000000      2.776905000000000
H      -0.088745000000000     -1.731615000000000      4.500381000000000
H       1.649308000000000     -1.362771000000000      4.320398000000000
H       1.928399000000000     -5.264692000000000      6.591372000000000
H       2.183230000000000     -3.876613000000000      7.649088000000000
H       3.589596000000000     -4.662872000000000      6.867341000000000
