93

P       2.022511000000000      0.280818000000000     -0.002438000000000
C       1.915370000000000     -1.469880000000000     -0.565591000000000
C       3.174985000000000      0.176535000000000      1.426934000000000
C       3.109759000000000      1.019643000000000     -1.295458000000000
C       0.931330000000000     -2.271051000000000      0.021173000000000
C       0.733263000000000     -3.595604000000000     -0.361807000000000
C       1.550072000000000     -4.118771000000000     -1.369549000000000
C       2.539361000000000     -3.339605000000000     -1.958578000000000
C       2.727750000000000     -2.016493000000000     -1.560704000000000
C       3.586710000000000      1.385019000000000      2.006757000000000
C       4.433060000000000      1.382745000000000      3.108919000000000
C       4.865763000000000      0.174654000000000      3.656463000000000
C       4.458198000000000     -1.027148000000000      3.086965000000000
C       3.620539000000000     -1.029626000000000      1.970484000000000
C       4.504985000000000      0.931061000000000     -1.222256000000000
C       5.300788000000000      1.457217000000000     -2.237116000000000
C       4.714203000000000      2.074132000000000     -3.339271000000000
C       3.327214000000000      2.167124000000000     -3.421328000000000
C       2.531682000000000      1.647615000000000     -2.403679000000000
H       0.277266000000000     -1.833397000000000      0.772582000000000
C      -0.336570000000000     -4.433536000000000      0.289493000000000
H       1.398268000000000     -5.143722000000000     -1.699824000000000
H       3.164393000000000     -3.759418000000000     -2.741196000000000
H       3.495009000000000     -1.413887000000000     -2.036671000000000
H       3.260908000000000      2.337913000000000      1.595901000000000
H       4.746794000000000      2.330212000000000      3.535944000000000
H       5.519329000000000      0.171872000000000      4.523379000000000
H       4.794749000000000     -1.970675000000000      3.505842000000000
H       3.318869000000000     -1.973015000000000      1.524942000000000
H       4.972014000000000      0.450139000000000     -0.367645000000000
H       6.381501000000000      1.386604000000000     -2.162874000000000
H       5.336068000000000      2.487338000000000     -4.127336000000000
H       2.862019000000000      2.655745000000000     -4.271935000000000
H       1.451853000000000      1.755428000000000     -2.452339000000000
P      -1.887044000000000      0.307062000000000     -0.172384000000000
C      -3.112409000000000      1.419824000000000     -0.976192000000000
C      -2.951456000000000     -0.558288000000000      1.063825000000000
C      -1.674188000000000     -1.018519000000000     -1.437438000000000
C      -3.536351000000000      1.261309000000000     -2.294711000000000
C      -4.457655000000000      2.143566000000000     -2.872291000000000
C      -4.967241000000000      3.181420000000000     -2.094378000000000
C      -4.559555000000000      3.344718000000000     -0.770522000000000
C      -3.630411000000000      2.475627000000000     -0.214167000000000
C      -2.335356000000000     -1.281118000000000      2.091309000000000
C      -3.090779000000000     -2.012617000000000      3.003993000000000
C      -4.479963000000000     -2.021378000000000      2.908293000000000
C      -5.105601000000000     -1.300677000000000      1.894262000000000
C      -4.348298000000000     -0.577262000000000      0.975524000000000
C      -0.678466000000000     -0.852069000000000     -2.407603000000000
C      -0.444451000000000     -1.833796000000000     -3.363542000000000
C      -1.202031000000000     -3.003989000000000     -3.359114000000000
C      -2.201521000000000     -3.175549000000000     -2.406462000000000
C      -2.439026000000000     -2.188415000000000     -1.450822000000000
H      -3.152275000000000      0.437973000000000     -2.891986000000000
C      -4.871171000000000      1.972674000000000     -4.312190000000000
H      -5.690767000000000      3.867862000000000     -2.526642000000000
H      -4.967368000000000      4.155073000000000     -0.173938000000000
H      -3.307633000000000      2.603274000000000      0.816053000000000
H      -1.253383000000000     -1.270113000000000      2.185632000000000
H      -2.592329000000000     -2.565618000000000      3.793998000000000
H      -5.072299000000000     -2.583799000000000      3.623197000000000
H      -6.188329000000000     -1.301443000000000      1.814173000000000
H      -4.847693000000000     -0.028869000000000      0.182360000000000
H      -0.065296000000000      0.044835000000000     -2.388901000000000
H       0.347021000000000     -1.696154000000000     -4.093786000000000
H      -1.009092000000000     -3.780090000000000     -4.093569000000000
H      -2.797864000000000     -4.083293000000000     -2.398614000000000
H      -3.216838000000000     -2.341496000000000     -0.708754000000000
Rh      0.034739000000000      1.431856000000000      0.551912000000000
C       0.092410000000000      0.931913000000000      2.444756000000000
O       0.157969000000000      0.691561000000000      3.560300000000000
H      -0.006269000000000      1.908528000000000     -0.954848000000000
H       0.089380000000000     -5.089034000000000      1.057546000000000
H      -0.840750000000000     -5.066388000000000     -0.446963000000000
H      -1.093287000000000     -3.801904000000000      0.765436000000000
H      -4.956207000000000      0.914680000000000     -4.576202000000000
H      -4.131922000000000      2.419974000000000     -4.985834000000000
H      -5.833038000000000      2.453559000000000     -4.509025000000000
C      -0.662575000000000      3.449857000000000      0.968597000000000
C       0.747870000000000      3.433565000000000      1.021011000000000
C       1.580069000000000      4.051341000000000     -0.065467000000000
O       1.906113000000000      5.427823000000000      0.249790000000000
C       2.881037000000000      5.601787000000000      1.148400000000000
C       3.119819000000000      7.066013000000000      1.415580000000000
O       3.486657000000000      4.697512000000000      1.677710000000000
H      -1.164758000000000      3.861294000000000      0.095986000000000
H      -1.237534000000000      3.493105000000000      1.889901000000000
H       1.232906000000000      3.437931000000000      1.996082000000000
H       1.021245000000000      4.103118000000000     -1.002370000000000
H       2.518899000000000      3.517251000000000     -0.233882000000000
H       2.220326000000000      7.505859000000000      1.854383000000000
H       3.318812000000000      7.588244000000000      0.476900000000000
H       3.960640000000000      7.177514000000000      2.098385000000000
