93

P       1.937165000000000     -0.367162000000000      0.038611000000000
C       3.450888000000000     -1.310426000000000      0.517055000000000
C       1.843837000000000      0.896772000000000      1.385620000000000
C       2.525681000000000      0.660495000000000     -1.373199000000000
C       4.046555000000000     -2.228152000000000     -0.373536000000000
C       5.107626000000000     -3.012398000000000      0.088651000000000
C       5.583673000000000     -2.908540000000000      1.389989000000000
C       4.997058000000000     -1.999942000000000      2.264448000000000
C       3.940524000000000     -1.208565000000000      1.826366000000000
C       0.999071000000000      0.658470000000000      2.474947000000000
C       0.838855000000000      1.612228000000000      3.476254000000000
C       1.530495000000000      2.818737000000000      3.404840000000000
C       2.388411000000000      3.059013000000000      2.334051000000000
C       2.545583000000000      2.105469000000000      1.330823000000000
C       1.569109000000000      1.220411000000000     -2.225341000000000
C       1.951200000000000      2.051834000000000     -3.275130000000000
C       3.300035000000000      2.318223000000000     -3.495157000000000
C       4.262723000000000      1.755469000000000     -2.659017000000000
C       3.878981000000000      0.934858000000000     -1.601121000000000
C       3.602599000000000     -2.410241000000000     -1.802889000000000
H       5.541147000000000     -3.742066000000000     -0.588983000000000
H       6.402199000000000     -3.540643000000000      1.720321000000000
H       5.354146000000000     -1.905325000000000      3.285170000000000
H       3.487929000000000     -0.506889000000000      2.518696000000000
H       0.441937000000000     -0.271070000000000      2.519712000000000
H       0.156639000000000      1.415076000000000      4.297966000000000
H       1.399273000000000      3.570394000000000      4.177146000000000
H       2.932456000000000      3.996603000000000      2.272051000000000
H       3.203585000000000      2.316606000000000      0.493594000000000
H       0.514789000000000      1.007234000000000     -2.065649000000000
H       1.191113000000000      2.480155000000000     -3.921665000000000
H       3.602551000000000      2.957203000000000     -4.319006000000000
H       5.316075000000000      1.955384000000000     -2.830110000000000
H       4.633745000000000      0.500454000000000     -0.949786000000000
P      -2.048878000000000     -0.430452000000000     -0.115217000000000
C      -2.374114000000000      0.979566000000000     -1.285303000000000
C      -2.497689000000000      0.262669000000000      1.531326000000000
C      -3.519584000000000     -1.509388000000000     -0.424607000000000
C      -1.643396000000000      2.185125000000000     -1.199450000000000
C      -1.824380000000000      3.157337000000000     -2.188380000000000
C      -2.707210000000000      2.972874000000000     -3.245423000000000
C      -3.440223000000000      1.794018000000000     -3.320368000000000
C      -3.274340000000000      0.813475000000000     -2.347606000000000
C      -3.191631000000000      1.466181000000000      1.685647000000000
C      -3.547346000000000      1.919194000000000      2.954719000000000
C      -3.235046000000000      1.163523000000000      4.081502000000000
C      -2.569409000000000     -0.052311000000000      3.934972000000000
C      -2.199316000000000     -0.495871000000000      2.668661000000000
C      -3.488379000000000     -2.383906000000000     -1.519425000000000
C      -4.571595000000000     -3.206391000000000     -1.808745000000000
C      -5.701119000000000     -3.184087000000000     -0.992164000000000
C      -5.741843000000000     -2.324801000000000      0.100428000000000
C      -4.662666000000000     -1.486769000000000      0.379494000000000
C      -0.689645000000000      2.489489000000000     -0.074533000000000
H      -1.251232000000000      4.078713000000000     -2.115933000000000
H      -2.822913000000000      3.744171000000000     -4.000582000000000
H      -4.142426000000000      1.631364000000000     -4.131794000000000
H      -3.861519000000000     -0.094270000000000     -2.423146000000000
H      -3.460347000000000      2.051536000000000      0.810455000000000
H      -4.076469000000000      2.861318000000000      3.059876000000000
H      -3.515976000000000      1.516097000000000      5.069098000000000
H      -2.334545000000000     -0.655289000000000      4.806994000000000
H      -1.673070000000000     -1.440428000000000      2.553638000000000
H      -2.608672000000000     -2.410940000000000     -2.156835000000000
H      -4.528962000000000     -3.871252000000000     -2.665871000000000
H      -6.542916000000000     -3.834629000000000     -1.207736000000000
H      -6.617822000000000     -2.299404000000000      0.741238000000000
H      -4.717935000000000     -0.816725000000000      1.231237000000000
Rh     -0.012623000000000     -1.677315000000000     -0.332633000000000
C      -0.004834000000000     -1.630845000000000     -2.287889000000000
O      -0.021089000000000     -1.645600000000000     -3.431890000000000
H      -0.011728000000000     -1.788019000000000      1.239472000000000
H       3.802794000000000     -3.436047000000000     -2.121380000000000
H       4.134277000000000     -1.722015000000000     -2.470698000000000
H       2.534110000000000     -2.220580000000000     -1.926685000000000
H       0.170648000000000      3.059559000000000     -0.438787000000000
H      -0.312515000000000      1.584418000000000      0.400582000000000
H      -1.177042000000000      3.079411000000000      0.710838000000000
C      -0.753749000000000     -3.719649000000000     -0.239524000000000
C       0.655538000000000     -3.750505000000000     -0.234827000000000
C       1.416585000000000     -4.117000000000000      1.008541000000000
O       1.621680000000000     -5.551045000000000      1.082287000000000
C       2.569492000000000     -6.052189000000000      0.283007000000000
C       2.690239000000000     -7.545505000000000      0.458722000000000
O       3.236252000000000     -5.392497000000000     -0.480563000000000
H      -1.302488000000000     -3.890449000000000      0.684377000000000
H      -1.302188000000000     -3.980953000000000     -1.139315000000000
H       1.176967000000000     -4.010201000000000     -1.154179000000000
H       0.835587000000000     -3.879554000000000      1.901747000000000
H       2.393995000000000     -3.634351000000000      1.062485000000000
H       1.744920000000000     -8.022080000000001      0.186545000000000
H       2.889290000000000     -7.781652000000000      1.506793000000000
H       3.493676000000000     -7.920909000000000     -0.173234000000000
