95

P      -3.901361000000000      0.606977000000000      1.516200000000000
C      -4.399554000000000     -0.420881000000000      0.071411000000000
C      -5.052579000000000      2.030257000000000      1.366778000000000
C      -4.617281000000000     -0.348727000000000      2.916339000000000
C      -5.258261000000000     -1.523525000000000      0.158534000000000
C      -5.520075000000000     -2.306144000000000     -0.960295000000000
C      -4.925907000000000     -2.020239000000000     -2.197456000000000
C      -4.110201000000000     -0.885442000000000     -2.290209000000000
C      -3.854471000000000     -0.097677000000000     -1.174605000000000
C      -4.704719000000000      3.240144000000000      1.971565000000000
C      -5.569940000000000      4.331046000000000      1.928247000000000
C      -6.792600000000000      4.219063000000000      1.272487000000000
C      -7.148538000000000      3.015734000000000      0.664121000000000
C      -6.285192000000000      1.925033000000000      0.710505000000000
C      -3.984437000000000     -1.547549000000000      3.273646000000000
C      -4.479401000000000     -2.325043000000000      4.313939000000000
C      -5.602302000000000     -1.904807000000000      5.026050000000000
C      -6.228925000000000     -0.710202000000000      4.685272000000000
C      -5.744883000000000      0.063671000000000      3.630338000000000
H      -5.714486000000000     -1.783531000000000      1.109215000000000
H      -6.198591000000000     -3.149667000000000     -0.870068000000000
C      -5.120607000000000     -2.864220000000000     -3.389322000000000
H      -3.640794000000000     -0.635489000000000     -3.239142000000000
H      -3.196604000000000      0.761159000000000     -1.263626000000000
H      -3.751017000000000      3.345275000000000      2.473988000000000
H      -5.265691000000000      5.258721000000000      2.401580000000000
H      -7.468274000000000      5.068057000000000      1.229645000000000
H      -8.100289999999999      2.925991000000000      0.149197000000000
H      -6.570313000000000      0.990969000000000      0.234369000000000
H      -3.102756000000000     -1.879845000000000      2.729164000000000
H      -3.979269000000000     -3.254540000000000      4.569111000000000
H      -5.984327000000000     -2.505486000000000      5.845744000000000
H      -7.101504000000000     -0.375896000000000      5.238013000000000
H      -6.247522000000000      0.989392000000000      3.366702000000000
P      -0.550039000000000     -0.739354000000000      0.440193000000000
C       1.267491000000000     -0.915776000000000      0.727365000000000
C      -0.633921000000000     -0.795595000000000     -1.397908000000000
C      -1.169856000000000     -2.394816000000000      0.965798000000000
C       1.808858000000000     -0.485450000000000      1.946078000000000
C       3.158581000000000     -0.644621000000000      2.229354000000000
C       4.024752000000000     -1.218115000000000      1.290428000000000
C       3.482075000000000     -1.645423000000000      0.073662000000000
C       2.128306000000000     -1.499235000000000     -0.206942000000000
C      -0.644894000000000     -1.987587000000000     -2.131369000000000
C      -0.702764000000000     -1.962105000000000     -3.522978000000000
C      -0.731480000000000     -0.745337000000000     -4.200206000000000
C      -0.695628000000000      0.447103000000000     -3.479940000000000
C      -0.649352000000000      0.420848000000000     -2.088600000000000
C      -0.643018000000000     -2.991522000000000      2.117916000000000
C      -1.234273000000000     -4.129503000000000      2.660975000000000
C      -2.357538000000000     -4.692632000000000      2.058009000000000
C      -2.882896000000000     -4.110829000000000      0.907065000000000
C      -2.298027000000000     -2.968484000000000      0.365855000000000
H       1.160869000000000     -0.022972000000000      2.684038000000000
H       3.539174000000000     -0.321719000000000      3.193547000000000
C       5.468385000000000     -1.384498000000000      1.532685000000000
H       4.136018000000000     -2.096135000000000     -0.668611000000000
H       1.746867000000000     -1.837938000000000     -1.164876000000000
H      -0.615666000000000     -2.942952000000000     -1.615927000000000
H      -0.724122000000000     -2.895786000000000     -4.076462000000000
H      -0.777788000000000     -0.726182000000000     -5.284761000000000
H      -0.710616000000000      1.399906000000000     -4.000022000000000
H      -0.645900000000000      1.350512000000000     -1.525370000000000
H       0.231823000000000     -2.563946000000000      2.600646000000000
H      -0.812968000000000     -4.576284000000000      3.556293000000000
H      -2.818911000000000     -5.578974000000000      2.482401000000000
H      -3.760576000000000     -4.533968000000000      0.427195000000000
H      -2.732666000000000     -2.520865000000000     -0.523448000000000
Rh     -1.592106000000000      1.045186000000000      1.627703000000000
C      -1.308648000000000      0.255097000000000      3.397092000000000
O      -1.166332000000000     -0.235515000000000      4.421585000000000
H      -1.898665000000000      1.712133000000000      0.233087000000000
C      -5.612277000000000     -4.103946000000000     -3.404316000000000
H      -4.803681000000000     -2.413633000000000     -4.328785000000000
H      -5.915625000000000     -4.619369000000000     -2.497584000000000
H      -5.718458000000000     -4.652423000000000     -4.333756000000000
C       6.173066000000000     -0.829749000000000      2.519701000000000
H       5.985572000000000     -2.015306000000000      0.811177000000000
H       5.724871000000000     -0.169671000000000      3.256316000000000
H       7.237543000000000     -1.012812000000000      2.615952000000000
C      -0.011009000000000      2.533472000000000      1.709618000000000
C      -1.199474000000000      3.097306000000000      2.222405000000000
C      -1.335678000000000      3.353335000000000      3.698417000000000
O      -0.914526000000000      4.695632000000000      4.039768000000000
C      -1.806266000000000      5.664075000000000      3.801028000000000
C      -1.246695000000000      7.018086000000000      4.153667000000000
O      -2.914355000000000      5.468358000000000      3.356804000000000
H       0.787709000000000      2.259490000000000      2.396310000000000
H       0.325226000000000      2.775561000000000      0.706375000000000
H      -1.783292000000000      3.765378000000000      1.593432000000000
H      -0.661314000000000      2.708042000000000      4.267132000000000
H      -2.357410000000000      3.217967000000000      4.063399000000000
H      -0.394676000000000      7.237440000000000      3.504737000000000
H      -0.885042000000000      7.015376000000000      5.184449000000000
H      -2.018813000000000      7.774648000000000      4.023082000000000
