91

P       1.867935000000000      0.374316000000000     -0.114892000000000
C       2.841789000000000      0.892839000000000      1.360537000000000
C       3.051650000000000      0.732796000000000     -1.480274000000000
C       1.963297000000000     -1.477685000000000      0.001814000000000
C       2.794700000000000      2.242458000000000      1.728780000000000
C       3.538858000000000      2.708891000000000      2.807932000000000
C       4.333668000000000      1.828603000000000      3.538821000000000
C       4.390771000000000      0.485473000000000      3.177482000000000
C       3.655063000000000      0.019267000000000      2.089734000000000
C       4.372093000000000      1.124084000000000     -1.240690000000000
C       5.203323000000000      1.481374000000000     -2.301999000000000
C       4.729966000000000      1.443359000000000     -3.608944000000000
C       3.422800000000000      1.029948000000000     -3.859200000000000
C       2.591365000000000      0.678359000000000     -2.802908000000000
C       1.318553000000000     -2.189493000000000      1.035656000000000
C       1.307210000000000     -3.586266000000000      1.033168000000000
C       1.931217000000000     -4.301256000000000      0.019581000000000
C       2.599046000000000     -3.608269000000000     -0.985025000000000
C       2.616864000000000     -2.214122000000000     -0.990970000000000
H       2.172276000000000      2.928110000000000      1.159303000000000
H       3.490769000000000      3.758019000000000      3.081849000000000
H       4.905971000000000      2.188609000000000      4.387851000000000
H       5.010408000000000     -0.204867000000000      3.741062000000000
H       3.721391000000000     -1.027854000000000      1.809200000000000
H       4.753762000000000      1.169255000000000     -0.225743000000000
H       6.220825000000000      1.800907000000000     -2.099490000000000
H       5.369755000000000      1.746905000000000     -4.431059000000000
H       3.039429000000000      1.018707000000000     -4.873888000000000
H       1.559552000000000      0.400446000000000     -3.000728000000000
C       0.669943000000000     -1.522988000000000      2.204043000000000
H       0.805416000000000     -4.088780000000000      1.854005000000000
H       1.909432000000000     -5.386130000000000      0.020452000000000
H       3.111730000000000     -4.149938000000000     -1.774585000000000
H       3.143109000000000     -1.699113000000000     -1.787240000000000
P      -2.053996000000000     -0.011877000000000     -0.407380000000000
C      -1.859906000000000     -1.713421000000000     -1.088063000000000
C      -3.497377000000000      0.505282000000000     -1.435496000000000
C      -2.785804000000000     -0.303738000000000      1.265651000000000
C      -0.709656000000000     -2.027983000000000     -1.809873000000000
C      -0.563949000000000     -3.283654000000000     -2.399900000000000
C      -1.570836000000000     -4.232779000000000     -2.271013000000000
C      -2.733621000000000     -3.921316000000000     -1.564491000000000
C      -2.881647000000000     -2.667462000000000     -0.985649000000000
C      -4.826799000000000      0.322468000000000     -1.042416000000000
C      -5.868094000000000      0.689544000000000     -1.892070000000000
C      -5.593013000000000      1.228120000000000     -3.145837000000000
C      -4.270949000000000      1.397405000000000     -3.550861000000000
C      -3.229370000000000      1.041883000000000     -2.699172000000000
C      -2.530719000000000     -1.506886000000000      1.929238000000000
C      -2.937636000000000     -1.705924000000000      3.247253000000000
C      -3.635749000000000     -0.712087000000000      3.924597000000000
C      -3.894334000000000      0.492888000000000      3.283648000000000
C      -3.462132000000000      0.713506000000000      1.974791000000000
H       0.069605000000000     -1.280692000000000     -1.915450000000000
H       0.339890000000000     -3.513751000000000     -2.955294000000000
H      -1.458589000000000     -5.212093000000000     -2.725901000000000
H      -3.528469000000000     -4.654911000000000     -1.472832000000000
H      -3.794701000000000     -2.426753000000000     -0.446819000000000
H      -5.057157000000000     -0.101179000000000     -0.068555000000000
H      -6.895881000000000      0.553201000000000     -1.570556000000000
H      -6.405942000000000      1.515732000000000     -3.804975000000000
H      -4.048839000000000      1.813672000000000     -4.528535000000000
H      -2.196617000000000      1.179340000000000     -3.009859000000000
H      -1.989363000000000     -2.300280000000000      1.424063000000000
H      -2.689982000000000     -2.639751000000000      3.741222000000000
H      -3.958748000000000     -0.867698000000000      4.948629000000000
H      -4.417778000000000      1.301378000000000      3.784044000000000
C      -3.712297000000000      2.073076000000000      1.407741000000000
Rh     -0.237252000000000      1.466363000000000     -0.370095000000000
C      -0.438974000000000      1.991783000000000      1.512543000000000
O      -0.581186000000000      2.310552000000000      2.599773000000000
H      -0.138119000000000      1.071595000000000     -1.894464000000000
O       0.267508000000000     -2.142890000000000      3.163223000000000
H       0.565666000000000     -0.424547000000000      2.165391000000000
O      -4.358496000000000      2.916625000000000      1.987196000000000
H      -3.252979000000000      2.296461000000000      0.429216000000000
C      -1.077647000000000      3.327064000000000     -1.113479000000000
C       0.317558000000000      3.496366000000000     -1.004511000000000
C       1.193855000000000      3.537694000000000     -2.218806000000000
O       1.232690000000000      4.899957000000000     -2.700215000000000
C       1.928312000000000      5.079136000000000     -3.831637000000000
C       1.926841000000000      6.529466000000000     -4.245853000000000
O       2.477591000000000      4.185299000000000     -4.430621000000000
H      -1.524197000000000      3.181164000000000     -2.093566000000000
H      -1.736002000000000      3.791299000000000     -0.383983000000000
H       0.695874000000000      4.078920000000000     -0.164779000000000
H       0.803983000000000      2.896310000000000     -3.015517000000000
H       2.222083000000000      3.226559000000000     -2.011994000000000
H       2.385851000000000      7.136679000000000     -3.461534000000000
H       0.898579000000000      6.877055000000000     -4.371925000000000
H       2.479583000000000      6.640303000000000     -5.177488000000000
