87

P      -2.065545000000000      0.010611000000000      0.052262000000000
C      -3.522112000000000     -0.993580000000000     -0.493572000000000
C      -1.808537000000000      1.116501000000000     -1.406893000000000
C      -2.881716000000000      1.139189000000000      1.261728000000000
C      -4.210856000000000     -1.819972000000000      0.407554000000000
C      -5.225118000000000     -2.675687000000000     -0.009670000000000
C      -5.579167000000000     -2.720308000000000     -1.353097000000000
C      -4.923871000000000     -1.902649000000000     -2.267740000000000
C      -3.911094000000000     -1.050256000000000     -1.837973000000000
C      -2.336242000000000      2.409498000000000     -1.482611000000000
C      -2.136130000000000      3.191423000000000     -2.619160000000000
C      -1.412989000000000      2.692286000000000     -3.697853000000000
C      -0.867208000000000      1.412746000000000     -3.626745000000000
C      -1.052214000000000      0.638179000000000     -2.485709000000000
C      -4.216132000000000      1.531308000000000      1.098425000000000
C      -4.822891000000000      2.376323000000000      2.022007000000000
C      -4.105421000000000      2.838000000000000      3.123918000000000
C      -2.780242000000000      2.451033000000000      3.296647000000000
C      -2.173896000000000      1.604988000000000      2.370648000000000
Cl     -3.825727000000000     -1.828869000000000      2.108798000000000
H      -5.700519000000000     -3.320968000000000      0.719327000000000
H      -6.363329000000000     -3.395959000000000     -1.678786000000000
H      -5.197305000000000     -1.923702000000000     -3.317754000000000
H      -3.410464000000000     -0.417151000000000     -2.562600000000000
H      -2.901205000000000      2.817488000000000     -0.651613000000000
H      -2.552926000000000      4.193379000000000     -2.658138000000000
H      -1.261207000000000      3.301946000000000     -4.583649000000000
H      -0.278975000000000      1.021773000000000     -4.451298000000000
H      -0.605299000000000     -0.350198000000000     -2.425766000000000
H      -4.785631000000000      1.167163000000000      0.246881000000000
H      -5.859387000000000      2.668349000000000      1.884581000000000
H      -4.581370000000000      3.491818000000000      3.848100000000000
H      -2.215877000000000      2.799451000000000      4.155884000000000
H      -1.142263000000000      1.302235000000000      2.515671000000000
P       1.827021000000000     -0.301506000000000      0.152776000000000
C       1.925706000000000      1.126033000000000     -1.029286000000000
C       3.016764000000000     -1.464474000000000     -0.655219000000000
C       2.848100000000000      0.285681000000000      1.569513000000000
C       1.297680000000000      2.351531000000000     -0.761526000000000
C       1.299479000000000      3.401965000000000     -1.672240000000000
C       1.942510000000000      3.249421000000000     -2.895231000000000
C       2.580291000000000      2.050504000000000     -3.191031000000000
C       2.570339000000000      1.008431000000000     -2.268314000000000
C       4.384867000000000     -1.456746000000000     -0.364120000000000
C       5.253617000000000     -2.325242000000000     -1.022597000000000
C       4.770917000000000     -3.203409000000000     -1.988097000000000
C       3.411013000000000     -3.214094000000000     -2.291301000000000
C       2.540970000000000     -2.356704000000000     -1.624486000000000
C       3.611378000000000      1.455907000000000      1.548762000000000
C       4.389443000000000      1.808230000000000      2.649436000000000
C       4.424055000000000      0.990077000000000      3.775493000000000
C       3.677752000000000     -0.185837000000000      3.798562000000000
C       2.891652000000000     -0.532268000000000      2.703954000000000
Cl      0.497126000000000      2.631969000000000      0.761726000000000
H       0.791843000000000      4.325233000000000     -1.415460000000000
H       1.939963000000000      4.066737000000000     -3.609442000000000
H       3.093125000000000      1.920823000000000     -4.138695000000000
H       3.079515000000000      0.084150000000000     -2.517022000000000
H       4.779267000000000     -0.771025000000000      0.379220000000000
H       6.311509000000000     -2.310654000000000     -0.779212000000000
H       5.449384000000000     -3.879013000000000     -2.499619000000000
H       3.023519000000000     -3.898004000000000     -3.040146000000000
H       1.478231000000000     -2.376924000000000     -1.850404000000000
H       3.602502000000000      2.096495000000000      0.671441000000000
H       4.970711000000000      2.724755000000000      2.623837000000000
H       5.030709000000000      1.267417000000000      4.631828000000000
H       3.701690000000000     -0.832002000000000      4.670408000000000
H       2.312510000000000     -1.452362000000000      2.722566000000000
Rh     -0.239204000000000     -1.355358000000000      0.656692000000000
C      -0.356453000000000     -1.102398000000000      2.588681000000000
O      -0.450932000000000     -1.055962000000000      3.727181000000000
H      -0.236360000000000     -1.675527000000000     -0.892589000000000
C       0.468108000000000     -3.389587000000000      0.957615000000000
C      -0.935636000000000     -3.418058000000000      0.817388000000000
C      -1.557614000000000     -3.961057000000000     -0.439906000000000
O      -1.764880000000000     -5.391493000000000     -0.332641000000000
C      -2.829426000000000     -5.780820000000000      0.379600000000000
C      -2.917867000000000     -7.285519000000000      0.439412000000000
O      -3.608821000000000     -5.022244000000000      0.906223000000000
H       1.099624000000000     -3.709912000000000      0.132332000000000
H       0.919852000000000     -3.512825000000000      1.938992000000000
H      -1.559339000000000     -3.534790000000000      1.700769000000000
H      -0.877093000000000     -3.849930000000000     -1.286502000000000
H      -2.516814000000000     -3.494240000000000     -0.673461000000000
H      -2.043605000000000     -7.679400000000000      0.964420000000000
H      -2.911403000000000     -7.701115000000000     -0.570951000000000
H      -3.827635000000000     -7.574102000000000      0.963702000000000
