89

P      -1.763696000000000      0.041915000000000     -0.498935000000000
C      -2.929623000000000      1.241819000000000     -1.273187000000000
C      -2.875853000000000     -0.816986000000000      0.691350000000000
C      -1.591265000000000     -1.234461000000000     -1.817597000000000
C      -3.399206000000000      2.288902000000000     -0.474849000000000
C      -4.267331000000000      3.242985000000000     -1.007061000000000
C      -4.667122000000000      3.172148000000000     -2.347994000000000
C      -4.198437000000000      2.133432000000000     -3.138738000000000
C      -3.341031000000000      1.169167000000000     -2.605420000000000
C      -4.271050000000000     -0.782434000000000      0.583791000000000
C      -5.064520000000000     -1.515057000000000      1.462878000000000
C      -4.476341000000000     -2.302253000000000      2.449562000000000
C      -3.089475000000000     -2.350931000000000      2.559744000000000
C      -2.297398000000000     -1.606511000000000      1.690777000000000
C      -0.635277000000000     -1.022443000000000     -2.820189000000000
C      -0.422421000000000     -1.973713000000000     -3.811129000000000
C      -1.155988000000000     -3.160404000000000     -3.805796000000000
C      -2.106545000000000     -3.381068000000000     -2.814627000000000
C      -2.327483000000000     -2.422282000000000     -1.825759000000000
H      -3.092403000000000      2.362604000000000      0.564985000000000
C      -4.748748000000000      4.312989000000000     -0.172335000000000
H      -5.335583000000000      3.925655000000000     -2.749849000000000
H      -4.505316000000000      2.065050000000000     -4.177214000000000
H      -2.994448000000000      0.355306000000000     -3.234713000000000
H      -4.743090000000000     -0.188498000000000     -0.192956000000000
H      -6.145307000000000     -1.473880000000000      1.371002000000000
H      -5.096872000000000     -2.876911000000000      3.129599000000000
H      -2.621236000000000     -2.965210000000000      3.321710000000000
H      -1.216876000000000     -1.643615000000000      1.795151000000000
H      -0.038981000000000     -0.113733000000000     -2.801513000000000
H       0.330880000000000     -1.798610000000000     -4.573308000000000
H      -0.978574000000000     -3.912862000000000     -4.568218000000000
H      -2.668523000000000     -4.309392000000000     -2.790303000000000
H      -3.058996000000000     -2.621794000000000     -1.049072000000000
P       2.142281000000000     -0.103634000000000     -0.337553000000000
C       1.983554000000000     -1.832634000000000     -0.970797000000000
C       3.283703000000000     -0.313813000000000      1.087481000000000
C       3.255243000000000      0.637611000000000     -1.605318000000000
C       0.954688000000000     -2.613707000000000     -0.443780000000000
C       0.750430000000000     -3.918241000000000     -0.895332000000000
C       1.574400000000000     -4.459122000000000     -1.888836000000000
C       2.601469000000000     -3.684991000000000     -2.411696000000000
C       2.807135000000000     -2.382079000000000     -1.957223000000000
C       3.665293000000000     -1.555430000000000      1.598933000000000
C       4.489676000000000     -1.625867000000000      2.722922000000000
C       4.947502000000000     -0.462060000000000      3.331477000000000
C       4.579053000000000      0.780940000000000      2.815995000000000
C       3.745884000000000      0.856526000000000      1.706575000000000
C       4.647398000000000      0.509420000000000     -1.530009000000000
C       5.460075000000000      1.044136000000000     -2.526949000000000
C       4.893418000000000      1.708999000000000     -3.611497000000000
C       3.509658000000000      1.842342000000000     -3.694368000000000
C       2.697061000000000      1.314287000000000     -2.694953000000000
H       0.286405000000000     -2.195647000000000      0.303546000000000
C      -0.337502000000000     -4.688821000000000     -0.352063000000000
H       1.397423000000000     -5.468890000000000     -2.243422000000000
H       3.245873000000000     -4.094292000000000     -3.182835000000000
H       3.610147000000000     -1.788915000000000     -2.384048000000000
H       3.325122000000000     -2.472156000000000      1.126501000000000
H       4.774979000000000     -2.596285000000000      3.117198000000000
H       5.589767000000000     -0.521521000000000      4.204579000000000
H       4.931961000000000      1.699418000000000      3.274374000000000
H       3.470295000000000      1.836184000000000      1.322701000000000
H       5.098802000000000     -0.006424000000000     -0.687433000000000
H       6.538259000000000      0.943668000000000     -2.451705000000000
H       5.528684000000000      2.129206000000000     -4.384872000000000
H       3.061079000000000      2.369631000000000     -4.530536000000000
H       1.620872000000000      1.454049000000000     -2.741707000000000
Rh      0.192155000000000      1.074139000000000      0.258734000000000
C       0.230340000000000      0.499989000000000      2.136708000000000
O       0.288463000000000      0.216022000000000      3.241076000000000
H       0.167637000000000      1.614474000000000     -1.226225000000000
N      -5.137498000000000      5.173515000000000      0.496253000000000
N      -1.219141000000000     -5.297971000000000      0.085326000000000
C      -0.428923000000000      3.102208000000000      0.762301000000000
C       0.978589000000000      3.031039000000000      0.807858000000000
C       1.829729000000000      3.665991000000000     -0.254827000000000
O       2.204819000000000      5.011763000000000      0.122017000000000
C       3.188477000000000      5.108774000000000      1.024196000000000
C       3.476219000000000      6.548060000000000      1.363790000000000
O       3.763341000000000      4.157667000000000      1.503665000000000
H      -0.913662000000000      3.573134000000000     -0.090153000000000
H      -1.000494000000000      3.128299000000000      1.686210000000000
H       1.466136000000000      2.974000000000000      1.779948000000000
H       1.269893000000000      3.779514000000000     -1.185774000000000
H       2.747536000000000      3.105604000000000     -0.451293000000000
H       2.596026000000000      6.990698000000000      1.837631000000000
H       3.679336000000000      7.113234000000000      0.451325000000000
H       4.328025000000000      6.597582000000000      2.040201000000000
