89

P       1.902760000000000     -0.100419000000000      0.199672000000000
C       1.853710000000000      0.785536000000000     -1.428989000000000
C       3.082086000000000     -1.460735000000000     -0.218677000000000
C       2.989633000000000      1.003814000000000      1.196390000000000
C       1.188028000000000      2.023607000000000     -1.543696000000000
C       1.092241000000000      2.690325000000000     -2.767285000000000
C       1.658142000000000      2.131194000000000     -3.907224000000000
C       2.317228000000000      0.911243000000000     -3.813809000000000
C       2.412594000000000      0.248232000000000     -2.590371000000000
C       4.466060000000000     -1.317314000000000     -0.074832000000000
C       5.325921000000000     -2.351699000000000     -0.439194000000000
C       4.817072000000000     -3.537147000000000     -0.961362000000000
C       3.440462000000000     -3.688047000000000     -1.114190000000000
C       2.580118000000000     -2.660411000000000     -0.738804000000000
C       3.133945000000000      0.690577000000000      2.552659000000000
C       3.967178000000000      1.446602000000000      3.370628000000000
C       4.660619000000000      2.533773000000000      2.843848000000000
C       4.527477000000000      2.849976000000000      1.494948000000000
C       3.702643000000000      2.085738000000000      0.672369000000000
C       0.635430000000000      2.680176000000000     -0.387074000000000
H       0.570239000000000      3.640306000000000     -2.810957000000000
H       1.580182000000000      2.646394000000000     -4.858924000000000
H       2.768771000000000      0.467398000000000     -4.695788000000000
H       2.939940000000000     -0.698137000000000     -2.543890000000000
H       4.879038000000000     -0.395836000000000      0.323557000000000
H       6.397068000000000     -2.226548000000000     -0.314680000000000
H       5.488749000000000     -4.341751000000000     -1.243833000000000
H       3.033239000000000     -4.610980000000000     -1.515413000000000
H       1.505602000000000     -2.785016000000000     -0.842456000000000
H       2.594504000000000     -0.157625000000000      2.966521000000000
H       4.066707000000000      1.190640000000000      4.420655000000000
H       5.301971000000000      3.132543000000000      3.482785000000000
H       5.067132000000000      3.694168000000000      1.077252000000000
H       3.621632000000000      2.336747000000000     -0.381242000000000
P      -2.039595000000000      0.030091000000000      0.262805000000000
C      -3.386567000000000     -1.239264000000000      0.155577000000000
C      -1.916091000000000      0.596639000000000     -1.489084000000000
C      -2.998512000000000      1.391179000000000      1.050143000000000
C      -3.958769000000000     -1.732737000000000      1.346864000000000
C      -4.932551000000000     -2.733724000000000      1.321863000000000
C      -5.350400000000000     -3.263328000000000      0.106509000000000
C      -4.798115000000000     -2.784639000000000     -1.076556000000000
C      -3.829896000000000     -1.780551000000000     -1.051147000000000
C      -2.481656000000000      1.794033000000000     -1.937645000000000
C      -2.375495000000000      2.167440000000000     -3.277446000000000
C      -1.712473000000000      1.348260000000000     -4.184872000000000
C      -1.126312000000000      0.162699000000000     -3.743422000000000
C      -1.213179000000000     -0.200780000000000     -2.404026000000000
C      -4.367889000000000      1.549162000000000      0.793078000000000
C      -5.081958000000000      2.582699000000000      1.388054000000000
C      -4.437392000000000      3.472375000000000      2.246827000000000
C      -3.078475000000000      3.326338000000000      2.501048000000000
C      -2.362834000000000      2.288549000000000      1.907050000000000
C      -3.546395000000000     -1.229860000000000      2.633816000000000
H      -5.323518000000000     -3.107345000000000      2.260843000000000
H      -6.099718000000000     -4.047382000000000      0.087204000000000
H      -5.121776000000000     -3.188316000000000     -2.030992000000000
H      -3.421551000000000     -1.414543000000000     -1.987023000000000
H      -3.006298000000000      2.441927000000000     -1.243517000000000
H      -2.821194000000000      3.100561000000000     -3.608669000000000
H      -1.637434000000000      1.637256000000000     -5.229053000000000
H      -0.583749000000000     -0.470811000000000     -4.438607000000000
H      -0.731182000000000     -1.111373000000000     -2.056499000000000
H      -4.878208000000000      0.860280000000000      0.124806000000000
H      -6.142870000000000      2.690896000000000      1.184947000000000
H      -4.996937000000000      4.275269000000000      2.716770000000000
H      -2.566796000000000      4.014766000000000      3.165532000000000
H      -1.302418000000000      2.195359000000000      2.102294000000000
Rh     -0.085550000000000     -0.881805000000000      1.202332000000000
C      -0.077505000000000      0.143279000000000      2.878820000000000
O      -0.043052000000000      0.665998000000000      3.891965000000000
H      -0.150076000000000     -1.781910000000000     -0.098897000000000
N       0.231540000000000      3.266728000000000      0.525560000000000
N      -3.225905000000000     -0.822515000000000      3.668829000000000
C       0.786668000000000     -2.581455000000000      2.259236000000000
C      -0.608712000000000     -2.761584000000000      2.209120000000000
C      -1.186835000000000     -3.812605000000000      1.300912000000000
O      -1.278904000000000     -5.084247000000000      1.989436000000000
C      -2.309476000000000     -5.223999000000000      2.831824000000000
C      -2.267741000000000     -6.564015000000000      3.521842000000000
O      -3.154721000000000     -4.379493000000000      3.015202000000000
H       1.429844000000000     -3.161396000000000      1.601173000000000
H       1.261695000000000     -2.260847000000000      3.183188000000000
H      -1.209340000000000     -2.548410000000000      3.090154000000000
H      -0.515515000000000     -4.008188000000000      0.462222000000000
H      -2.179131000000000     -3.556005000000000      0.925079000000000
H      -1.383760000000000     -6.610903000000000      4.163529000000000
H      -2.183668000000000     -7.364698000000000      2.783557000000000
H      -3.167431000000000     -6.690181000000000      4.122142000000000
