93

P      -1.721303000000000     -0.220400000000000      1.216949000000000
C      -2.378468000000000      1.218909000000000      0.269880000000000
C      -0.654383000000000      0.504192000000000      2.540766000000000
C      -3.210230000000000     -0.674454000000000      2.208292000000000
C      -1.559102000000000      2.290403000000000     -0.085777000000000
C      -2.053519000000000      3.323476000000000     -0.883345000000000
C      -3.339296000000000      3.260620000000000     -1.413934000000000
C      -4.154891000000000      2.184601000000000     -1.079713000000000
C      -3.687349000000000      1.185085000000000     -0.229549000000000
C      -0.512426000000000      1.863592000000000      2.837239000000000
C       0.331380000000000      2.278811000000000      3.867835000000000
C       1.025087000000000      1.346777000000000      4.632326000000000
C       0.855837000000000     -0.012544000000000      4.375343000000000
C       0.024985000000000     -0.425380000000000      3.339693000000000
C      -3.579569000000000      0.039917000000000      3.354065000000000
C      -4.738861000000000     -0.294194000000000      4.046542000000000
C      -5.545678000000000     -1.339863000000000      3.600515000000000
C      -5.188887000000000     -2.050669000000000      2.459037000000000
C      -4.023482000000000     -1.721711000000000      1.768818000000000
H      -0.530391000000000      2.339553000000000      0.255956000000000
C      -1.204155000000000      4.512933000000000     -1.153638000000000
H      -3.688308000000000      4.060327000000000     -2.059131000000000
H      -5.166309000000000      2.128038000000000     -1.468600000000000
H      -4.347425000000000      0.366155000000000      0.043131000000000
H      -1.060995000000000      2.615600000000000      2.281416000000000
H       0.438113000000000      3.339954000000000      4.070966000000000
H       1.681303000000000      1.675230000000000      5.432482000000000
H       1.371522000000000     -0.753375000000000      4.979511000000000
H      -0.119054000000000     -1.485379000000000      3.151054000000000
H      -2.956773000000000      0.855661000000000      3.710219000000000
H      -5.012622000000000      0.262993000000000      4.937131000000000
H      -6.448052000000000     -1.600307000000000      4.144931000000000
H      -5.810000000000000     -2.868742000000000      2.107857000000000
H      -3.734448000000000     -2.276870000000000      0.883435000000000
P       1.559613000000000     -1.353508000000000     -0.368087000000000
C       2.241327000000000     -1.404426000000000     -2.081466000000000
C       2.740530000000000     -2.451472000000000      0.533856000000000
C       2.105652000000000      0.333476000000000      0.144702000000000
C       1.595315000000000     -2.188471000000000     -3.039751000000000
C       2.104960000000000     -2.296026000000000     -4.333013000000000
C       3.266684000000000     -1.616005000000000     -4.681833000000000
C       3.922474000000000     -0.832385000000000     -3.732706000000000
C       3.415732000000000     -0.728669000000000     -2.441877000000000
C       2.472990000000000     -2.764271000000000      1.872579000000000
C       3.319346000000000     -3.598292000000000      2.595446000000000
C       4.438008000000000     -4.157676000000000      1.981859000000000
C       4.705182000000000     -3.868150000000000      0.647859000000000
C       3.867694000000000     -3.017118000000000     -0.071672000000000
C       1.812064000000000      1.392493000000000     -0.720008000000000
C       2.181648000000000      2.695188000000000     -0.390666000000000
C       2.805916000000000      2.966105000000000      0.829405000000000
C       3.066137000000000      1.922132000000000      1.706479000000000
C       2.730114000000000      0.611165000000000      1.362842000000000
H       0.686196000000000     -2.714948000000000     -2.767598000000000
H       1.587567000000000     -2.906614000000000     -5.066179000000000
H       3.661412000000000     -1.692292000000000     -5.690113000000000
H       4.830072000000000     -0.299714000000000     -3.998982000000000
H       3.936723000000000     -0.120013000000000     -1.707840000000000
H       1.587334000000000     -2.355579000000000      2.346596000000000
H       3.094055000000000     -3.824595000000000      3.633103000000000
H       5.091451000000000     -4.821855000000000      2.538618000000000
H       5.568724000000000     -4.306742000000000      0.157558000000000
H       4.093195000000000     -2.809842000000000     -1.112102000000000
H       1.308300000000000      1.206804000000000     -1.665270000000000
C       1.878286000000000      3.832107000000000     -1.297946000000000
H       3.071067000000000      3.990926000000000      1.066839000000000
H       3.538771000000000      2.119114000000000      2.663300000000000
H       2.962663000000000     -0.195750000000000      2.051313000000000
Rh     -0.734273000000000     -1.865775000000000     -0.140301000000000
C      -1.372757000000000     -1.078936000000000     -1.829799000000000
O      -1.775100000000000     -0.601510000000000     -2.786539000000000
H      -0.321890000000000     -2.490720000000000      1.240571000000000
O      -1.209570000000000      5.167204000000000     -2.171894000000000
O      -0.407820000000000      4.791715000000000     -0.108069000000000
H       0.221362000000000      5.487640000000000     -0.383480000000000
O       2.186632000000000      4.986329000000000     -1.084797000000000
O       1.168860000000000      3.463155000000000     -2.373563000000000
H       0.890190000000000      4.273938000000000     -2.841030000000000
C      -2.014384000000000     -3.635983000000000     -0.213137000000000
C      -0.794930000000000     -3.929275000000000     -0.855570000000000
C       0.250286000000000     -4.805591000000000     -0.224077000000000
O       0.025874000000000     -6.192470000000000     -0.566877000000000
C      -0.801150000000000     -6.880230000000000      0.236528000000000
C      -0.993464000000000     -8.286381000000000     -0.274430000000000
O      -1.316646000000000     -6.431525000000000      1.231100000000000
H      -2.192336000000000     -4.018665000000000      0.787123000000000
H      -2.902930000000000     -3.469130000000000     -0.817316000000000
H      -0.797999000000000     -3.971707000000000     -1.944899000000000
H       0.251205000000000     -4.700754000000000      0.863056000000000
H       1.249940000000000     -4.591577000000000     -0.610451000000000
H      -0.023663000000000     -8.768127000000000     -0.418583000000000
H      -1.494173000000000     -8.253792000000001     -1.245815000000000
H      -1.596585000000000     -8.849905000000000      0.435797000000000
