93

P       2.093199000000000     -0.541356000000000     -0.087252000000000
C       2.692044000000000     -1.476684000000000      1.377040000000000
C       2.393627000000000      1.223105000000000      0.366418000000000
C       3.466755000000000     -0.765022000000000     -1.296344000000000
C       2.156922000000000     -1.184686000000000      2.638908000000000
C       2.477833000000000     -1.963211000000000      3.745122000000000
C       3.326445000000000     -3.059951000000000      3.603660000000000
C       3.849189000000000     -3.369264000000000      2.352027000000000
C       3.535614000000000     -2.583489000000000      1.244150000000000
C       3.134527000000000      1.647139000000000      1.474230000000000
C       3.254795000000000      3.003346000000000      1.758473000000000
C       2.648522000000000      3.946371000000000      0.930186000000000
C       1.943780000000000      3.536231000000000     -0.203591000000000
C       1.815718000000000      2.181920000000000     -0.474564000000000
C       3.201838000000000     -1.153159000000000     -2.609589000000000
C       4.242532000000000     -1.292689000000000     -3.528731000000000
C       5.553921000000000     -1.045618000000000     -3.139797000000000
C       5.827620000000000     -0.650146000000000     -1.829720000000000
C       4.790902000000000     -0.506570000000000     -0.916228000000000
H       1.486418000000000     -0.335511000000000      2.757299000000000
H       2.059079000000000     -1.717927000000000      4.716023000000000
H       3.572949000000000     -3.672338000000000      4.465069000000000
H       4.504922000000000     -4.226011000000000      2.232099000000000
H       3.949001000000000     -2.836268000000000      0.272235000000000
H       3.604943000000000      0.920183000000000      2.129164000000000
H       3.805057000000000      3.348721000000000      2.627850000000000
C       2.734603000000000      5.375988000000000      1.323747000000000
H       1.470318000000000      4.273326000000000     -0.842408000000000
H       1.227687000000000      1.854930000000000     -1.329640000000000
H       2.175358000000000     -1.336025000000000     -2.909405000000000
H       4.023080000000000     -1.595137000000000     -4.547939000000000
H       6.364147000000000     -1.155522000000000     -3.853896000000000
H       6.849298000000000     -0.448855000000000     -1.523205000000000
H       5.009047000000000     -0.192637000000000      0.101881000000000
P      -1.656528000000000      0.564309000000000     -0.599291000000000
C      -3.230890000000000     -0.025275000000000      0.156482000000000
C      -2.262338000000000      1.314411000000000     -2.166755000000000
C      -1.271708000000000      2.050900000000000      0.418912000000000
C      -3.905355000000000     -1.063428000000000     -0.503462000000000
C      -5.072915000000000     -1.591693000000000      0.025861000000000
C      -5.576696000000000     -1.095684000000000      1.231707000000000
C      -4.913556000000000     -0.063931000000000      1.894517000000000
C      -3.746797000000000      0.473927000000000      1.355065000000000
C      -3.577834000000000      1.774985000000000     -2.301106000000000
C      -3.994379000000000      2.385074000000000     -3.481215000000000
C      -3.101610000000000      2.549207000000000     -4.537866000000000
C      -1.790313000000000      2.098695000000000     -4.411628000000000
C      -1.374900000000000      1.480646000000000     -3.234833000000000
C      -0.622389000000000      1.841164000000000      1.642361000000000
C      -0.278922000000000      2.911520000000000      2.459466000000000
C      -0.562329000000000      4.215112000000000      2.051399000000000
C      -1.199832000000000      4.435162000000000      0.834862000000000
C      -1.561074000000000      3.358723000000000      0.023829000000000
H      -3.531189000000000     -1.464654000000000     -1.440745000000000
H      -5.597638000000000     -2.391065000000000     -0.487290000000000
C      -6.825857000000000     -1.697255000000000      1.767607000000000
H      -5.312400000000000      0.320605000000000      2.826725000000000
H      -3.245295000000000      1.285692000000000      1.872209000000000
H      -4.280155000000000      1.655681000000000     -1.481153000000000
H      -5.019217000000000      2.730381000000000     -3.574456000000000
H      -3.429071000000000      3.022127000000000     -5.458439000000000
H      -1.090337000000000      2.218230000000000     -5.232707000000000
H      -0.359126000000000      1.105560000000000     -3.147881000000000
H      -0.376147000000000      0.824682000000000      1.943962000000000
H       0.230202000000000      2.732579000000000      3.401669000000000
H      -0.274165000000000      5.055054000000000      2.676738000000000
H      -1.412250000000000      5.448476000000000      0.508260000000000
H      -2.057502000000000      3.544847000000000     -0.923721000000000
Rh     -0.061638000000000     -1.163457000000000     -0.731422000000000
C      -0.593662000000000     -1.955311000000000      0.990674000000000
O      -0.912438000000000     -2.410059000000000      1.988184000000000
H       0.358632000000000     -0.543188000000000     -2.117518000000000
O       3.332736000000000      5.793025000000000      2.287291000000000
O       2.050676000000000      6.193387000000000      0.496837000000000
H       2.182601000000000      7.093418000000000      0.841949000000000
O      -7.446830000000000     -2.586649000000000      1.237308000000000
O      -7.219460000000000     -1.144839000000000      2.934257000000000
H      -8.034663000000000     -1.610963000000000      3.188105000000000
C       0.238680000000000     -3.116739000000000     -1.656102000000000
C      -1.080443000000000     -2.684146000000000     -1.909876000000000
C      -1.482861000000000     -2.213399000000000     -3.279712000000000
O      -2.016476000000000     -3.301656000000000     -4.071497000000000
C      -3.275266000000000     -3.661750000000000     -3.794696000000000
C      -3.713228000000000     -4.820018000000000     -4.652951000000000
O      -3.964730000000000     -3.122911000000000     -2.959116000000000
H       0.975473000000000     -3.083523000000000     -2.454432000000000
H       0.433783000000000     -3.871272000000000     -0.899441000000000
H      -1.896555000000000     -3.109827000000000     -1.328441000000000
H      -0.611681000000000     -1.864450000000000     -3.838717000000000
H      -2.231049000000000     -1.415983000000000     -3.252094000000000
H      -3.090764000000000     -5.690992000000000     -4.431644000000000
H      -3.575182000000000     -4.574459000000000     -5.708487000000000
H      -4.758376000000000     -5.046775000000000     -4.448630000000000
