99

P       1.816865000000000     -0.848889000000000     -0.329355000000000
C       2.501184000000000      0.808763000000000      0.121191000000000
C       3.198816000000000     -1.591467000000000     -1.284262000000000
C       1.921509000000000     -1.753911000000000      1.276190000000000
C       1.646506000000000      1.908511000000000      0.071096000000000
C       2.034981000000000      3.173894000000000      0.526003000000000
C       3.331617000000000      3.328431000000000      1.010325000000000
C       4.218428000000000      2.250127000000000      1.027012000000000
C       3.810164000000000      0.997573000000000      0.587127000000000
C       3.951014000000000     -0.811201000000000     -2.168768000000000
C       4.898638000000000     -1.402635000000000     -3.000435000000000
C       5.102131000000000     -2.779806000000000     -2.962685000000000
C       4.349611000000000     -3.564804000000000     -2.091837000000000
C       3.400978000000000     -2.975979000000000     -1.260577000000000
C       3.151784000000000     -2.058047000000000      1.875184000000000
C       3.200238000000000     -2.692832000000000      3.111097000000000
C       2.018199000000000     -3.036015000000000      3.768524000000000
C       0.792448000000000     -2.748747000000000      3.178081000000000
C       0.745214000000000     -2.115121000000000      1.936033000000000
H       0.638511000000000      1.779114000000000     -0.318059000000000
C       1.054753000000000      4.321740000000000      0.466220000000000
H       3.656686000000000      4.301860000000000      1.368804000000000
H       5.232160000000000      2.390470000000000      1.389661000000000
H       4.512034000000000      0.169520000000000      0.597840000000000
H       3.798443000000000      0.264766000000000     -2.206147000000000
H       5.478611000000000     -0.784063000000000     -3.678374000000000
H       5.841409000000000     -3.239812000000000     -3.610740000000000
H       4.499511000000000     -4.639598000000000     -2.059382000000000
H       2.814074000000000     -3.594755000000000     -0.585954000000000
H       4.079604000000000     -1.823816000000000      1.362040000000000
H       4.161140000000000     -2.926448000000000      3.559119000000000
H       2.057639000000000     -3.532681000000000      4.733291000000000
H      -0.135640000000000     -3.012320000000000      3.675861000000000
H      -0.213343000000000     -1.905814000000000      1.474369000000000
P      -1.964443000000000      0.098125000000000     -0.386442000000000
C      -1.908683000000000      0.048920000000000      1.455325000000000
C      -3.600365000000000     -0.671091000000000     -0.742434000000000
C      -2.308633000000000      1.872026000000000     -0.759285000000000
C      -0.916251000000000      0.781574000000000      2.116216000000000
C      -0.724274000000000      0.692175000000000      3.494717000000000
C      -1.541207000000000     -0.176143000000000      4.222184000000000
C      -2.534120000000000     -0.912753000000000      3.583087000000000
C      -2.727765000000000     -0.798846000000000      2.206947000000000
C      -3.666337000000000     -2.067346000000000     -0.834564000000000
C      -4.877613000000000     -2.704265000000000     -1.086901000000000
C      -6.036570000000000     -1.951945000000000     -1.267699000000000
C      -5.980061000000000     -0.564108000000000     -1.179208000000000
C      -4.770981000000000      0.074694000000000     -0.911040000000000
C      -2.382438000000000      2.233305000000000     -2.112434000000000
C      -2.682617000000000      3.538532000000000     -2.486572000000000
C      -2.897041000000000      4.510996000000000     -1.510990000000000
C      -2.821815000000000      4.165477000000000     -0.165193000000000
C      -2.539761000000000      2.851699000000000      0.211071000000000
H      -0.261231000000000      1.438551000000000      1.549564000000000
C       0.384798000000000      1.479003000000000      4.151349000000000
H      -1.397370000000000     -0.272078000000000      5.295542000000000
H      -3.171397000000000     -1.576867000000000      4.159616000000000
H      -3.511734000000000     -1.374059000000000      1.725294000000000
H      -2.757994000000000     -2.649873000000000     -0.704805000000000
H      -4.913194000000000     -3.787271000000000     -1.153330000000000
H      -6.979648000000000     -2.446279000000000     -1.478860000000000
H      -6.879498000000000      0.027584000000000     -1.318214000000000
H      -4.742319000000000      1.157602000000000     -0.837907000000000
H      -2.221755000000000      1.480947000000000     -2.881495000000000
H      -2.743777000000000      3.793774000000000     -3.539636000000000
H      -3.121066000000000      5.533150000000000     -1.800126000000000
H      -2.992546000000000      4.916001000000000      0.600891000000000
H      -2.513211000000000      2.592144000000000      1.264563000000000
Rh     -0.173540000000000     -0.875886000000000     -1.557999000000000
C       0.352965000000000      0.657133000000000     -2.655266000000000
O       0.728747000000000      1.536371000000000     -3.283954000000000
H      -0.513971000000000     -2.154171000000000     -0.693394000000000
H       0.162656000000000      4.070168000000000      1.056594000000000
H       1.503680000000000      5.205557000000000      0.932707000000000
C       0.620817000000000      4.644981000000000     -0.966485000000000
H      -0.061013000000000      5.499848000000000     -0.982887000000000
H       1.488887000000000      4.877753000000000     -1.590769000000000
H       0.095492000000000      3.796320000000000     -1.418343000000000
H       0.345430000000000      2.519897000000000      3.806781000000000
H       0.226027000000000      1.497081000000000      5.235265000000000
C       1.766490000000000      0.896367000000000      3.832966000000000
H       1.831366000000000     -0.149205000000000      4.151271000000000
H       1.960247000000000      0.929067000000000      2.756171000000000
H       2.554966000000000      1.465567000000000      4.334712000000000
C       0.282525000000000     -2.273556000000000     -3.163100000000000
C      -1.106698000000000     -2.038234000000000     -3.144454000000000
C      -1.799935000000000     -1.184512000000000     -4.160234000000000
O      -2.226450000000000     -2.024428000000000     -5.255059000000000
C      -2.899647000000000     -1.392071000000000     -6.226750000000000
C      -3.312015000000000     -2.351627000000000     -7.314804000000000
O      -3.134938000000000     -0.207860000000000     -6.216800000000000
H       0.905351000000000     -1.804739000000000     -3.922977000000000
H       0.687103000000000     -3.192462000000000     -2.750850000000000
H      -1.749689000000000     -2.794885000000000     -2.701715000000000
H      -1.139878000000000     -0.407410000000000     -4.562761000000000
H      -2.689902000000000     -0.700294000000000     -3.742806000000000
H      -3.943896000000000     -3.137266000000000     -6.893090000000000
H      -2.426345000000000     -2.832264000000000     -7.737675000000000
H      -3.852263000000000     -1.809473000000000     -8.089375000000000
