99

P      -3.503080000000000     -0.995961000000000      0.600961000000000
C      -4.671668000000000     -1.651934000000000     -0.662645000000000
C      -4.316306000000000      0.558269000000000      1.166314000000000
C      -3.839734000000000     -2.153263000000000      1.989642000000000
C      -4.367074000000000     -2.909947000000000     -1.202174000000000
C      -5.123043000000000     -3.437936000000000     -2.238910000000000
C      -6.203884000000000     -2.728296000000000     -2.776207000000000
C      -6.516459000000000     -1.489213000000000     -2.222416000000000
C      -5.768607000000000     -0.956566000000000     -1.172272000000000
C      -4.402476000000000      1.625103000000000      0.260400000000000
C      -4.923690000000000      2.853357000000000      0.651677000000000
C      -5.349791000000000      3.043599000000000      1.965373000000000
C      -5.261025000000000      1.995183000000000      2.875279000000000
C      -4.753879000000000      0.757817000000000      2.479086000000000
C      -2.786548000000000     -2.716666000000000      2.708779000000000
C      -3.040101000000000     -3.547791000000000      3.799970000000000
C      -4.350643000000000     -3.832557000000000      4.167363000000000
C      -5.411440000000000     -3.294529000000000      3.436761000000000
C      -5.157804000000000     -2.461977000000000      2.353149000000000
H      -3.522320000000000     -3.470452000000000     -0.806757000000000
H      -4.870377000000000     -4.414515000000000     -2.646334000000000
C      -6.967114000000000     -3.271846000000000     -3.958201000000000
H      -7.355412000000000     -0.923763000000000     -2.620105000000000
H      -6.047245000000000      0.008650000000000     -0.762445000000000
H      -4.065269000000000      1.490270000000000     -0.765339000000000
H      -4.987979000000000      3.663335000000000     -0.067927000000000
H      -5.746404000000000      4.004993000000000      2.276006000000000
H      -5.591228000000000      2.134447000000000      3.900638000000000
H      -4.687265000000000     -0.049388000000000      3.201732000000000
H      -1.765706000000000     -2.505174000000000      2.411176000000000
H      -2.208368000000000     -3.967318000000000      4.357661000000000
H      -4.550423000000000     -4.479822000000000      5.015958000000000
H      -6.435690000000000     -3.526861000000000      3.711620000000000
H      -5.984479000000000     -2.042534000000000      1.784085000000000
P       0.271128000000000     -0.450943000000000      1.433161000000000
C      -0.363168000000000     -0.461896000000000      3.158139000000000
C       1.195078000000000      1.140549000000000      1.356049000000000
C       1.662699000000000     -1.655203000000000      1.513758000000000
C       0.109481000000000     -1.314771000000000      4.156675000000000
C      -0.529964000000000     -1.370264000000000      5.395279000000000
C      -1.637017000000000     -0.569631000000000      5.673333000000000
C      -2.085318000000000      0.308056000000000      4.679889000000000
C      -1.470345000000000      0.351867000000000      3.436506000000000
C       1.757310000000000      1.494075000000000      0.122756000000000
C       2.481914000000000      2.672504000000000     -0.012287000000000
C       2.644144000000000      3.520731000000000      1.082404000000000
C       2.085855000000000      3.179179000000000      2.309881000000000
C       1.367727000000000      1.991608000000000      2.450052000000000
C       1.498579000000000     -2.940522000000000      0.990348000000000
C       2.525301000000000     -3.878706000000000      1.085000000000000
C       3.727734000000000     -3.538660000000000      1.697008000000000
C       3.902608000000000     -2.256982000000000      2.216944000000000
C       2.877494000000000     -1.320847000000000      2.126167000000000
H       0.962533000000000     -1.959284000000000      3.965805000000000
H      -0.164220000000000     -2.056297000000000      6.156112000000000
C      -2.312114000000000     -0.609560000000000      7.021529000000000
H      -2.945631000000000      0.945618000000000      4.873919000000000
H      -1.868015000000000      1.006386000000000      2.662140000000000
H       1.618043000000000      0.836757000000000     -0.733471000000000
H       2.912670000000000      2.933855000000000     -0.973790000000000
H       3.201704000000000      4.446008000000000      0.976046000000000
H       2.208893000000000      3.835667000000000      3.165807000000000
H       0.943028000000000      1.730022000000000      3.414656000000000
H       0.563827000000000     -3.198076000000000      0.500874000000000
H       2.385066000000000     -4.872855000000000      0.672046000000000
H       4.529814000000000     -4.267092000000000      1.765334000000000
H       4.840145000000000     -1.984746000000000      2.691841000000000
H       3.020592000000000     -0.323410000000000      2.533367000000000
Rh     -1.329320000000000     -0.757671000000000     -0.256353000000000
C      -1.386341000000000      1.145570000000000     -0.703573000000000
O      -1.363904000000000      2.263665000000000     -0.944041000000000
H      -1.247001000000000     -2.292827000000000      0.113866000000000
H      -7.101959000000000     -4.353818000000000     -3.844573000000000
H      -7.967565000000000     -2.826552000000000     -3.985168000000000
C      -6.239009000000000     -2.979081000000000     -5.275304000000000
H      -5.246631000000000     -3.444069000000000     -5.270440000000000
H      -6.795862000000000     -3.372517000000000     -6.131148000000000
H      -6.100988000000000     -1.901541000000000     -5.405226000000000
H      -3.395692000000000     -0.510620000000000      6.890106000000000
H      -2.137364000000000     -1.584096000000000      7.490461000000000
C      -1.802215000000000      0.504725000000000      7.942434000000000
H      -2.299800000000000      0.472266000000000      8.915940000000001
H      -0.724191000000000      0.407334000000000      8.102784000000000
H      -1.984763000000000      1.487280000000000      7.496253000000000
C      -0.174959000000000     -1.257591000000000     -2.046052000000000
C      -1.536427000000000     -1.539465000000000     -2.274777000000000
C      -2.407452000000000     -0.689968000000000     -3.149682000000000
O      -2.396841000000000     -1.254773000000000     -4.480820000000000
C      -3.411167000000000     -0.899599000000000     -5.279600000000000
C      -3.287847000000000     -1.557676000000000     -6.631987000000000
O      -4.294882000000000     -0.140825000000000     -4.957583000000000
H       0.270949000000000     -0.376299000000000     -2.504330000000000
H       0.523542000000000     -2.060061000000000     -1.829336000000000
H      -1.867145000000000     -2.573380000000000     -2.213075000000000
H      -2.033389000000000      0.339538000000000     -3.214358000000000
H      -3.444009000000000     -0.665628000000000     -2.803707000000000
H      -3.114506000000000     -2.629753000000000     -6.516577000000000
H      -2.426448000000000     -1.137746000000000     -7.159182000000000
H      -4.194586000000000     -1.376463000000000     -7.208090000000000
