87

P      -2.400389000000000      0.060224000000000     -0.352560000000000
C      -3.242204000000000      1.687181000000000     -0.583744000000000
C      -2.300902000000000      0.026202000000000      1.486094000000000
C      -3.746914000000000     -1.122709000000000     -0.761441000000000
C      -4.172881000000000      2.138473000000000      0.359576000000000
C      -4.835295000000000      3.332560000000000      0.132543000000000
C      -4.613914000000000      4.101248000000000     -1.002589000000000
C      -3.692390000000000      3.645297000000000     -1.937999000000000
C      -3.007654000000000      2.446877000000000     -1.732625000000000
C      -1.471890000000000      0.982873000000000      2.088740000000000
C      -1.329620000000000      1.031187000000000      3.468590000000000
C      -2.000888000000000      0.107159000000000      4.270148000000000
C      -2.821685000000000     -0.848291000000000      3.682444000000000
C      -2.979808000000000     -0.885509000000000      2.295560000000000
C      -4.903056000000000     -0.729775000000000     -1.439730000000000
C      -5.786738000000000     -1.687512000000000     -1.939644000000000
C      -5.532154000000000     -3.041969000000000     -1.760526000000000
C      -4.395625000000000     -3.443327000000000     -1.058693000000000
C      -3.508809000000000     -2.492231000000000     -0.570842000000000
H      -4.387231000000000      1.577901000000000      1.264328000000000
F      -5.723976000000000      3.762904000000000      1.039613000000000
H      -5.157222000000000      5.030708000000000     -1.130972000000000
H      -3.501493000000000      4.228878000000000     -2.832872000000000
H      -2.282329000000000      2.100005000000000     -2.460854000000000
H      -0.929369000000000      1.694956000000000      1.469253000000000
H      -0.679775000000000      1.775755000000000      3.917403000000000
H      -1.881686000000000      0.135002000000000      5.348949000000000
H      -3.354831000000000     -1.564152000000000      4.300674000000000
H      -3.646620000000000     -1.618834000000000      1.853104000000000
H      -5.107835000000000      0.323168000000000     -1.606269000000000
H      -6.669663000000000     -1.367047000000000     -2.483866000000000
H      -6.202566000000000     -3.785017000000000     -2.178738000000000
H      -4.184891000000000     -4.498668000000000     -0.920001000000000
H      -2.605904000000000     -2.817638000000000     -0.058537000000000
P       1.424752000000000      0.178411000000000     -0.469394000000000
C       2.958094000000000     -0.680344000000000     -1.029165000000000
C       1.458736000000000     -0.173599000000000      1.341596000000000
C       1.944230000000000      1.943674000000000     -0.520686000000000
C       3.816396000000000     -1.350165000000000     -0.155770000000000
C       4.943430000000000     -1.975608000000000     -0.672846000000000
C       5.257520000000000     -1.949250000000000     -2.021305000000000
C       4.398630000000000     -1.272046000000000     -2.885294000000000
C       3.254058000000000     -0.650040000000000     -2.398487000000000
C       0.802454000000000     -1.320386000000000      1.804821000000000
C       0.825000000000000     -1.657813000000000      3.153638000000000
C       1.495450000000000     -0.843095000000000      4.063541000000000
C       2.142725000000000      0.305134000000000      3.616357000000000
C       2.126970000000000      0.638717000000000      2.262847000000000
C       0.957945000000000      2.936516000000000     -0.507356000000000
C       1.309735000000000      4.282714000000000     -0.473165000000000
C       2.652283000000000      4.653975000000000     -0.468008000000000
C       3.640676000000000      3.673699000000000     -0.492137000000000
C       3.290051000000000      2.325364000000000     -0.513733000000000
H       3.631753000000000     -1.398435000000000      0.912264000000000
F       5.761680000000000     -2.621653000000000      0.171063000000000
H       6.150906000000000     -2.453345000000000     -2.371941000000000
H       4.622436000000000     -1.239217000000000     -3.946738000000000
H       2.577702000000000     -0.138664000000000     -3.076999000000000
H       0.254621000000000     -1.947196000000000      1.107506000000000
H       0.302552000000000     -2.545771000000000      3.495216000000000
H       1.505784000000000     -1.098856000000000      5.118681000000000
H       2.663963000000000      0.946467000000000      4.320674000000000
H       2.637779000000000      1.536488000000000      1.927813000000000
H      -0.090903000000000      2.652946000000000     -0.544834000000000
H       0.532449000000000      5.040515000000000     -0.462660000000000
H       2.927277000000000      5.703967000000000     -0.451496000000000
H       4.688870000000000      3.956101000000000     -0.494078000000000
H       4.068697000000000      1.567796000000000     -0.524050000000000
Rh     -0.496047000000000     -0.400562000000000     -1.683572000000000
C      -0.291556000000000     -2.328773000000000     -1.355410000000000
O      -0.086218000000000     -3.443704000000000     -1.198527000000000
H      -0.512035000000000      1.119796000000000     -2.048416000000000
C      -0.002853000000000     -0.623015000000000     -3.783210000000000
C      -1.409791000000000     -0.639112000000000     -3.636724000000000
C      -2.209443000000000     -1.898036000000000     -3.800697000000000
O      -2.611089000000000     -1.996214000000000     -5.185400000000000
C      -3.476032000000000     -2.983145000000000     -5.460297000000000
C      -3.848954000000000     -2.983050000000000     -6.922141000000000
O      -3.891557000000000     -3.762734000000000     -4.637261000000000
H       0.524118000000000     -1.554832000000000     -3.982318000000000
H       0.486876000000000      0.266822000000000     -4.166139000000000
H      -1.964498000000000      0.260775000000000     -3.897087000000000
H      -3.114007000000000     -1.907787000000000     -3.188096000000000
H      -1.620419000000000     -2.789052000000000     -3.552231000000000
H      -4.298891000000000     -2.023402000000000     -7.188618000000000
H      -4.549043000000000     -3.794045000000000     -7.116874000000000
H      -2.950390000000000     -3.106249000000000     -7.531786000000000
