87

P       1.929914000000000     -0.350395000000000      0.010254000000000
C       1.907254000000000      1.305790000000000     -0.811721000000000
C       2.964801000000000     -1.293421000000000     -1.184237000000000
C       3.122640000000000     -0.053658000000000      1.382286000000000
C       1.110085000000000      2.320279000000000     -0.280948000000000
C       0.986281000000000      3.574870000000000     -0.851295000000000
C       1.698492000000000      3.848022000000000     -2.014911000000000
C       2.511902000000000      2.868463000000000     -2.577576000000000
C       2.611013000000000      1.612688000000000     -1.981882000000000
C       4.363170000000000     -1.249288000000000     -1.155300000000000
C       5.108947000000000     -1.928259000000000     -2.115809000000000
C       4.467110000000000     -2.648434000000000     -3.120637000000000
C       3.075719000000000     -2.693180000000000     -3.159221000000000
C       2.328991000000000     -2.025262000000000     -2.192223000000000
C       3.426262000000000     -1.146238000000000      2.205773000000000
C       4.316012000000000     -1.006906000000000      3.264407000000000
C       4.902053000000000      0.231459000000000      3.525718000000000
C       4.602832000000000      1.321302000000000      2.715394000000000
C       3.722473000000000      1.179829000000000      1.642503000000000
F       0.429052000000000      2.083195000000000      0.857598000000000
H       0.333250000000000      4.304727000000000     -0.385851000000000
H       1.610277000000000      4.824050000000000     -2.481125000000000
H       3.070333000000000      3.077514000000000     -3.484166000000000
H       3.243233000000000      0.855666000000000     -2.435004000000000
H       4.871157000000000     -0.680312000000000     -0.381744000000000
H       6.193331000000000     -1.892295000000000     -2.078874000000000
H       5.050039000000000     -3.176866000000000     -3.868608000000000
H       2.569143000000000     -3.256881000000000     -3.936500000000000
H       1.243992000000000     -2.080284000000000     -2.205157000000000
H       2.958443000000000     -2.107071000000000      2.006666000000000
H       4.546158000000000     -1.862697000000000      3.891414000000000
H       5.588424000000000      0.344164000000000      4.359048000000000
H       5.056547000000000      2.287711000000000      2.912248000000000
H       3.511524000000000      2.035347000000000      1.007986000000000
P      -1.955282000000000     -0.299966000000000     -0.280103000000000
C      -3.055531000000000     -1.339732000000000     -1.332600000000000
C      -1.805644000000000      1.128648000000000     -1.435193000000000
C      -3.051918000000000      0.244275000000000      1.080903000000000
C      -4.354085000000000     -0.946308000000000     -1.660387000000000
C      -5.176071000000000     -1.685312000000000     -2.495886000000000
C      -4.681609000000000     -2.859590000000000     -3.056137000000000
C      -3.382005000000000     -3.272165000000000     -2.776501000000000
C      -2.583085000000000     -2.515574000000000     -1.922377000000000
C      -0.850115000000000      0.994569000000000     -2.449908000000000
C      -0.714384000000000      1.968827000000000     -3.432335000000000
C      -1.520618000000000      3.105050000000000     -3.397596000000000
C      -2.470867000000000      3.248955000000000     -2.390753000000000
C      -2.625105000000000      2.260160000000000     -1.419995000000000
C      -3.928877000000000     -0.684507000000000      1.650753000000000
C      -4.617828000000000     -0.374626000000000      2.818959000000000
C      -4.443562000000000      0.866902000000000      3.427230000000000
C      -3.560011000000000      1.789553000000000      2.872748000000000
C      -2.856551000000000      1.477145000000000      1.711774000000000
F      -4.841097000000000      0.198166000000000     -1.157826000000000
H      -6.178663000000000     -1.325384000000000     -2.697862000000000
H      -5.314189000000000     -3.446939000000000     -3.713860000000000
H      -2.990760000000000     -4.183594000000000     -3.215988000000000
H      -1.571678000000000     -2.835454000000000     -1.688152000000000
H      -0.207897000000000      0.115463000000000     -2.465203000000000
H       0.032689000000000      1.849778000000000     -4.210832000000000
H      -1.409427000000000      3.874790000000000     -4.155486000000000
H      -3.109940000000000      4.126531000000000     -2.366946000000000
H      -3.397254000000000      2.362361000000000     -0.664818000000000
H      -4.055148000000000     -1.671108000000000      1.212039000000000
H      -5.278648000000000     -1.117588000000000      3.254069000000000
H      -4.981844000000000      1.108913000000000      4.338313000000000
H      -3.403962000000000      2.751531000000000      3.351338000000000
H      -2.134695000000000      2.184598000000000      1.311462000000000
Rh     -0.087366000000000     -1.325407000000000      0.745330000000000
C      -0.151396000000000     -0.184425000000000      2.370458000000000
O      -0.145737000000000      0.411829000000000      3.341313000000000
H       0.018092000000000     -2.315646000000000     -0.470122000000000
C       0.404959000000000     -3.048052000000000      1.957445000000000
C      -1.002684000000000     -2.953162000000000      1.818233000000000
C      -1.763052000000000     -3.940524000000000      0.981783000000000
O      -2.214358000000000     -5.055177000000000      1.788407000000000
C      -3.342120000000000     -4.856068000000000      2.482316000000000
C      -3.682303000000000     -6.063729000000000      3.318479000000000
O      -3.995162000000000     -3.839021000000000      2.442649000000000
H       0.942733000000000     -3.808782000000000      1.395317000000000
H       0.876002000000000     -2.759496000000000      2.893947000000000
H      -1.591538000000000     -2.556113000000000      2.645283000000000
H      -1.116422000000000     -4.387000000000000      0.222401000000000
H      -2.639306000000000     -3.498032000000000      0.504425000000000
H      -2.901140000000000     -6.216783000000000      4.067840000000000
H      -3.715932000000000     -6.956118000000000      2.689274000000000
H      -4.642152000000000     -5.906726000000000      3.808085000000000
