87

P       1.996180000000000      0.017224000000000      0.259666000000000
C       3.159474000000000     -0.545134000000000     -1.049230000000000
C       3.149368000000000      0.284425000000000      1.669917000000000
C       1.624335000000000      1.749884000000000     -0.264666000000000
C       2.672986000000000     -1.308340000000000     -2.115810000000000
C       3.508817000000000     -1.702226000000000     -3.156283000000000
C       4.844049000000000     -1.332682000000000     -3.109467000000000
C       5.365958000000000     -0.584723000000000     -2.063610000000000
C       4.515336000000000     -0.191986000000000     -1.035885000000000
C       3.720738000000000     -0.853718000000000      2.256023000000000
C       4.586294000000000     -0.732118000000000      3.336183000000000
C       4.880662000000000      0.528430000000000      3.856988000000000
C       4.313881000000000      1.661532000000000      3.284205000000000
C       3.455728000000000      1.543483000000000      2.189912000000000
C       2.328838000000000      2.421630000000000     -1.267568000000000
C       1.947650000000000      3.703692000000000     -1.662097000000000
C       0.865198000000000      4.333240000000000     -1.054644000000000
C       0.166968000000000      3.679229000000000     -0.041155000000000
C       0.540493000000000      2.396141000000000      0.343803000000000
H       1.630629000000000     -1.613471000000000     -2.118833000000000
H       3.147047000000000     -2.296216000000000     -3.988044000000000
F       5.658711000000000     -1.714454000000000     -4.101419000000000
H       6.418643000000000     -0.325097000000000     -2.066325000000000
H       4.912817000000000      0.396597000000000     -0.213676000000000
H       3.482190000000000     -1.835968000000000      1.854956000000000
H       5.026506000000000     -1.620917000000000      3.777538000000000
H       5.549173000000000      0.623574000000000      4.706839000000000
H       4.540161000000000      2.645327000000000      3.683606000000000
H       3.027867000000000      2.436231000000000      1.743906000000000
H       3.169453000000000      1.941189000000000     -1.758898000000000
H       2.496678000000000      4.207214000000000     -2.452096000000000
H       0.562949000000000      5.326190000000000     -1.372434000000000
H      -0.680674000000000      4.160712000000000      0.437286000000000
H      -0.032670000000000      1.878787000000000      1.109569000000000
P      -1.831229000000000     -0.644944000000000     -0.236496000000000
C      -1.878870000000000      0.757981000000000     -1.428202000000000
C      -3.002810000000000     -0.181582000000000      1.096055000000000
C      -2.772777000000000     -1.881473000000000     -1.229608000000000
C      -0.750521000000000      0.965368000000000     -2.226972000000000
C      -0.714711000000000      1.981588000000000     -3.175089000000000
C      -1.829511000000000      2.794057000000000     -3.309404000000000
C      -2.978681000000000      2.603139000000000     -2.555636000000000
C      -3.000720000000000      1.571294000000000     -1.622978000000000
C      -3.147291000000000      1.137958000000000      1.535428000000000
C      -3.866802000000000      1.419188000000000      2.696215000000000
C      -4.439478000000000      0.387103000000000      3.433119000000000
C      -4.284856000000000     -0.932730000000000      3.009861000000000
C      -3.567680000000000     -1.218096000000000      1.853306000000000
C      -4.170621000000000     -1.911901000000000     -1.258794000000000
C      -4.838068000000000     -2.816531000000000     -2.079941000000000
C      -4.117966000000000     -3.690415000000000     -2.890712000000000
C      -2.725891000000000     -3.658392000000000     -2.876717000000000
C      -2.057921000000000     -2.761654000000000     -2.047600000000000
H       0.121214000000000      0.330332000000000     -2.093355000000000
H       0.161957000000000      2.163803000000000     -3.786212000000000
F      -1.799723000000000      3.795629000000000     -4.200175000000000
H      -3.832769000000000      3.252735000000000     -2.711337000000000
H      -3.900846000000000      1.406419000000000     -1.037571000000000
H      -2.688634000000000      1.950992000000000      0.977731000000000
H      -3.972327000000000      2.448311000000000      3.025678000000000
H      -4.994784000000000      0.608449000000000      4.339092000000000
H      -4.709633000000000     -1.750979000000000      3.582947000000000
H      -3.429686000000000     -2.257649000000000      1.561530000000000
H      -4.742059000000000     -1.235217000000000     -0.629888000000000
H      -5.923420000000000     -2.837681000000000     -2.085111000000000
H      -4.640340000000000     -4.396104000000000     -3.529033000000000
H      -2.157968000000000     -4.338880000000000     -3.503644000000000
H      -0.971241000000000     -2.754125000000000     -2.013979000000000
Rh      0.158966000000000     -1.336800000000000      0.830511000000000
C      -0.209385000000000     -0.348397000000000      2.501448000000000
O      -0.424873000000000      0.182536000000000      3.488267000000000
H       0.461861000000000     -2.204999000000000     -0.446446000000000
C       0.953710000000000     -3.034651000000000      1.920418000000000
C      -0.447471000000000     -3.179898000000000      1.784587000000000
C      -1.045640000000000     -4.205725000000000      0.866432000000000
O      -1.323974000000000     -5.435106000000000      1.580285000000000
C      -2.439765000000000     -5.436360000000000      2.318449000000000
C      -2.616177000000000     -6.751321000000000      3.033980000000000
O      -3.202559000000000     -4.500386000000000      2.400082000000000
H       1.612016000000000     -3.639951000000000      1.300962000000000
H       1.380287000000000     -2.725448000000000      2.871267000000000
H      -1.084256000000000     -2.950735000000000      2.638622000000000
H      -0.339877000000000     -4.487817000000000      0.081594000000000
H      -1.978838000000000     -3.867700000000000      0.411637000000000
H      -1.785142000000000     -6.901430000000000      3.728110000000000
H      -2.597109000000000     -7.572314000000000      2.313466000000000
H      -3.559862000000000     -6.744668000000000      3.577149000000000
