103

P       2.064450000000000     -0.675036000000000      0.837341000000000
C       2.839950000000000     -2.361038000000000      0.697627000000000
C       2.324055000000000     -0.295290000000000      2.630978000000000
C       3.443774000000000      0.244647000000000     -0.005484000000000
C       2.203034000000000     -3.471618000000000      0.107718000000000
C       2.965416000000000     -4.615014000000000     -0.185337000000000
C       4.313832000000000     -4.683636000000000      0.135690000000000
C       4.935519000000000     -3.613038000000000      0.771966000000000
C       4.197599000000000     -2.466904000000000      1.033632000000000
C       2.729081000000000     -1.258777000000000      3.560598000000000
C       2.910567000000000     -0.925004000000000      4.902380000000000
C       2.701376000000000      0.378856000000000      5.337895000000000
C       2.263203000000000      1.341332000000000      4.429153000000000
C       2.057127000000000      1.000907000000000      3.096384000000000
C       3.993938000000000     -0.308190000000000     -1.172619000000000
C       4.891573000000000      0.413966000000000     -1.951234000000000
C       5.257791000000000      1.706950000000000     -1.582396000000000
C       4.726794000000000      2.261084000000000     -0.422589000000000
C       3.829658000000000      1.535056000000000      0.361767000000000
N       0.818136000000000     -3.427440000000000     -0.170094000000000
H       2.490681000000000     -5.467111000000000     -0.657643000000000
H       4.875393000000000     -5.582129000000000     -0.101905000000000
H       5.986278000000000     -3.658354000000000      1.037835000000000
H       4.694129000000000     -1.609078000000000      1.480301000000000
H       2.907659000000000     -2.280274000000000      3.242782000000000
H       3.223911000000000     -1.691486000000000      5.604638000000000
H       2.859070000000000      0.641358000000000      6.379595000000000
H       2.067602000000000      2.356981000000000      4.760001000000000
H       1.658363000000000      1.744401000000000      2.411600000000000
H       3.704684000000000     -1.307196000000000     -1.487705000000000
H       5.282296000000000     -0.022158000000000     -2.864615000000000
H       5.940903000000000      2.277574000000000     -2.203609000000000
H       5.007467000000000      3.265272000000000     -0.118585000000000
H       3.434458000000000      1.992435000000000      1.261774000000000
P      -2.053212000000000     -0.441378000000000      0.892551000000000
C      -3.301590000000000      0.916584000000000      1.178285000000000
C      -1.777023000000000     -1.076023000000000      2.617168000000000
C      -3.185712000000000     -1.728642000000000      0.209370000000000
C      -3.987127000000000      1.525404000000000      0.102655000000000
C      -4.866613000000000      2.581908000000000      0.358308000000000
C      -5.087080000000000      3.052352000000000      1.647289000000000
C      -4.432409000000000      2.445326000000000      2.710677000000000
C      -3.557549000000000      1.389018000000000      2.471954000000000
C      -0.983160000000000     -0.302084000000000      3.475678000000000
C      -0.647873000000000     -0.748963000000000      4.749194000000000
C      -1.076273000000000     -2.000148000000000      5.186055000000000
C      -1.852233000000000     -2.787376000000000      4.342419000000000
C      -2.206227000000000     -2.327682000000000      3.074636000000000
C      -2.877004000000000     -2.351548000000000     -0.999032000000000
C      -3.746936000000000     -3.285654000000000     -1.561782000000000
C      -4.935056000000000     -3.609091000000000     -0.913830000000000
C      -5.255718000000000     -2.991539000000000      0.295650000000000
C      -4.391589000000000     -2.050742000000000      0.847046000000000
N      -3.811565000000000      1.063240000000000     -1.248529000000000
H      -5.390932000000000      3.039233000000000     -0.475925000000000
H      -5.772598000000000      3.877042000000000      1.816066000000000
H      -4.597868000000000      2.785224000000000      3.728154000000000
H      -3.067437000000000      0.926163000000000      3.319892000000000
H      -0.612723000000000      0.660709000000000      3.137344000000000
H      -0.029117000000000     -0.125148000000000      5.386132000000000
H      -0.800644000000000     -2.359818000000000      6.172576000000000
H      -2.187314000000000     -3.768481000000000      4.665377000000000
H      -2.800296000000000     -2.972708000000000      2.437121000000000
H      -1.957064000000000     -2.089738000000000     -1.512267000000000
H      -3.495542000000000     -3.753742000000000     -2.508842000000000
H      -5.614052000000000     -4.334984000000000     -1.350242000000000
H      -6.185687000000000     -3.232945000000000      0.801174000000000
H      -4.658847000000000     -1.548551000000000      1.774321000000000
Rh      0.017006000000000      0.245774000000000     -0.130604000000000
C       0.150542000000000     -0.836325000000000     -1.760837000000000
O       0.282424000000000     -1.467220000000000     -2.707996000000000
H      -0.027758000000000      1.138731000000000      1.169443000000000
C       0.001310000000000     -3.444421000000000      1.037691000000000
H       0.310082000000000     -2.658704000000000      1.730472000000000
H      -1.039268000000000     -3.261912000000000      0.759961000000000
H       0.061926000000000     -4.417265000000000      1.557604000000000
C       0.325347000000000     -4.378810000000000     -1.148432000000000
H       0.929962000000000     -4.325842000000000     -2.057061000000000
H       0.316548000000000     -5.419494000000000     -0.780381000000000
H      -0.704026000000000     -4.108788000000000     -1.401345000000000
C      -3.656963000000000      2.146099000000000     -2.218786000000000
H      -2.993560000000000      2.917563000000000     -1.828755000000000
H      -3.221585000000000      1.736568000000000     -3.136361000000000
H      -4.618059000000000      2.616085000000000     -2.488112000000000
C      -4.920135000000000      0.215107000000000     -1.691909000000000
H      -4.655097000000000     -0.241102000000000     -2.651207000000000
H      -5.117230000000000     -0.578253000000000     -0.973757000000000
H      -5.846510000000000      0.800806000000000     -1.827498000000000
C      -0.626466000000000      2.080544000000000     -1.058396000000000
C       0.777548000000000      2.102494000000000     -1.006364000000000
C       1.588345000000000      1.951523000000000     -2.258887000000000
O       2.027088000000000      3.271449000000000     -2.654387000000000
C       2.954756000000000      3.305759000000000     -3.619222000000000
C       3.446225000000000      4.714445000000000     -3.844541000000000
O       3.355138000000000      2.331530000000000     -4.209619000000000
H      -1.103474000000000      1.883441000000000     -2.013278000000000
H      -1.229101000000000      2.631082000000000     -0.340616000000000
H       1.278549000000000      2.669078000000000     -0.224018000000000
H       0.986402000000000      1.523006000000000     -3.070266000000000
H       2.476988000000000      1.335940000000000     -2.131117000000000
H       4.033284000000000      5.027028000000000     -2.975587000000000
H       2.603314000000000      5.401955000000000     -3.939471000000000
H       4.068502000000000      4.743898000000000     -4.737864000000000
