91

P       2.028597000000000     -0.789862000000000     -0.070877000000000
C       1.888608000000000      1.021038000000000     -0.376962000000000
C       3.235925000000000     -1.341824000000000     -1.342244000000000
C       3.080918000000000     -0.822347000000000      1.446073000000000
C       0.937825000000000      1.433305000000000     -1.312333000000000
C       0.627282000000000      2.783469000000000     -1.486267000000000
C       1.329852000000000      3.734602000000000     -0.731875000000000
C       2.302783000000000      3.329212000000000      0.168878000000000
C       2.587283000000000      1.977404000000000      0.362438000000000
C       3.736880000000000     -0.497225000000000     -2.334337000000000
C       4.636891000000000     -0.985278000000000     -3.282446000000000
C       5.051573000000000     -2.312052000000000     -3.238806000000000
C       4.561818000000000     -3.158517000000000     -2.243813000000000
C       3.654703000000000     -2.678134000000000     -1.306829000000000
C       2.467966000000000     -0.898874000000000      2.700771000000000
C       3.223077000000000     -0.847652000000000      3.870499000000000
C       4.608369000000000     -0.727553000000000      3.798805000000000
C       5.231535000000000     -0.659784000000000      2.554820000000000
C       4.474531000000000     -0.705233000000000      1.386735000000000
H       0.377165000000000      0.688029000000000     -1.868302000000000
N      -0.348983000000000      3.171727000000000     -2.405770000000000
H       1.091501000000000      4.788889000000000     -0.846978000000000
H       2.824159000000000      4.073574000000000      0.762614000000000
H       3.319385000000000      1.684166000000000      1.106521000000000
H       3.426689000000000      0.542892000000000     -2.368582000000000
H       5.016585000000000     -0.320755000000000     -4.052514000000000
H       5.753703000000000     -2.688379000000000     -3.976267000000000
H       4.882308000000000     -4.195004000000000     -2.202959000000000
H       3.263784000000000     -3.339468000000000     -0.536868000000000
H       1.390156000000000     -1.014088000000000      2.766829000000000
H       2.729074000000000     -0.918184000000000      4.834922000000000
H       5.200918000000000     -0.694973000000000      4.707739000000000
H       6.311618000000000     -0.570300000000000      2.491585000000000
H       4.969434000000000     -0.642306000000000      0.421740000000000
P      -1.824843000000000     -0.482576000000000      0.056470000000000
C      -1.560560000000000      1.225760000000000      0.707398000000000
C      -3.104337000000000     -1.132162000000000      1.209753000000000
C      -2.842402000000000     -0.153172000000000     -1.448982000000000
C      -0.554600000000000      1.385325000000000      1.660474000000000
C      -0.287028000000000      2.631027000000000      2.237177000000000
C      -1.068726000000000      3.729046000000000      1.848382000000000
C      -2.077887000000000      3.569914000000000      0.908982000000000
C      -2.331036000000000      2.327528000000000      0.326917000000000
C      -3.510046000000000     -0.463818000000000      2.366651000000000
C      -4.452447000000000     -1.045294000000000      3.216362000000000
C      -5.003269000000000     -2.285639000000000      2.911393000000000
C      -4.608886000000000     -2.952010000000000      1.750859000000000
C      -3.660183000000000     -2.383642000000000      0.909411000000000
C      -2.235172000000000     -0.123742000000000     -2.709394000000000
C      -2.972618000000000      0.192419000000000     -3.849156000000000
C      -4.333998000000000      0.465666000000000     -3.745057000000000
C      -4.954347000000000      0.416204000000000     -2.498845000000000
C      -4.215110000000000      0.109820000000000     -1.359103000000000
H       0.057832000000000      0.529812000000000      1.936698000000000
N       0.776291000000000      2.796546000000000      3.119556000000000
H      -0.862214000000000      4.707413000000000      2.274475000000000
H      -2.676295000000000      4.429847000000000      0.620941000000000
H      -3.120059000000000      2.225892000000000     -0.410427000000000
H      -3.095431000000000      0.510555000000000      2.607795000000000
H      -4.757549000000000     -0.520075000000000      4.116452000000000
H      -5.737524000000000     -2.732817000000000      3.574427000000000
H      -5.031123000000000     -3.918353000000000      1.493320000000000
H      -3.364378000000000     -2.922513000000000      0.012499000000000
H      -1.185242000000000     -0.386452000000000     -2.802166000000000
H      -2.483974000000000      0.208117000000000     -4.818514000000000
H      -4.911937000000000      0.703189000000000     -4.632685000000000
H      -6.018242000000000      0.613690000000000     -2.411678000000000
H      -4.707721000000000      0.074853000000000     -0.391354000000000
Rh      0.002237000000000     -1.979839000000000     -0.140005000000000
C      -0.185355000000000     -2.666124000000000      1.681999000000000
O      -0.344138000000000     -3.118276000000000      2.720369000000000
H       0.127241000000000     -1.515680000000000     -1.645254000000000
H      -1.039187000000000      2.448376000000000     -2.583939000000000
H      -0.810397000000000      4.038017000000000     -2.154045000000000
H       0.635186000000000      3.486899000000000      3.844976000000000
H       1.172673000000000      1.936463000000000      3.477475000000000
C       0.524510000000000     -3.923150000000000     -0.947357000000000
C      -0.882707000000000     -3.787287000000000     -0.950193000000000
C      -1.641917000000000     -3.567221000000000     -2.227392000000000
O      -2.099914000000000     -4.824058000000000     -2.784558000000000
C      -3.175062000000000     -5.362309000000000     -2.199479000000000
C      -3.543666000000000     -6.675403000000000     -2.841445000000000
O      -3.768783000000000     -4.857767000000000     -1.273378000000000
H       1.077070000000000     -3.810715000000000     -1.877616000000000
H       1.006204000000000     -4.554086000000000     -0.204873000000000
H      -1.459713000000000     -4.303890000000000     -0.184348000000000
H      -0.993082000000000     -3.141469000000000     -2.995793000000000
H      -2.515481000000000     -2.923089000000000     -2.094603000000000
H      -2.727681000000000     -7.389233000000000     -2.701323000000000
H      -3.681623000000000     -6.538363000000000     -3.916493000000000
H      -4.456245000000000     -7.057735000000000     -2.386851000000000
