91

P       1.977584000000000     -0.091824000000000     -0.123079000000000
C       2.280875000000000     -0.955183000000000      1.478672000000000
C       2.082475000000000      1.675388000000000      0.372772000000000
C       3.600012000000000     -0.382542000000000     -0.937955000000000
C       1.345407000000000     -1.866459000000000      1.963106000000000
C       1.572970000000000     -2.546934000000000      3.160476000000000
C       2.736324000000000     -2.313145000000000      3.882808000000000
C       3.678482000000000     -1.398572000000000      3.407085000000000
C       3.454686000000000     -0.728548000000000      2.211650000000000
C       1.813691000000000      2.095254000000000      1.677388000000000
C       1.759226000000000      3.455530000000000      1.984387000000000
C       1.992417000000000      4.407209000000000      0.997756000000000
C       2.267896000000000      3.996886000000000     -0.307507000000000
C       2.300032000000000      2.642571000000000     -0.619004000000000
C       3.777720000000000     -1.609168000000000     -1.590732000000000
C       4.985405000000000     -1.948363000000000     -2.179871000000000
C       6.066766000000000     -1.056236000000000     -2.146772000000000
C       5.899726000000000      0.169113000000000     -1.490895000000000
C       4.688386000000000      0.493823000000000     -0.891620000000000
H       0.430332000000000     -2.042618000000000      1.406896000000000
H       0.832107000000000     -3.252729000000000      3.523263000000000
H       2.915796000000000     -2.841528000000000      4.814246000000000
H       4.590852000000000     -1.215809000000000      3.966517000000000
H       4.196199000000000     -0.026567000000000      1.837994000000000
H       1.635266000000000      1.359861000000000      2.457072000000000
H       1.537371000000000      3.767477000000000      3.000486000000000
H       1.952724000000000      5.464984000000000      1.239589000000000
H       2.438803000000000      4.731711000000000     -1.088249000000000
H       2.474926000000000      2.329688000000000     -1.646289000000000
H       2.948017000000000     -2.310807000000000     -1.635741000000000
H       5.099164000000000     -2.909207000000000     -2.675090000000000
N       7.294032000000000     -1.406324000000000     -2.703047000000000
H       6.730786000000000      0.868277000000000     -1.445298000000000
H       4.597487000000000      1.449890000000000     -0.384335000000000
P      -1.822842000000000      0.179324000000000     -0.317395000000000
C      -3.436511000000000     -0.504441000000000     -0.869881000000000
C      -2.184116000000000      1.977965000000000     -0.108945000000000
C      -1.780907000000000     -0.358280000000000      1.447559000000000
C      -3.609453000000000     -0.780260000000000     -2.231341000000000
C      -4.817688000000000     -1.253794000000000     -2.725186000000000
C      -5.897830000000000     -1.485329000000000     -1.864291000000000
C      -5.730931000000000     -1.219912000000000     -0.497090000000000
C      -4.523697000000000     -0.736963000000000     -0.014626000000000
C      -3.437932000000000      2.429756000000000      0.326550000000000
C      -3.673420000000000      3.786415000000000      0.513107000000000
C      -2.658174000000000      4.713820000000000      0.271332000000000
C      -1.411467000000000      4.274568000000000     -0.158583000000000
C      -1.175935000000000      2.912059000000000     -0.347613000000000
C      -2.112991000000000     -1.674871000000000      1.793505000000000
C      -1.974400000000000     -2.119173000000000      3.105346000000000
C      -1.483309000000000     -1.260260000000000      4.087428000000000
C      -1.137787000000000      0.044782000000000      3.749491000000000
C      -1.291121000000000      0.496095000000000      2.439839000000000
H      -2.783202000000000     -0.604936000000000     -2.911945000000000
H      -4.928557000000000     -1.451072000000000     -3.788321000000000
N      -7.122817000000000     -1.918653000000000     -2.357536000000000
H      -6.558115000000000     -1.394323000000000      0.186202000000000
H      -4.425055000000000     -0.552952000000000      1.051828000000000
H      -4.241046000000000      1.721829000000000      0.504891000000000
H      -4.651828000000000      4.122454000000000      0.842840000000000
H      -2.845971000000000      5.774123000000000      0.411705000000000
H      -0.615847000000000      4.982697000000000     -0.366581000000000
H      -0.209714000000000      2.580002000000000     -0.709247000000000
H      -2.489793000000000     -2.354866000000000      1.032660000000000
H      -2.246705000000000     -3.139666000000000      3.358841000000000
H      -1.366601000000000     -1.608879000000000      5.108955000000000
H      -0.751538000000000      0.719341000000000      4.507905000000000
H      -1.027366000000000      1.520293000000000      2.187890000000000
Rh      0.109704000000000     -0.537287000000000     -1.518939000000000
C      -0.271766000000000     -2.429728000000000     -1.166822000000000
O      -0.520321000000000     -3.534941000000000     -0.999306000000000
H       0.364858000000000      0.967459000000000     -1.879087000000000
H       7.244529000000000     -2.098398000000000     -3.439141000000000
H       7.880790000000000     -0.624673000000000     -2.963694000000000
H      -7.080174000000000     -2.407404000000000     -3.241929000000000
H      -7.711475000000000     -2.396531000000000     -1.688318000000000
C       1.114278000000000     -0.981912000000000     -3.371475000000000
C      -0.226857000000000     -0.650889000000000     -3.673713000000000
C      -0.500103000000000      0.650890000000000     -4.377900000000000
O      -1.745799000000000      1.232302000000000     -3.966891000000000
C      -1.730119000000000      2.495790000000000     -3.502326000000000
C      -3.123417000000000      2.941440000000000     -3.139023000000000
O      -0.740600000000000      3.183637000000000     -3.431648000000000
H       1.904974000000000     -0.259249000000000     -3.563739000000000
H       1.438758000000000     -2.017940000000000     -3.416048000000000
H      -0.911193000000000     -1.461129000000000     -3.924814000000000
H      -0.595039000000000      0.490380000000000     -5.459240000000000
H       0.305016000000000      1.363468000000000     -4.191619000000000
H      -3.694585000000000      2.115272000000000     -2.709837000000000
H      -3.631427000000000      3.272434000000000     -4.050867000000000
H      -3.065137000000000      3.773087000000000     -2.435871000000000
