95

P      -1.662760000000000     -0.642317000000000      0.062801000000000
C      -2.836239000000000     -0.238104000000000     -1.288300000000000
C      -2.822206000000000     -1.061786000000000      1.431217000000000
C      -1.044848000000000     -2.314838000000000     -0.432500000000000
C      -2.432840000000000      0.604834000000000     -2.322638000000000
C      -3.269821000000000      0.889811000000000     -3.401450000000000
C      -4.546891000000000      0.329536000000000     -3.444923000000000
C      -4.972308000000000     -0.511248000000000     -2.407956000000000
C      -4.127272000000000     -0.789530000000000     -1.347907000000000
C      -3.604473000000000     -0.021770000000000      1.952884000000000
C      -4.479244000000000     -0.256275000000000      3.006560000000000
C      -4.573577000000000     -1.531044000000000      3.566201000000000
C      -3.797203000000000     -2.566292000000000      3.058021000000000
C      -2.928417000000000     -2.336714000000000      1.989966000000000
C      -1.644419000000000     -3.094301000000000     -1.425563000000000
C      -1.092010000000000     -4.321615000000000     -1.791402000000000
C       0.064498000000000     -4.785443000000000     -1.170523000000000
C       0.663472000000000     -4.021615000000000     -0.170282000000000
C       0.113361000000000     -2.796604000000000      0.191050000000000
H      -1.450128000000000      1.065867000000000     -2.278556000000000
H      -2.920219000000000      1.552824000000000     -4.183763000000000
O      -5.445271000000000      0.541789000000000     -4.437200000000000
H      -5.972798000000000     -0.927285000000000     -2.460173000000000
H      -4.472055000000000     -1.443627000000000     -0.551306000000000
H      -3.522850000000000      0.973555000000000      1.522348000000000
H      -5.083607000000000      0.556780000000000      3.396898000000000
H      -5.250093000000000     -1.712908000000000      4.395394000000000
H      -3.866757000000000     -3.561101000000000      3.487193000000000
H      -2.335825000000000     -3.156237000000000      1.594709000000000
H      -2.538750000000000     -2.740909000000000     -1.929630000000000
H      -1.568569000000000     -4.913683000000000     -2.567860000000000
H       0.500584000000000     -5.735321000000000     -1.465532000000000
H       1.570040000000000     -4.370532000000000      0.314848000000000
H       0.606038000000000     -2.190275000000000      0.947447000000000
P       2.051960000000000      0.576000000000000     -0.267296000000000
C       2.324123000000000     -0.813436000000000     -1.434570000000000
C       3.229076000000000      0.295578000000000      1.111288000000000
C       2.842832000000000      1.936471000000000     -1.229757000000000
C       1.264322000000000     -1.167510000000000     -2.267494000000000
C       1.366829000000000     -2.211860000000000     -3.182352000000000
C       2.558439000000000     -2.933238000000000     -3.258702000000000
C       3.649279000000000     -2.563257000000000     -2.462113000000000
C       3.534731000000000     -1.508156000000000     -1.572193000000000
C       3.616611000000000      1.408473000000000      1.871617000000000
C       4.326754000000000      1.238955000000000      3.054971000000000
C       4.651898000000000     -0.041458000000000      3.501869000000000
C       4.255326000000000     -1.151136000000000      2.761900000000000
C       3.542724000000000     -0.985737000000000      1.574867000000000
C       4.226893000000000      2.138589000000000     -1.237539000000000
C       4.789848000000000      3.128286000000000     -2.038220000000000
C       3.979017000000000      3.918768000000000     -2.849450000000000
C       2.601491000000000      3.716682000000000     -2.856460000000000
C       2.037221000000000      2.733232000000000     -2.048340000000000
H       0.321912000000000     -0.631154000000000     -2.186954000000000
H       0.508392000000000     -2.470266000000000     -3.790474000000000
O       2.754472000000000     -4.002532000000000     -4.070682000000000
H       4.572917000000000     -3.123620000000000     -2.561387000000000
H       4.393150000000000     -1.231239000000000     -0.966299000000000
H       3.342401000000000      2.414941000000000      1.561096000000000
H       4.611015000000000      2.114707000000000      3.630039000000000
H       5.201807000000000     -0.173113000000000      4.428446000000000
H       4.493469000000000     -2.151848000000000      3.109302000000000
H       3.222205000000000     -1.860849000000000      1.014810000000000
H       4.867561000000000      1.527835000000000     -0.607592000000000
H       5.864524000000000      3.281661000000000     -2.027440000000000
H       4.419828000000000      4.691551000000000     -3.471526000000000
H       1.962990000000000      4.331631000000000     -3.483406000000000
H       0.959573000000000      2.590053000000000     -2.031450000000000
Rh     -0.059862000000000      0.954742000000000      0.718495000000000
C       0.380636000000000      0.009529000000000      2.394309000000000
O       0.628857000000000     -0.500670000000000      3.384795000000000
H      -0.435280000000000      1.780152000000000     -0.568113000000000
C      -5.060151000000000      1.391786000000000     -5.495254000000000
H      -4.837215000000000      2.402285000000000     -5.132672000000000
H      -4.184584000000000      0.997071000000000     -6.024531000000000
H      -5.909275000000000      1.430043000000000     -6.177043000000000
C       1.662223000000000     -4.424998000000000     -4.856723000000000
H       2.001994000000000     -5.306801000000000     -5.399725000000000
H       0.801841000000000     -4.686874000000000     -4.228490000000000
H       1.361870000000000     -3.649967000000000     -5.572223000000000
C      -1.153820000000000      2.495654000000000      1.781079000000000
C       0.212982000000000      2.857023000000000      1.706550000000000
C       0.681350000000000      3.971852000000000      0.817747000000000
O       0.737011000000000      5.223594000000000      1.546125000000000
C       1.810188000000000      5.392267000000000      2.326652000000000
C       1.747627000000000      6.709248000000000      3.057983000000000
O       2.709141000000000      4.589073000000000      2.431679000000000
H      -1.870576000000000      2.999509000000000      1.136067000000000
H      -1.568814000000000      2.112512000000000      2.709930000000000
H       0.843097000000000      2.719308000000000      2.584862000000000
H      -0.028063000000000      4.149056000000000      0.005944000000000
H       1.673029000000000      3.786971000000000      0.400166000000000
H       0.881631000000000      6.712852000000000      3.725149000000000
H       1.618022000000000      7.525885000000000      2.343962000000000
H       2.661927000000000      6.848490000000000      3.632744000000000
