95

P      -2.171839000000000      0.008849000000000     -0.383371000000000
C      -2.532396000000000     -1.304546000000000      0.880670000000000
C      -2.492316000000000     -0.775443000000000     -2.025395000000000
C      -3.748393000000000      0.980332000000000     -0.340864000000000
C      -1.767474000000000     -2.491063000000000      1.008421000000000
C      -1.987423000000000     -3.338647000000000      2.100437000000000
C      -2.926688000000000     -3.023437000000000      3.075898000000000
C      -3.672202000000000     -1.857306000000000      2.968181000000000
C      -3.473233000000000     -1.016950000000000      1.877475000000000
C      -2.989681000000000     -2.067089000000000     -2.201465000000000
C      -3.316328000000000     -2.529113000000000     -3.476596000000000
C      -3.176031000000000     -1.697552000000000     -4.582300000000000
C      -2.702453000000000     -0.396105000000000     -4.411889000000000
C      -2.357942000000000      0.056972000000000     -3.143862000000000
C      -3.742818000000000      2.325521000000000      0.018271000000000
C      -4.930528000000000      3.059559000000000      0.059345000000000
C      -6.134708000000000      2.444037000000000     -0.256684000000000
C      -6.151856000000000      1.096206000000000     -0.623915000000000
C      -4.968773000000000      0.371633000000000     -0.672208000000000
S      -0.558976000000000     -2.871051000000000     -0.231901000000000
H      -1.422785000000000     -4.258491000000000      2.195677000000000
H      -3.070285000000000     -3.695412000000000      3.916375000000000
H      -4.405209000000000     -1.595928000000000      3.724003000000000
H      -4.055888000000000     -0.104708000000000      1.809012000000000
H      -3.136427000000000     -2.717252000000000     -1.344516000000000
H      -3.693070000000000     -3.539885000000000     -3.598784000000000
H      -3.441602000000000     -2.056222000000000     -5.572098000000000
H      -2.601891000000000      0.265748000000000     -5.266935000000000
H      -1.987254000000000      1.071767000000000     -3.011456000000000
H      -2.808734000000000      2.817730000000000      0.248739000000000
H      -4.886146000000000      4.108223000000000      0.332956000000000
H      -7.061654000000000      3.008855000000000     -0.226054000000000
H      -7.089885000000000      0.612326000000000     -0.878890000000000
H      -4.991083000000000     -0.674843000000000     -0.965167000000000
P       1.829852000000000     -0.089893000000000     -0.570026000000000
C       3.178097000000000      1.028706000000000     -1.205123000000000
C       1.667274000000000     -1.301555000000000     -1.962805000000000
C       2.715706000000000     -1.117382000000000      0.675835000000000
C       4.025050000000000      1.805896000000000     -0.384118000000000
C       4.903386000000000      2.726603000000000     -0.968056000000000
C       4.937012000000000      2.924853000000000     -2.341660000000000
C       4.105336000000000      2.167851000000000     -3.158790000000000
C       3.251775000000000      1.229320000000000     -2.591079000000000
C       2.343755000000000     -2.525296000000000     -2.008823000000000
C       2.088476000000000     -3.436869000000000     -3.032073000000000
C       1.160926000000000     -3.138267000000000     -4.026540000000000
C       0.493662000000000     -1.917024000000000     -3.998239000000000
C       0.744483000000000     -1.010817000000000     -2.972064000000000
C       4.078267000000000     -1.407300000000000      0.550229000000000
C       4.730761000000000     -2.190127000000000      1.499081000000000
C       4.027147000000000     -2.696073000000000      2.588989000000000
C       2.668189000000000     -2.421239000000000      2.718983000000000
C       2.016858000000000     -1.640993000000000      1.766206000000000
S       4.060322000000000      1.646260000000000      1.399605000000000
H       5.574963000000000      3.292194000000000     -0.329499000000000
H       5.619649000000000      3.653646000000000     -2.767071000000000
H       4.122397000000000      2.296815000000000     -4.236195000000000
H       2.617576000000000      0.642339000000000     -3.246126000000000
H       3.058279000000000     -2.787759000000000     -1.235810000000000
H       2.616231000000000     -4.386224000000000     -3.046297000000000
H       0.955698000000000     -3.855534000000000     -4.815142000000000
H      -0.244043000000000     -1.674145000000000     -4.756564000000000
H       0.198195000000000     -0.073875000000000     -2.933240000000000
H       4.640095000000000     -1.005513000000000     -0.290045000000000
H       5.791172000000000     -2.394873000000000      1.390112000000000
H       4.536485000000000     -3.297777000000000      3.335250000000000
H       2.110102000000000     -2.807704000000000      3.566963000000000
H       0.955003000000000     -1.443170000000000      1.870197000000000
Rh     -0.126119000000000      1.158061000000000      0.044029000000000
C      -0.201602000000000      0.743113000000000      1.956589000000000
O      -0.334609000000000      0.503680000000000      3.073456000000000
H      -0.178394000000000      1.532072000000000     -1.493941000000000
C       0.326764000000000     -4.280490000000000      0.471402000000000
H       0.729070000000000     -4.050462000000000      1.460864000000000
H      -0.295814000000000     -5.177251000000000      0.506576000000000
H       1.160180000000000     -4.451866000000000     -0.213957000000000
C       4.049999000000000      3.402695000000000      1.888174000000000
H       5.053457000000000      3.833494000000000      1.888222000000000
H       3.402529000000000      3.982002000000000      1.228504000000000
H       3.653250000000000      3.438320000000000      2.905215000000000
C       0.928901000000000      3.050652000000000      0.172479000000000
C      -0.431387000000000      3.323050000000000      0.385470000000000
C      -0.893670000000000      3.691814000000000      1.769845000000000
O      -0.866307000000000      5.127002000000000      1.961435000000000
C      -1.895810000000000      5.801200000000000      1.437299000000000
C      -1.756035000000000      7.282548000000000      1.676022000000000
O      -2.816485000000000      5.278555000000000      0.852145000000000
H       1.597874000000000      3.032610000000000      1.026783000000000
H       1.398948000000000      3.248382000000000     -0.786502000000000
H      -1.030775000000000      3.730364000000000     -0.424763000000000
H      -0.197940000000000      3.310756000000000      2.520982000000000
H      -1.903172000000000      3.342031000000000      2.001557000000000
H      -0.824243000000000      7.638943000000000      1.229962000000000
H      -1.705459000000000      7.480086000000000      2.749678000000000
H      -2.606354000000000      7.802013000000000      1.237129000000000
