111

P      -2.144147000000000     -0.969438000000000     -0.078218000000000
C      -2.218271000000000      0.849404000000000      0.206190000000000
C      -3.392849000000000     -1.559431000000000      1.151898000000000
C      -3.120084000000000     -1.106990000000000     -1.645221000000000
C      -2.894378000000000      1.433521000000000      1.275275000000000
C      -2.923747000000000      2.820937000000000      1.430698000000000
C      -2.295216000000000      3.670501000000000      0.520984000000000
C      -1.611344000000000      3.073241000000000     -0.550892000000000
C      -1.564032000000000      1.694879000000000     -0.701641000000000
C      -4.765351000000000     -1.526139000000000      0.878682000000000
C      -5.689761000000000     -1.923252000000000      1.841671000000000
C      -5.258075000000000     -2.351219000000000      3.094321000000000
C      -3.895496000000000     -2.383540000000000      3.378473000000000
C      -2.970140000000000     -1.995872000000000      2.412355000000000
C      -3.164330000000000     -2.355699000000000     -2.276719000000000
C      -3.912518000000000     -2.545215000000000     -3.434051000000000
C      -4.626978000000000     -1.483702000000000     -3.984211000000000
C      -4.596196000000000     -0.239069000000000     -3.362591000000000
C      -3.853210000000000     -0.051324000000000     -2.198251000000000
H      -3.416226000000000      0.812303000000000      1.996596000000000
H      -3.462773000000000      3.229457000000000      2.278168000000000
C      -2.324522000000000      5.194493000000000      0.652826000000000
H      -1.096561000000000      3.694245000000000     -1.280621000000000
H      -1.012642000000000      1.264473000000000     -1.536262000000000
H      -5.118070000000000     -1.188125000000000     -0.090932000000000
H      -6.750118000000000     -1.896557000000000      1.610151000000000
H      -5.979762000000000     -2.661241000000000      3.843728000000000
H      -3.548347000000000     -2.719203000000000      4.350864000000000
H      -1.907242000000000     -2.036471000000000      2.631068000000000
H      -2.608898000000000     -3.186470000000000     -1.852017000000000
H      -3.931271000000000     -3.521328000000000     -3.908603000000000
H      -5.205017000000000     -1.626515000000000     -4.891842000000000
H      -5.154377000000000      0.592922000000000     -3.780961000000000
H      -3.852575000000000      0.922710000000000     -1.719599000000000
P       2.056589000000000     -1.324043000000000      0.137772000000000
C       2.508155000000000      0.443715000000000     -0.094509000000000
C       3.086342000000000     -2.191504000000000     -1.112158000000000
C       2.947610000000000     -1.626978000000000      1.726368000000000
C       3.792108000000000      0.865198000000000     -0.447935000000000
C       4.087195000000000      2.220296000000000     -0.563453000000000
C       3.118390000000000      3.199015000000000     -0.316259000000000
C       1.844315000000000      2.765277000000000      0.069049000000000
C       1.542806000000000      1.412359000000000      0.179458000000000
C       3.317890000000000     -1.633884000000000     -2.374021000000000
C       3.928828000000000     -2.385557000000000     -3.375857000000000
C       4.308150000000000     -3.702768000000000     -3.132755000000000
C       4.069851000000000     -4.269648000000000     -1.881861000000000
C       3.460523000000000     -3.521332000000000     -0.879904000000000
C       4.310293000000000     -1.938267000000000      1.778181000000000
C       4.950853000000000     -2.100522000000000      3.003975000000000
C       4.243152000000000     -1.937615000000000      4.191937000000000
C       2.890654000000000     -1.608645000000000      4.149745000000000
C       2.246774000000000     -1.458366000000000      2.924848000000000
H       4.570197000000000      0.132707000000000     -0.646994000000000
H       5.092706000000000      2.506783000000000     -0.851351000000000
C       3.394812000000000      4.695280000000000     -0.476634000000000
H       1.060619000000000      3.488938000000000      0.281403000000000
H       0.546933000000000      1.099483000000000      0.480537000000000
H       3.013119000000000     -0.611425000000000     -2.581078000000000
H       4.101648000000000     -1.938971000000000     -4.350237000000000
H       4.780245000000000     -4.286881000000000     -3.916625000000000
H       4.345112000000000     -5.299177000000000     -1.674914000000000
H       3.268356000000000     -3.995680000000000      0.078651000000000
H       4.873667000000000     -2.069085000000000      0.859054000000000
H       6.005777000000000     -2.355696000000000      3.028440000000000
H       4.743796000000000     -2.066801000000000      5.146483000000000
H       2.332158000000000     -1.476371000000000      5.071378000000000
H       1.186800000000000     -1.221529000000000      2.892178000000000
Rh     -0.136346000000000     -2.197223000000000     -0.042969000000000
C       0.037950000000000     -2.417326000000000     -1.993897000000000
O       0.155524000000000     -2.534685000000000     -3.123639000000000
H      -0.239950000000000     -1.972292000000000      1.509952000000000
C      -0.887463000000000      5.714670000000000      0.819049000000000
H      -0.272117000000000      5.476168000000000     -0.054738000000000
H      -0.885461000000000      6.803905000000000      0.939388000000000
H      -0.414232000000000      5.269456000000000      1.701567000000000
C      -2.944953000000000      5.805795000000000     -0.614545000000000
H      -2.966030000000000      6.898367000000000     -0.534920000000000
H      -2.373228000000000      5.545544000000000     -1.510423000000000
H      -3.971339000000000      5.450914000000000     -0.753159000000000
C      -3.144901000000000      5.654774000000000      1.861965000000000
H      -4.185738000000000      5.321731000000000      1.792239000000000
H      -2.723844000000000      5.281303000000000      2.801260000000000
H      -3.145520000000000      6.748481000000000      1.907904000000000
C       3.045557000000000      5.431367000000000      0.827228000000000
H       1.990648000000000      5.311687000000000      1.090626000000000
H       3.647214000000000      5.052051000000000      1.659552000000000
H       3.244007000000000      6.503523000000000      0.718464000000000
C       4.861883000000000      4.983101000000000     -0.811433000000000
H       5.532212000000000      4.614227000000000     -0.027832000000000
H       5.157067000000000      4.527276000000000     -1.762221000000000
H       5.011443000000000      6.063989000000000     -0.900438000000000
C       2.521740000000000      5.236814000000000     -1.621481000000000
H       1.458459000000000      5.062563000000000     -1.427280000000000
H       2.674059000000000      6.315481000000000     -1.741213000000000
H       2.773805000000000      4.744657000000000     -2.566602000000000
C      -1.032201000000000     -4.167100000000000      0.295264000000000
C       0.360754000000000     -4.279810000000000      0.454216000000000
C       0.953336000000000     -4.480042000000000      1.820450000000000
O       0.991440000000000     -5.888621000000000      2.160043000000000
C       1.987906000000000     -6.597362000000000      1.619413000000000
C       1.897719000000000     -8.049272000000000      2.014985000000000
O       2.845467000000000     -6.130720000000000      0.904612000000000
H      -1.677684000000000     -4.152194000000000      1.170940000000000
H      -1.504330000000000     -4.542691000000000     -0.608038000000000
H       0.952940000000000     -4.705878000000000     -0.354360000000000
H       0.321838000000000     -4.027657000000000      2.588242000000000
H       1.967390000000000     -4.085092000000000      1.911045000000000
H       0.970945000000000     -8.475331000000001      1.621787000000000
H       1.866119000000000     -8.137346000000001      3.103448000000000
H       2.755290000000000     -8.587960000000001      1.614974000000000
