105

P      -3.149163000000000     -1.745259000000000     -0.279538000000000
C      -2.562544000000000     -1.294638000000000     -1.967914000000000
C      -3.741041000000000     -0.123381000000000      0.355364000000000
C      -4.704152000000000     -2.658053000000000     -0.645123000000000
C      -2.925492000000000     -0.103476000000000     -2.605928000000000
C      -2.474911000000000      0.172341000000000     -3.893214000000000
C      -1.668293000000000     -0.748266000000000     -4.555534000000000
C      -1.309820000000000     -1.944664000000000     -3.940541000000000
C      -1.753082000000000     -2.210062000000000     -2.650072000000000
C      -5.072453000000000      0.143212000000000      0.686458000000000
C      -5.415935000000000      1.352822000000000      1.283169000000000
C      -4.434042000000000      2.307580000000000      1.531428000000000
C      -3.111239000000000      2.072250000000000      1.172101000000000
C      -2.771417000000000      0.855798000000000      0.596478000000000
C      -5.422046000000000     -3.194637000000000      0.433366000000000
C      -6.570189000000000     -3.941795000000000      0.217314000000000
C      -6.998161000000000     -4.181214000000000     -1.086046000000000
C      -6.305190000000000     -3.650007000000000     -2.164565000000000
C      -5.164855000000000     -2.881404000000000     -1.944413000000000
H      -3.561069000000000      0.615360000000000     -2.098627000000000
H      -2.746501000000000      1.102717000000000     -4.380900000000000
C      -1.227173000000000     -0.473880000000000     -5.966152000000000
H      -0.677339000000000     -2.655278000000000     -4.461931000000000
H      -1.470927000000000     -3.142327000000000     -2.169312000000000
H      -5.843863000000000     -0.594635000000000      0.491684000000000
H      -6.445561000000000      1.551451000000000      1.565064000000000
C      -4.826726000000000      3.593686000000000      2.198236000000000
H      -2.350921000000000      2.818455000000000      1.374312000000000
H      -1.730286000000000      0.657195000000000      0.353891000000000
H      -5.065067000000000     -3.035243000000000      1.447917000000000
H      -7.121114000000000     -4.359257000000000      1.053703000000000
C      -8.156969999999999     -5.106222000000000     -1.317659000000000
H      -6.649765000000000     -3.838865000000000     -3.175515000000000
H      -4.633249000000000     -2.468227000000000     -2.795354000000000
P      -0.749494000000000     -1.483571000000000      2.729794000000000
C      -0.168063000000000     -2.376036000000000      4.235402000000000
C      -1.747746000000000     -0.127326000000000      3.491161000000000
C       0.797504000000000     -0.602440000000000      2.237587000000000
C       0.704397000000000     -3.456782000000000      4.036880000000000
C       1.187066000000000     -4.181448000000000      5.114937000000000
C       0.785000000000000     -3.842553000000000      6.408373000000000
C      -0.085204000000000     -2.782779000000000      6.620536000000000
C      -0.557029000000000     -2.045196000000000      5.533566000000000
C      -1.179020000000000      1.084595000000000      3.902607000000000
C      -1.941837000000000      2.028208000000000      4.582405000000000
C      -3.280411000000000      1.765874000000000      4.865271000000000
C      -3.870275000000000      0.584522000000000      4.428226000000000
C      -3.106080000000000     -0.353072000000000      3.738040000000000
C       0.944728000000000     -0.202549000000000      0.905703000000000
C       2.078493000000000      0.489038000000000      0.489624000000000
C       3.082148000000000      0.772863000000000      1.409027000000000
C       2.960788000000000      0.368593000000000      2.736776000000000
C       1.822816000000000     -0.315396000000000      3.148161000000000
H       0.998236000000000     -3.729165000000000      3.025874000000000
H       1.862460000000000     -5.017090000000000      4.959769000000000
C       1.341721000000000     -4.627373000000000      7.561707000000000
H      -0.395321000000000     -2.529783000000000      7.628408000000000
H      -1.229937000000000     -1.212420000000000      5.711128000000000
H      -0.133135000000000      1.295429000000000      3.705023000000000
H      -1.494721000000000      2.962181000000000      4.909166000000000
C      -4.036923000000000      2.738600000000000      5.728225000000000
H      -4.919572000000000      0.397360000000000      4.629411000000000
H      -3.567429000000000     -1.273759000000000      3.393926000000000
H       0.175104000000000     -0.453461000000000      0.179890000000000
H       2.190307000000000      0.788625000000000     -0.546810000000000
C       4.292836000000000      1.559308000000000      0.989704000000000
H       3.758379000000000      0.580985000000000      3.441343000000000
H       1.733428000000000     -0.630424000000000      4.183917000000000
Rh     -1.709930000000000     -2.904750000000000      1.151853000000000
C      -0.109530000000000     -3.130458000000000      0.061978000000000
O       0.863106000000000     -3.276093000000000     -0.523533000000000
H      -2.950730000000000     -2.776137000000000      2.123601000000000
F      -1.087424000000000      0.839049000000000     -6.193077000000000
F      -2.119597000000000     -0.934699000000000     -6.854550000000000
F      -0.056553000000000     -1.064373000000000     -6.240569000000000
F      -5.538445000000000      4.381129000000000      1.379352000000000
F      -3.760162000000000      4.292723000000000      2.603587000000000
F      -5.595408000000000      3.357419000000000      3.273677000000000
F      -7.767329000000000     -6.388448000000000     -1.327164000000000
F      -8.760376000000001     -4.867383000000000     -2.491025000000000
F      -9.083429000000001     -4.986993000000000     -0.353404000000000
F       2.635557000000000     -4.337276000000000      7.767621000000000
F       1.273474000000000     -5.946518000000000      7.331264000000000
F       0.688932000000000     -4.377800000000000      8.703480000000001
F      -5.344183000000000      2.462232000000000      5.778418000000000
F      -3.891231000000000      3.999251000000000      5.303451000000000
F      -3.573798000000000      2.701614000000000      6.989473000000000
F       5.395387000000000      1.136353000000000      1.622383000000000
F       4.149650000000000      2.861108000000000      1.279800000000000
F       4.514464000000000      1.468061000000000     -0.327338000000000
C      -1.550848000000000     -4.933886000000000      1.980638000000000
C      -2.470559000000000     -4.937714000000000      0.918612000000000
C      -2.150257000000000     -5.552429000000000     -0.416181000000000
O      -2.632881000000000     -6.908525000000000     -0.491786000000000
C      -3.943966000000000     -7.030760000000000     -0.769774000000000
C      -4.368700000000000     -8.474453000000000     -0.804866000000000
O      -4.673552000000000     -6.089113000000000     -0.965499000000000
H      -0.558941000000000     -5.356451000000000      1.830252000000000
H      -1.890379000000000     -4.918260000000000      3.011371000000000
H      -3.535347000000000     -4.909905000000000      1.137319000000000
H      -1.069526000000000     -5.629704000000000     -0.566818000000000
H      -2.605032000000000     -4.988003000000000     -1.235574000000000
H      -4.169427000000000     -8.940284000000000      0.163487000000000
H      -3.788817000000000     -9.014583999999999     -1.557314000000000
H      -5.431684000000000     -8.524853999999999     -1.036929000000000
