107

P       2.136730000000000     -1.031199000000000     -0.308303000000000
C       2.177887000000000      0.733651000000000     -0.846035000000000
C       3.222493000000000     -1.759338000000000     -1.613036000000000
C       3.213301000000000     -1.032389000000000      1.180897000000000
C       1.021665000000000      1.297821000000000     -1.382844000000000
C       0.984033000000000      2.646598000000000     -1.763936000000000
C       2.144516000000000      3.413772000000000     -1.634014000000000
C       3.315875000000000      2.849160000000000     -1.134162000000000
C       3.334472000000000      1.517423000000000     -0.735448000000000
C       4.618108000000000     -1.656123000000000     -1.567838000000000
C       5.398289000000000     -2.150755000000000     -2.608737000000000
C       4.795077000000000     -2.746007000000000     -3.714451000000000
C       3.408180000000000     -2.844216000000000     -3.773662000000000
C       2.626864000000000     -2.357204000000000     -2.728001000000000
C       3.161893000000000      0.017389000000000      2.103295000000000
C       3.822037000000000     -0.080916000000000      3.325708000000000
C       4.537625000000000     -1.231496000000000      3.644442000000000
C       4.583415000000000     -2.288335000000000      2.737326000000000
C       3.920771000000000     -2.193204000000000      1.517345000000000
H       0.119480000000000      0.693177000000000     -1.453123000000000
C      -0.280733000000000      3.261785000000000     -2.231502000000000
H       2.127989000000000      4.457893000000000     -1.933006000000000
H       4.213874000000000      3.453371000000000     -1.048384000000000
H       4.243729000000000      1.089510000000000     -0.322290000000000
H       5.102362000000000     -1.197250000000000     -0.710496000000000
H       6.479584000000000     -2.068943000000000     -2.555746000000000
H       5.404852000000000     -3.131837000000000     -4.525496000000000
H       2.929359000000000     -3.305538000000000     -4.631818000000000
H       1.544564000000000     -2.440788000000000     -2.772008000000000
H       2.594430000000000      0.916126000000000      1.877967000000000
H       3.768020000000000      0.744816000000000      4.028700000000000
H       5.050383000000000     -1.309043000000000      4.597891000000000
H       5.131212000000000     -3.193136000000000      2.981847000000000
H       3.949194000000000     -3.027698000000000      0.820232000000000
P      -1.950512000000000     -1.080931000000000      0.087937000000000
C      -2.131446000000000      0.739715000000000      0.338413000000000
C      -3.212030000000000     -1.646074000000000      1.319848000000000
C      -2.790718000000000     -1.396802000000000     -1.512833000000000
C      -1.113331000000000      1.426650000000000      0.998320000000000
C      -1.240181000000000      2.787088000000000      1.311036000000000
C      -2.408799000000000      3.452601000000000      0.932566000000000
C      -3.430200000000000      2.777460000000000      0.270256000000000
C      -3.301198000000000      1.423948000000000     -0.014970000000000
C      -2.799621000000000     -1.867556000000000      2.637813000000000
C      -3.713404000000000     -2.243353000000000      3.618286000000000
C      -5.056684000000000     -2.409978000000000      3.291823000000000
C      -5.480101000000000     -2.184402000000000      1.985144000000000
C      -4.566990000000000     -1.798836000000000      1.006651000000000
C      -2.805501000000000     -0.451122000000000     -2.540177000000000
C      -3.292740000000000     -0.788781000000000     -3.801959000000000
C      -3.772089000000000     -2.071968000000000     -4.049287000000000
C      -3.764829000000000     -3.019174000000000     -3.026141000000000
C      -3.274943000000000     -2.686033000000000     -1.767780000000000
H      -0.209771000000000      0.887940000000000      1.282820000000000
C      -0.149082000000000      3.512307000000000      2.006440000000000
H      -2.502649000000000      4.517209000000000      1.129382000000000
H      -4.326355000000000      3.311826000000000     -0.029338000000000
H      -4.107728000000000      0.897282000000000     -0.518045000000000
H      -1.755036000000000     -1.744060000000000      2.905308000000000
H      -3.371934000000000     -2.410779000000000      4.635035000000000
H      -5.769826000000000     -2.713398000000000      4.051897000000000
H      -6.525922000000000     -2.309085000000000      1.721834000000000
H      -4.914047000000000     -1.628494000000000     -0.007671000000000
H      -2.440906000000000      0.554944000000000     -2.357448000000000
H      -3.296380000000000     -0.043584000000000     -4.592698000000000
H      -4.149840000000000     -2.332816000000000     -5.033100000000000
H      -4.132369000000000     -4.026247000000000     -3.197363000000000
H      -3.269880000000000     -3.447272000000000     -0.991829000000000
Rh      0.152119000000000     -2.158379000000000      0.108179000000000
C       0.506762000000000     -2.293434000000000      2.033593000000000
O       0.802595000000000     -2.362133000000000      3.136855000000000
H      -0.032060000000000     -2.006893000000000     -1.448539000000000
C      -0.675190000000000      4.513126000000000     -1.744791000000000
C      -1.106995000000000      2.603275000000000     -3.147838000000000
C      -2.692230000000000      4.421905000000000     -3.066140000000000
C      -2.307334000000000      3.176478000000000     -3.557717000000000
C      -1.870160000000000      5.090382000000000     -2.162176000000000
H      -0.055121000000000      5.013141000000000     -1.004501000000000
H      -2.167221000000000      6.057563000000000     -1.767839000000000
H      -3.627406000000000      4.869326000000000     -3.387995000000000
H      -2.938901000000000      2.654185000000000     -4.270522000000000
H      -0.793703000000000      1.643622000000000     -3.551931000000000
C       1.188204000000000      3.256311000000000      1.683927000000000
C      -0.428495000000000      4.469314000000000      2.988826000000000
C       1.930616000000000      4.878748000000000      3.307893000000000
C       0.602365000000000      5.145641000000000      3.634131000000000
C       2.219901000000000      3.931365000000000      2.328609000000000
H       1.416445000000000      2.538668000000000      0.902858000000000
H       3.249236000000000      3.719275000000000      2.051876000000000
H       2.733048000000000      5.406898000000000      3.813282000000000
H       0.367635000000000      5.877245000000000      4.401164000000000
H      -1.461049000000000      4.663202000000000      3.265668000000000
C       0.832632000000000     -4.207133000000000     -0.280804000000000
C      -0.572258000000000     -4.203295000000000     -0.265145000000000
C      -1.346591000000000     -4.789036000000000      0.880431000000000
O      -1.575524000000000     -6.207742000000000      0.691044000000000
C      -2.545934000000000     -6.538463000000000     -0.167231000000000
C      -2.658498000000000     -8.035026000000000     -0.308406000000000
O      -3.237974000000000     -5.737727000000000     -0.753592000000000
H       1.378668000000000     -4.606146000000000      0.572648000000000
H       1.372805000000000     -4.238972000000000     -1.221627000000000
H      -1.101953000000000     -4.201571000000000     -1.214914000000000
H      -2.317024000000000     -4.304020000000000      1.020547000000000
H      -0.776541000000000     -4.731778000000000      1.811283000000000
H      -1.733584000000000     -8.428749000000000     -0.738107000000000
H      -3.501629000000000     -8.275762000000000     -0.954029000000000
H      -2.787573000000000     -8.493491000000001      0.674708000000000
